LAMMPS data file generated by clean-room 1-hop pipeline

     221 atoms
     220 bonds
     438 angles
     648 dihedrals
       0 impropers

       5 atom types
       7 bond types
      14 angle types
      22 dihedral types
       0 improper types

  -31.456400    28.194500 xlo xhi
  -30.377500    32.852300 ylo yhi
  -31.815200    30.513200 zlo zhi

Masses

       1    12.011000
       2    12.011000
       3    12.011000
       4    12.011000
       5     1.008000

Pair Coeffs

       1     0.066000     3.500000
       2     0.066000     3.500000
       3     0.066000     3.500000
       4     0.066000     3.500000
       5     0.030000     2.500000

Bond Coeffs

       1   268.000000     1.529000
       2   340.000000     1.090000
       3   268.000000     1.529000
       4   268.000000     1.529000
       5   268.000000     1.529000
       6   340.000000     1.090000
       7   340.000000     1.090000

Angle Coeffs

       1    58.350000   112.700000
       2    37.500000   110.700000
       3    37.500000   110.700000
       4    58.350000   112.700000
       5    58.350000   112.700000
       6    58.350000   112.700000
       7    37.500000   110.700000
       8    58.350000   112.700000
       9    37.500000   110.700000
      10    58.350000   112.700000
      11    37.500000   110.700000
      12    37.500000   110.700000
      13    33.000000   107.800000
      14    33.000000   107.800000

Dihedral Coeffs

       1     0.850000    -0.200000     0.200000     0.000000
       2     0.850000    -0.200000     0.200000     0.000000
       3     0.850000    -0.200000     0.200000     0.000000
       4     0.000000     0.000000     0.300000     0.000000
       5     0.000000     0.000000     0.300000     0.000000
       6     0.850000    -0.200000     0.200000     0.000000
       7     0.850000    -0.200000     0.200000     0.000000
       8     0.850000    -0.200000     0.200000     0.000000
       9     0.000000     0.000000     0.300000     0.000000
      10     0.850000    -0.200000     0.200000     0.000000
      11     0.000000     0.000000     0.300000     0.000000
      12     0.850000    -0.200000     0.200000     0.000000
      13     0.000000     0.000000     0.300000     0.000000
      14     0.000000     0.000000     0.300000     0.000000
      15     0.850000    -0.200000     0.200000     0.000000
      16     0.850000    -0.200000     0.200000     0.000000
      17     0.000000     0.000000     0.300000     0.000000
      18     0.850000    -0.200000     0.200000     0.000000
      19     0.000000     0.000000     0.300000     0.000000
      20     0.000000     0.000000     0.300000     0.000000
      21     0.000000     0.000000     0.300000     0.000000
      22     0.000000     0.000000     0.300000     0.000000

Improper Coeffs


Atoms

       1    1      1  -0.26492919     6.091300    -2.853400     8.197600
       2    1      2  -0.19427782     4.656900    -2.969500     8.744200
       3    1      5   0.09693177     6.745800    -3.657400     8.670800
       4    1      5   0.09693177     6.074300    -2.991600     7.066500
       5    1      5   0.09693177     6.511000    -1.824000     8.448300
       6    1      5   0.09693177     4.662300    -2.828500     9.875500
       7    1      5   0.09693177     4.233100    -3.997600     8.491900
       8    1      1  -0.26492919    -0.312700     5.348600   -10.820300
       9    1      2  -0.19427782    -0.915100     5.413900    -9.405100
      10    1      5   0.09693177     0.087300     4.299500   -11.017100
      11    1      5   0.09693177    -1.117000     5.601400   -11.587500
      12    1      5   0.09693177     0.537700     6.103800   -10.899800
      13    1      5   0.09693177    -1.766800     4.662400    -9.322300
      14    1      5   0.09693177    -1.303200     6.468000    -9.210300
      15    1      1  -0.26492919    -3.184900     5.355700    -8.130900
      16    1      2  -0.19427782    -2.832000     4.956100    -6.688300
      17    1      5   0.09693177    -3.107200     4.446800    -8.814800
      18    1      5   0.09693177    -4.249400     5.763100    -8.157200
      19    1      5   0.09693177    -2.471600     6.172800    -8.478800
      20    1      5   0.09693177    -2.902200     5.898100    -6.049900
      21    1      5   0.09693177    -3.610000     4.207700    -6.322300
      22    1      1  -0.26492919    -1.551200    11.805600    -7.751400
      23    1      2  -0.19427782    -1.982800    10.599100    -6.901400
      24    1      5   0.09693177    -1.142600    11.432100    -8.747000
      25    1      5   0.09693177    -2.456300    12.469300    -7.950600
      26    1      5   0.09693177    -0.753000    12.403400    -7.199300
      27    1      5   0.09693177    -2.467900    10.983700    -5.944100
      28    1      5   0.09693177    -2.762600    10.023700    -7.501900
      29    1      1  -0.26492919     2.101300    11.820000    -9.318300
      30    1      2  -0.19427782     0.802700    11.203300    -8.767800
      31    1      5   0.09693177     2.520000    11.147500   -10.138500
      32    1      5   0.09693177     1.880200    12.852300    -9.748800
      33    1      5   0.09693177     2.864300    11.913900    -8.476300
      34    1      5   0.09693177     0.392800    11.874600    -7.944800
      35    1      5   0.09693177     0.042500    11.110100    -9.612300
      36    1      1  -0.26492919     0.345700     9.212900   -10.853200
      37    1      2  -0.19427782    -0.547600     8.196200   -10.113200
      38    1      5   0.09693177     0.731700     8.739100   -11.815200
      39    1      5   0.09693177    -0.270700    10.136800   -11.109600
      40    1      5   0.09693177     1.234000     9.525600   -10.215500
      41    1      5   0.09693177     0.048300     7.258800    -9.857700
      42    1      5   0.09693177    -1.399900     7.917900   -10.816900
      43    1      1  -0.26492919     2.643400    -1.108800    -8.845100
      44    1      2  -0.19427782     1.401500    -0.649300    -8.063400
      45    1      5   0.09693177     2.321800    -1.810000    -9.684400
      46    1      5   0.09693177     3.178600    -0.204300    -9.286500
      47    1      5   0.09693177     3.342700    -1.670300    -8.143000
      48    1      5   0.09693177     0.904800    -1.577900    -7.626800
      49    1      5   0.09693177     0.678300    -0.158600    -8.795400
      50    1      1  -0.26492919     6.854600    -0.186000    -4.929800
      51    1      2  -0.19427782     7.111900    -0.830400    -6.305300
      52    1      5   0.09693177     7.598200    -0.609300    -4.176300
      53    1      5   0.09693177     6.996200     0.942800    -5.006400
      54    1      5   0.09693177     5.801500    -0.417400    -4.570800
      55    1      5   0.09693177     6.963900    -1.958500    -6.235200
      56    1      5   0.09693177     8.194500    -0.614900    -6.590500
      57    1      1  -0.26492919    -4.323200    -0.137400    -6.696500
      58    1      2  -0.19427782    -4.431000    -0.621800    -5.238900
      59    1      5   0.09693177    -5.335800    -0.244600    -7.208600
      60    1      5   0.09693177    -4.003300     0.956500    -6.710800
      61    1      5   0.09693177    -3.549700    -0.766700    -7.248600
      62    1      5   0.09693177    -4.749800    -1.716400    -5.226500
      63    1      5   0.09693177    -5.201900     0.015500    -4.695200
      64    1      1  -0.26492919   -10.394100    -0.816900    -2.882200
      65    1      2  -0.19427782    -9.737300    -1.706800    -3.952900
      66    1      5   0.09693177    -9.784500    -0.872400    -1.920100
      67    1      5   0.09693177   -10.423100     0.261400    -3.251400
      68    1      5   0.09693177   -11.456400    -1.180100    -2.683000
      69    1      5   0.09693177    -9.708400    -2.786100    -3.587100
      70    1      5   0.09693177   -10.337200    -1.648000    -4.920600
      71    1      1  -0.26492919     2.319300    -9.648200     5.168000
      72    1      2  -0.19427782     1.232000    -8.557600     5.186100
      73    1      5   0.09693177     2.139800   -10.377500     6.025500
      74    1      5   0.09693177     2.280800   -10.210000     4.177100
      75    1      5   0.09693177     3.343400    -9.163500     5.291200
      76    1      5   0.09693177     1.279300    -8.004800     6.182300
      77    1      5   0.09693177     0.205300    -9.039900     5.071100
      78    1      1  -0.26492919     1.794200    -4.048700     9.652800
      79    1      2  -0.19427782     1.179000    -3.601000     8.313000
      80    1      5   0.09693177     1.686600    -5.178400     9.761600
      81    1      5   0.09693177     2.899300    -3.770000     9.674100
      82    1      5   0.09693177     1.254900    -3.530900    10.513200
      83    1      5   0.09693177     1.296800    -2.473200     8.194700
      84    1      5   0.09693177     0.074100    -3.880000     8.282100
      85    1      2  -0.19427782     3.777000    -1.887800     8.093000
      86    1      2  -0.19427782     3.774200    -2.084900     6.565800
      87    1      5   0.09693177     4.180700    -0.851900     8.345400
      88    1      5   0.09693177     2.712400    -1.989800     8.488200
      89    1      5   0.09693177     4.827000    -1.964700     6.144800
      90    1      5   0.09693177     3.394700    -3.130900     6.324200
      91    1      2  -0.19427782     2.820900    -1.064700     5.920200
      92    1      2  -0.19427782     2.676100    -1.420000     4.431100
      93    1      5   0.09693177     3.209200    -0.001600     6.057200
      94    1      5   0.09693177     1.796000    -1.165600     6.409300
      95    1      5   0.09693177     3.673000    -1.337700     3.884500
      96    1      5   0.09693177     2.303600    -2.495400     4.383000
      97    1      2  -0.19427782    -0.144900    -0.206500     0.333100
      98    1      2  -0.19427782     1.115300     0.352000    -0.362200
      99    1      5   0.09693177    -0.320800    -1.295000     0.042600
     100    1      5   0.09693177    -1.045800     0.423400     0.029600
     101    1      5   0.09693177     1.272000     1.444700    -0.077100
     102    1      5   0.09693177     1.985300    -0.258300     0.051300
     103    1      2  -0.19427782     0.301800     3.095300    -4.374800
     104    1      2  -0.19427782     0.947300     4.482000    -4.615200
     105    1      5   0.09693177     0.742400     2.392100    -5.157000
     106    1      5   0.09693177    -0.830000     3.130700    -4.506000
     107    1      5   0.09693177     2.034600     4.370200    -4.291100
     108    1      5   0.09693177     0.461000     5.302800    -3.991200
     109    1      2  -0.19427782     4.705500    -0.561700    -7.255900
     110    1      2  -0.19427782     6.209400    -0.258400    -7.418700
     111    1      5   0.09693177     4.175400    -0.126800    -8.164800
     112    1      5   0.09693177     4.543200    -1.689600    -7.221300
     113    1      5   0.09693177     6.359900     0.870200    -7.475700
     114    1      5   0.09693177     6.543600    -0.723900    -8.404200
     115    1      2  -0.19427782    -5.211600    -0.880700    -1.885300
     116    1      2  -0.19427782    -6.067700    -0.784200    -3.158500
     117    1      5   0.09693177    -5.163200    -1.978800    -1.582300
     118    1      5   0.09693177    -5.724400    -0.292400    -1.054300
     119    1      5   0.09693177    -6.104600     0.296500    -3.520000
     120    1      5   0.09693177    -5.604800    -1.447600    -3.959500
     121    1      2  -0.19427782    -7.498600    -1.284200    -2.889700
     122    1      2  -0.19427782    -8.302000    -1.209100    -4.201600
     123    1      5   0.09693177    -7.463800    -2.364300    -2.526600
     124    1      5   0.09693177    -7.994400    -0.630900    -2.097500
     125    1      5   0.09693177    -8.332600    -0.129200    -4.566000
     126    1      5   0.09693177    -7.803200    -1.862800    -4.991400
     127    1      2  -0.19427782     0.370100    -6.465600     4.145900
     128    1      2  -0.19427782     1.458000    -7.550400     4.040900
     129    1      5   0.09693177    -0.659500    -6.938100     4.019200
     130    1      5   0.09693177     0.443800    -6.006200     5.187200
     131    1      5   0.09693177     1.397100    -8.075100     3.030700
     132    1      5   0.09693177     2.483600    -7.067300     4.163500
     133    1      2  -0.19427782     1.393400    -3.950400     5.779300
     134    1      2  -0.19427782     1.930400    -4.318400     7.179200
     135    1      5   0.09693177     0.310200    -4.291200     5.677300
     136    1      5   0.09693177     1.477400    -2.831100     5.580200
     137    1      5   0.09693177     3.033300    -4.040000     7.250600
     138    1      5   0.09693177     1.827800    -5.444900     7.322500
     139    1      3  -0.12802444     1.261200    -1.002500     2.358000
     140    1      2  -0.19427782     1.619000    -0.513000     3.777800
     141    1      2  -0.19427782     0.100800    -0.106400     1.858000
     142    1      2  -0.19427782     0.879200    -2.488700     2.565900
     143    1      5   0.09693177     2.143400    -0.894900     1.643700
     144    1      5   0.09693177     1.978600     0.568600     3.757900
     145    1      5   0.09693177     0.674100    -0.580400     4.412000
     146    1      5   0.09693177    -0.841700    -0.367500     2.443700
     147    1      5   0.09693177     0.374200     0.981200     2.062600
     148    1      5   0.09693177     0.189300    -2.871600     1.741600
     149    1      5   0.09693177     0.334500    -2.542000     3.566200
     150    1      3  -0.12802444     2.588500    -0.167900    -5.793900
     151    1      2  -0.19427782     2.225800     0.595100    -4.508200
     152    1      2  -0.19427782     1.656000     0.348100    -6.910700
     153    1      2  -0.19427782     4.097000     0.088300    -6.002500
     154    1      5   0.09693177     2.371500    -1.274000    -5.615000
     155    1      5   0.09693177     2.441500     1.708800    -4.621800
     156    1      5   0.09693177     2.826600     0.172900    -3.636000
     157    1      5   0.09693177     0.629700     0.506200    -6.440000
     158    1      5   0.09693177     2.038000     1.352700    -7.290800
     159    1      5   0.09693177     4.630000    -0.314300    -5.082800
     160    1      5   0.09693177     4.265600     1.214200    -6.068600
     161    1      3  -0.12802444    -2.908800    -1.018100    -3.119000
     162    1      2  -0.19427782    -1.426300    -0.723200    -2.831800
     163    1      2  -0.19427782    -3.060500    -0.472000    -4.557700
     164    1      2  -0.19427782    -3.768500    -0.344800    -2.026700
     165    1      5   0.09693177    -3.064100    -2.146200    -3.092600
     166    1      5   0.09693177    -1.090100    -1.174100    -1.839900
     167    1      5   0.09693177    -0.819300    -1.181200    -3.681100
     168    1      5   0.09693177    -2.784000     0.634100    -4.554800
     169    1      5   0.09693177    -2.302300    -1.031100    -5.199500
     170    1      5   0.09693177    -3.270200    -0.560400    -1.024300
     171    1      5   0.09693177    -3.763200     0.782200    -2.198900
     172    1      3  -0.12802444     1.960900    -4.748400     3.307700
     173    1      2  -0.19427782     2.140600    -3.386300     2.596500
     174    1      2  -0.19427782     0.549200    -5.328400     3.119600
     175    1      2  -0.19427782     2.291600    -4.742700     4.816500
     176    1      5   0.09693177     2.732800    -5.472100     2.885000
     177    1      5   0.09693177     2.458500    -3.543300     1.511900
     178    1      5   0.09693177     2.995400    -2.868700     3.143400
     179    1      5   0.09693177     0.412800    -5.683800     2.045400
     180    1      5   0.09693177    -0.226400    -4.528500     3.361600
     181    1      5   0.09693177     2.237000    -5.829500     5.157100
     182    1      5   0.09693177     3.363800    -4.379600     4.953500
     183    1      4  -0.05455066     0.328800     1.012700    -2.913300
     184    1      2  -0.19427782     1.171400     0.196900    -1.899500
     185    1      2  -0.19427782     0.719800     2.507000    -3.003300
     186    1      2  -0.19427782     0.723300     0.386800    -4.260100
     187    1      2  -0.19427782    -1.190000     0.797100    -2.806500
     188    1      5   0.09693177     0.967800    -0.904700    -2.110600
     189    1      5   0.09693177     2.252000     0.412900    -2.192000
     190    1      5   0.09693177     1.858800     2.548900    -2.980100
     191    1      5   0.09693177     0.305200     3.104300    -2.125300
     192    1      5   0.09693177     0.133400     0.873100    -5.105800
     193    1      5   0.09693177     0.491100    -0.728700    -4.226500
     194    1      5   0.09693177    -1.674000     1.275300    -3.721500
     195    1      5   0.09693177    -1.627900     1.249700    -1.856100
     196    1      4  -0.05455066    -0.264400     5.234100    -6.897300
     197    1      2  -0.19427782     1.010500     4.832600    -6.122200
     198    1      2  -0.19427782     0.169900     5.075200    -8.371100
     199    1      2  -0.19427782    -1.436100     4.330100    -6.463800
     200    1      2  -0.19427782    -0.695200     6.710600    -6.779900
     201    1      5   0.09693177     1.423500     3.893700    -6.619900
     202    1      5   0.09693177     1.761600     5.675900    -6.279200
     203    1      5   0.09693177     1.048500     5.780400    -8.545100
     204    1      5   0.09693177     0.520200     4.004500    -8.545400
     205    1      5   0.09693177    -1.360900     4.201400    -5.333700
     206    1      5   0.09693177    -1.332200     3.307100    -6.955500
     207    1      5   0.09693177    -1.596500     6.833800    -7.467400
     208    1      5   0.09693177    -0.986700     7.007800    -5.718800
     209    1      4  -0.05455066    -0.119800     8.999300    -7.709000
     210    1      2  -0.19427782     0.433200     7.611800    -7.324900
     211    1      2  -0.19427782    -0.862000     9.611200    -6.503900
     212    1      2  -0.19427782     1.103800     9.808200    -8.194000
     213    1      2  -0.19427782    -1.161500     8.779300    -8.823600
     214    1      5   0.09693177     0.839800     7.156500    -8.287400
     215    1      5   0.09693177     1.271800     7.682600    -6.556200
     216    1      5   0.09693177    -0.108200    10.075000    -5.785600
     217    1      5   0.09693177    -1.401300     8.759700    -5.970800
     218    1      5   0.09693177     1.838200     9.920000    -7.329500
     219    1      5   0.09693177     1.607400     9.190800    -9.007600
     220    1      5   0.09693177    -1.938200     8.047900    -8.421600
     221    1      5   0.09693177    -1.671000     9.767300    -9.076900

Bonds

       1      1        1        2
       2      2        1        3
       3      2        1        4
       4      2        1        5
       5      6        2        6
       6      6        2        7
       7      3        2       85
       8      1        8        9
       9      2        8       10
      10      2        8       11
      11      2        8       12
      12      6        9       13
      13      6        9       14
      14      3        9      198
      15      1       15       16
      16      2       15       17
      17      2       15       18
      18      2       15       19
      19      6       16       20
      20      6       16       21
      21      3       16      199
      22      1       22       23
      23      2       22       24
      24      2       22       25
      25      2       22       26
      26      6       23       27
      27      6       23       28
      28      3       23      211
      29      1       29       30
      30      2       29       31
      31      2       29       32
      32      2       29       33
      33      6       30       34
      34      6       30       35
      35      3       30      212
      36      1       36       37
      37      2       36       38
      38      2       36       39
      39      2       36       40
      40      6       37       41
      41      6       37       42
      42      3       37      213
      43      1       43       44
      44      2       43       45
      45      2       43       46
      46      2       43       47
      47      6       44       48
      48      6       44       49
      49      3       44      152
      50      1       50       51
      51      2       50       52
      52      2       50       53
      53      2       50       54
      54      6       51       55
      55      6       51       56
      56      3       51      110
      57      1       57       58
      58      2       57       59
      59      2       57       60
      60      2       57       61
      61      6       58       62
      62      6       58       63
      63      3       58      163
      64      1       64       65
      65      2       64       66
      66      2       64       67
      67      2       64       68
      68      6       65       69
      69      6       65       70
      70      3       65      122
      71      1       71       72
      72      2       71       73
      73      2       71       74
      74      2       71       75
      75      6       72       76
      76      6       72       77
      77      3       72      128
      78      1       78       79
      79      2       78       80
      80      2       78       81
      81      2       78       82
      82      6       79       83
      83      6       79       84
      84      3       79      134
      85      3       85       86
      86      6       85       87
      87      6       85       88
      88      6       86       89
      89      6       86       90
      90      3       86       91
      91      3       91       92
      92      6       91       93
      93      6       91       94
      94      6       92       95
      95      6       92       96
      96      3       92      140
      97      3       97       98
      98      6       97       99
      99      6       97      100
     100      3       97      141
     101      6       98      101
     102      6       98      102
     103      3       98      184
     104      3      103      104
     105      6      103      105
     106      6      103      106
     107      3      103      185
     108      6      104      107
     109      6      104      108
     110      3      104      197
     111      3      109      110
     112      6      109      111
     113      6      109      112
     114      3      109      153
     115      6      110      113
     116      6      110      114
     117      3      115      116
     118      6      115      117
     119      6      115      118
     120      3      115      164
     121      6      116      119
     122      6      116      120
     123      3      116      121
     124      3      121      122
     125      6      121      123
     126      6      121      124
     127      6      122      125
     128      6      122      126
     129      3      127      128
     130      6      127      129
     131      6      127      130
     132      3      127      174
     133      6      128      131
     134      6      128      132
     135      3      133      134
     136      6      133      135
     137      6      133      136
     138      3      133      175
     139      6      134      137
     140      6      134      138
     141      4      139      140
     142      4      139      141
     143      4      139      142
     144      7      139      143
     145      6      140      144
     146      6      140      145
     147      6      141      146
     148      6      141      147
     149      6      142      148
     150      6      142      149
     151      3      142      173
     152      4      150      151
     153      4      150      152
     154      4      150      153
     155      7      150      154
     156      6      151      155
     157      6      151      156
     158      3      151      186
     159      6      152      157
     160      6      152      158
     161      6      153      159
     162      6      153      160
     163      4      161      162
     164      4      161      163
     165      4      161      164
     166      7      161      165
     167      6      162      166
     168      6      162      167
     169      3      162      187
     170      6      163      168
     171      6      163      169
     172      6      164      170
     173      6      164      171
     174      4      172      173
     175      4      172      174
     176      4      172      175
     177      7      172      176
     178      6      173      177
     179      6      173      178
     180      6      174      179
     181      6      174      180
     182      6      175      181
     183      6      175      182
     184      5      183      184
     185      5      183      185
     186      5      183      186
     187      5      183      187
     188      6      184      188
     189      6      184      189
     190      6      185      190
     191      6      185      191
     192      6      186      192
     193      6      186      193
     194      6      187      194
     195      6      187      195
     196      5      196      197
     197      5      196      198
     198      5      196      199
     199      5      196      200
     200      6      197      201
     201      6      197      202
     202      6      198      203
     203      6      198      204
     204      6      199      205
     205      6      199      206
     206      6      200      207
     207      6      200      208
     208      3      200      210
     209      5      209      210
     210      5      209      211
     211      5      209      212
     212      5      209      213
     213      6      210      214
     214      6      210      215
     215      6      211      216
     216      6      211      217
     217      6      212      218
     218      6      212      219
     219      6      213      220
     220      6      213      221

Angles

       1      2        1        2        6
       2      2        1        2        7
       3      1        1        2       85
       4      3        2        1        3
       5      3        2        1        4
       6      3        2        1        5
       7      4        2       85       86
       8      7        2       85       87
       9      7        2       85       88
      10     13        3        1        4
      11     13        3        1        5
      12     13        4        1        5
      13     14        6        2        7
      14      7        6        2       85
      15      7        7        2       85
      16      2        8        9       13
      17      2        8        9       14
      18      1        8        9      198
      19      3        9        8       10
      20      3        9        8       11
      21      3        9        8       12
      22      6        9      198      196
      23      7        9      198      203
      24      7        9      198      204
      25     13       10        8       11
      26     13       10        8       12
      27     13       11        8       12
      28     14       13        9       14
      29      7       13        9      198
      30      7       14        9      198
      31      2       15       16       20
      32      2       15       16       21
      33      1       15       16      199
      34      3       16       15       17
      35      3       16       15       18
      36      3       16       15       19
      37      6       16      199      196
      38      7       16      199      205
      39      7       16      199      206
      40     13       17       15       18
      41     13       17       15       19
      42     13       18       15       19
      43     14       20       16       21
      44      7       20       16      199
      45      7       21       16      199
      46      2       22       23       27
      47      2       22       23       28
      48      1       22       23      211
      49      3       23       22       24
      50      3       23       22       25
      51      3       23       22       26
      52      6       23      211      209
      53      7       23      211      216
      54      7       23      211      217
      55     13       24       22       25
      56     13       24       22       26
      57     13       25       22       26
      58     14       27       23       28
      59      7       27       23      211
      60      7       28       23      211
      61      2       29       30       34
      62      2       29       30       35
      63      1       29       30      212
      64      3       30       29       31
      65      3       30       29       32
      66      3       30       29       33
      67      6       30      212      209
      68      7       30      212      218
      69      7       30      212      219
      70     13       31       29       32
      71     13       31       29       33
      72     13       32       29       33
      73     14       34       30       35
      74      7       34       30      212
      75      7       35       30      212
      76      2       36       37       41
      77      2       36       37       42
      78      1       36       37      213
      79      3       37       36       38
      80      3       37       36       39
      81      3       37       36       40
      82      6       37      213      209
      83      7       37      213      220
      84      7       37      213      221
      85     13       38       36       39
      86     13       38       36       40
      87     13       39       36       40
      88     14       41       37       42
      89      7       41       37      213
      90      7       42       37      213
      91      2       43       44       48
      92      2       43       44       49
      93      1       43       44      152
      94      3       44       43       45
      95      3       44       43       46
      96      3       44       43       47
      97      5       44      152      150
      98      7       44      152      157
      99      7       44      152      158
     100     13       45       43       46
     101     13       45       43       47
     102     13       46       43       47
     103     14       48       44       49
     104      7       48       44      152
     105      7       49       44      152
     106      2       50       51       55
     107      2       50       51       56
     108      1       50       51      110
     109      3       51       50       52
     110      3       51       50       53
     111      3       51       50       54
     112      4       51      110      109
     113      7       51      110      113
     114      7       51      110      114
     115     13       52       50       53
     116     13       52       50       54
     117     13       53       50       54
     118     14       55       51       56
     119      7       55       51      110
     120      7       56       51      110
     121      2       57       58       62
     122      2       57       58       63
     123      1       57       58      163
     124      3       58       57       59
     125      3       58       57       60
     126      3       58       57       61
     127      5       58      163      161
     128      7       58      163      168
     129      7       58      163      169
     130     13       59       57       60
     131     13       59       57       61
     132     13       60       57       61
     133     14       62       58       63
     134      7       62       58      163
     135      7       63       58      163
     136      2       64       65       69
     137      2       64       65       70
     138      1       64       65      122
     139      3       65       64       66
     140      3       65       64       67
     141      3       65       64       68
     142      4       65      122      121
     143      7       65      122      125
     144      7       65      122      126
     145     13       66       64       67
     146     13       66       64       68
     147     13       67       64       68
     148     14       69       65       70
     149      7       69       65      122
     150      7       70       65      122
     151      2       71       72       76
     152      2       71       72       77
     153      1       71       72      128
     154      3       72       71       73
     155      3       72       71       74
     156      3       72       71       75
     157      4       72      128      127
     158      7       72      128      131
     159      7       72      128      132
     160     13       73       71       74
     161     13       73       71       75
     162     13       74       71       75
     163     14       76       72       77
     164      7       76       72      128
     165      7       77       72      128
     166      2       78       79       83
     167      2       78       79       84
     168      1       78       79      134
     169      3       79       78       80
     170      3       79       78       81
     171      3       79       78       82
     172      4       79      134      133
     173      7       79      134      137
     174      7       79      134      138
     175     13       80       78       81
     176     13       80       78       82
     177     13       81       78       82
     178     14       83       79       84
     179      7       83       79      134
     180      7       84       79      134
     181      7       85       86       89
     182      7       85       86       90
     183      4       85       86       91
     184      7       86       85       87
     185      7       86       85       88
     186      4       86       91       92
     187      7       86       91       93
     188      7       86       91       94
     189     14       87       85       88
     190     14       89       86       90
     191      7       89       86       91
     192      7       90       86       91
     193      7       91       92       95
     194      7       91       92       96
     195      4       91       92      140
     196      7       92       91       93
     197      7       92       91       94
     198      5       92      140      139
     199      7       92      140      144
     200      7       92      140      145
     201     14       93       91       94
     202     14       95       92       96
     203      7       95       92      140
     204      7       96       92      140
     205      7       97       98      101
     206      7       97       98      102
     207      4       97       98      184
     208      5       97      141      139
     209      7       97      141      146
     210      7       97      141      147
     211      7       98       97       99
     212      7       98       97      100
     213      4       98       97      141
     214      6       98      184      183
     215      7       98      184      188
     216      7       98      184      189
     217     14       99       97      100
     218      7       99       97      141
     219      7      100       97      141
     220     14      101       98      102
     221      7      101       98      184
     222      7      102       98      184
     223      7      103      104      107
     224      7      103      104      108
     225      4      103      104      197
     226      6      103      185      183
     227      7      103      185      190
     228      7      103      185      191
     229      7      104      103      105
     230      7      104      103      106
     231      4      104      103      185
     232      6      104      197      196
     233      7      104      197      201
     234      7      104      197      202
     235     14      105      103      106
     236      7      105      103      185
     237      7      106      103      185
     238     14      107      104      108
     239      7      107      104      197
     240      7      108      104      197
     241      7      109      110      113
     242      7      109      110      114
     243      5      109      153      150
     244      7      109      153      159
     245      7      109      153      160
     246      7      110      109      111
     247      7      110      109      112
     248      4      110      109      153
     249     14      111      109      112
     250      7      111      109      153
     251      7      112      109      153
     252     14      113      110      114
     253      7      115      116      119
     254      7      115      116      120
     255      4      115      116      121
     256      5      115      164      161
     257      7      115      164      170
     258      7      115      164      171
     259      7      116      115      117
     260      7      116      115      118
     261      4      116      115      164
     262      4      116      121      122
     263      7      116      121      123
     264      7      116      121      124
     265     14      117      115      118
     266      7      117      115      164
     267      7      118      115      164
     268     14      119      116      120
     269      7      119      116      121
     270      7      120      116      121
     271      7      121      122      125
     272      7      121      122      126
     273      7      122      121      123
     274      7      122      121      124
     275     14      123      121      124
     276     14      125      122      126
     277      7      127      128      131
     278      7      127      128      132
     279      5      127      174      172
     280      7      127      174      179
     281      7      127      174      180
     282      7      128      127      129
     283      7      128      127      130
     284      4      128      127      174
     285     14      129      127      130
     286      7      129      127      174
     287      7      130      127      174
     288     14      131      128      132
     289      7      133      134      137
     290      7      133      134      138
     291      5      133      175      172
     292      7      133      175      181
     293      7      133      175      182
     294      7      134      133      135
     295      7      134      133      136
     296      4      134      133      175
     297     14      135      133      136
     298      7      135      133      175
     299      7      136      133      175
     300     14      137      134      138
     301     11      139      140      144
     302     11      139      140      145
     303     11      139      141      146
     304     11      139      141      147
     305     11      139      142      148
     306     11      139      142      149
     307      5      139      142      173
     308      8      140      139      141
     309      8      140      139      142
     310      9      140      139      143
     311      8      141      139      142
     312      9      141      139      143
     313      9      142      139      143
     314      5      142      173      172
     315      7      142      173      177
     316      7      142      173      178
     317     14      144      140      145
     318     14      146      141      147
     319     14      148      142      149
     320      7      148      142      173
     321      7      149      142      173
     322     11      150      151      155
     323     11      150      151      156
     324      5      150      151      186
     325     11      150      152      157
     326     11      150      152      158
     327     11      150      153      159
     328     11      150      153      160
     329      8      151      150      152
     330      8      151      150      153
     331      9      151      150      154
     332      6      151      186      183
     333      7      151      186      192
     334      7      151      186      193
     335      8      152      150      153
     336      9      152      150      154
     337      9      153      150      154
     338     14      155      151      156
     339      7      155      151      186
     340      7      156      151      186
     341     14      157      152      158
     342     14      159      153      160
     343     11      161      162      166
     344     11      161      162      167
     345      5      161      162      187
     346     11      161      163      168
     347     11      161      163      169
     348     11      161      164      170
     349     11      161      164      171
     350      8      162      161      163
     351      8      162      161      164
     352      9      162      161      165
     353      6      162      187      183
     354      7      162      187      194
     355      7      162      187      195
     356      8      163      161      164
     357      9      163      161      165
     358      9      164      161      165
     359     14      166      162      167
     360      7      166      162      187
     361      7      167      162      187
     362     14      168      163      169
     363     14      170      164      171
     364     11      172      173      177
     365     11      172      173      178
     366     11      172      174      179
     367     11      172      174      180
     368     11      172      175      181
     369     11      172      175      182
     370      8      173      172      174
     371      8      173      172      175
     372      9      173      172      176
     373      8      174      172      175
     374      9      174      172      176
     375      9      175      172      176
     376     14      177      173      178
     377     14      179      174      180
     378     14      181      175      182
     379     12      183      184      188
     380     12      183      184      189
     381     12      183      185      190
     382     12      183      185      191
     383     12      183      186      192
     384     12      183      186      193
     385     12      183      187      194
     386     12      183      187      195
     387     10      184      183      185
     388     10      184      183      186
     389     10      184      183      187
     390     10      185      183      186
     391     10      185      183      187
     392     10      186      183      187
     393     14      188      184      189
     394     14      190      185      191
     395     14      192      186      193
     396     14      194      187      195
     397     12      196      197      201
     398     12      196      197      202
     399     12      196      198      203
     400     12      196      198      204
     401     12      196      199      205
     402     12      196      199      206
     403     12      196      200      207
     404     12      196      200      208
     405      6      196      200      210
     406     10      197      196      198
     407     10      197      196      199
     408     10      197      196      200
     409     10      198      196      199
     410     10      198      196      200
     411     10      199      196      200
     412      6      200      210      209
     413      7      200      210      214
     414      7      200      210      215
     415     14      201      197      202
     416     14      203      198      204
     417     14      205      199      206
     418     14      207      200      208
     419      7      207      200      210
     420      7      208      200      210
     421     12      209      210      214
     422     12      209      210      215
     423     12      209      211      216
     424     12      209      211      217
     425     12      209      212      218
     426     12      209      212      219
     427     12      209      213      220
     428     12      209      213      221
     429     10      210      209      211
     430     10      210      209      212
     431     10      210      209      213
     432     10      211      209      212
     433     10      211      209      213
     434     10      212      209      213
     435     14      214      210      215
     436     14      216      211      217
     437     14      218      212      219
     438     14      220      213      221

Dihedrals

       1      1        1        2       85       86
       2      4        1        2       85       87
       3      4        1        2       85       88
       4      9        2       85       86       89
       5      9        2       85       86       90
       6      6        2       85       86       91
       7     20        3        1        2        6
       8     20        3        1        2        7
       9      5        3        1        2       85
      10     20        4        1        2        6
      11     20        4        1        2        7
      12      5        4        1        2       85
      13     20        5        1        2        6
      14     20        5        1        2        7
      15      5        5        1        2       85
      16      9        6        2       85       86
      17     21        6        2       85       87
      18     21        6        2       85       88
      19      9        7        2       85       86
      20     21        7        2       85       87
      21     21        7        2       85       88
      22      3        8        9      198      196
      23      4        8        9      198      203
      24      4        8        9      198      204
      25     12        9      198      196      197
      26     12        9      198      196      199
      27     12        9      198      196      200
      28     20       10        8        9       13
      29     20       10        8        9       14
      30      5       10        8        9      198
      31     20       11        8        9       13
      32     20       11        8        9       14
      33      5       11        8        9      198
      34     20       12        8        9       13
      35     20       12        8        9       14
      36      5       12        8        9      198
      37     19       13        9      198      196
      38     21       13        9      198      203
      39     21       13        9      198      204
      40     19       14        9      198      196
      41     21       14        9      198      203
      42     21       14        9      198      204
      43      3       15       16      199      196
      44      4       15       16      199      205
      45      4       15       16      199      206
      46     12       16      199      196      197
      47     12       16      199      196      198
      48     12       16      199      196      200
      49     20       17       15       16       20
      50     20       17       15       16       21
      51      5       17       15       16      199
      52     20       18       15       16       20
      53     20       18       15       16       21
      54      5       18       15       16      199
      55     20       19       15       16       20
      56     20       19       15       16       21
      57      5       19       15       16      199
      58     19       20       16      199      196
      59     21       20       16      199      205
      60     21       20       16      199      206
      61     19       21       16      199      196
      62     21       21       16      199      205
      63     21       21       16      199      206
      64      3       22       23      211      209
      65      4       22       23      211      216
      66      4       22       23      211      217
      67     12       23      211      209      210
      68     12       23      211      209      212
      69     12       23      211      209      213
      70     20       24       22       23       27
      71     20       24       22       23       28
      72      5       24       22       23      211
      73     20       25       22       23       27
      74     20       25       22       23       28
      75      5       25       22       23      211
      76     20       26       22       23       27
      77     20       26       22       23       28
      78      5       26       22       23      211
      79     19       27       23      211      209
      80     21       27       23      211      216
      81     21       27       23      211      217
      82     19       28       23      211      209
      83     21       28       23      211      216
      84     21       28       23      211      217
      85      3       29       30      212      209
      86      4       29       30      212      218
      87      4       29       30      212      219
      88     12       30      212      209      210
      89     12       30      212      209      211
      90     12       30      212      209      213
      91     20       31       29       30       34
      92     20       31       29       30       35
      93      5       31       29       30      212
      94     20       32       29       30       34
      95     20       32       29       30       35
      96      5       32       29       30      212
      97     20       33       29       30       34
      98     20       33       29       30       35
      99      5       33       29       30      212
     100     19       34       30      212      209
     101     21       34       30      212      218
     102     21       34       30      212      219
     103     19       35       30      212      209
     104     21       35       30      212      218
     105     21       35       30      212      219
     106      3       36       37      213      209
     107      4       36       37      213      220
     108      4       36       37      213      221
     109     12       37      213      209      210
     110     12       37      213      209      211
     111     12       37      213      209      212
     112     20       38       36       37       41
     113     20       38       36       37       42
     114      5       38       36       37      213
     115     20       39       36       37       41
     116     20       39       36       37       42
     117      5       39       36       37      213
     118     20       40       36       37       41
     119     20       40       36       37       42
     120      5       40       36       37      213
     121     19       41       37      213      209
     122     21       41       37      213      220
     123     21       41       37      213      221
     124     19       42       37      213      209
     125     21       42       37      213      220
     126     21       42       37      213      221
     127      2       43       44      152      150
     128      4       43       44      152      157
     129      4       43       44      152      158
     130     10       44      152      150      151
     131     10       44      152      150      153
     132     11       44      152      150      154
     133     20       45       43       44       48
     134     20       45       43       44       49
     135      5       45       43       44      152
     136     20       46       43       44       48
     137     20       46       43       44       49
     138      5       46       43       44      152
     139     20       47       43       44       48
     140     20       47       43       44       49
     141      5       47       43       44      152
     142     17       48       44      152      150
     143     21       48       44      152      157
     144     21       48       44      152      158
     145     17       49       44      152      150
     146     21       49       44      152      157
     147     21       49       44      152      158
     148      1       50       51      110      109
     149      4       50       51      110      113
     150      4       50       51      110      114
     151      9       51      110      109      111
     152      9       51      110      109      112
     153      6       51      110      109      153
     154     20       52       50       51       55
     155     20       52       50       51       56
     156      5       52       50       51      110
     157     20       53       50       51       55
     158     20       53       50       51       56
     159      5       53       50       51      110
     160     20       54       50       51       55
     161     20       54       50       51       56
     162      5       54       50       51      110
     163      9       55       51      110      109
     164     21       55       51      110      113
     165     21       55       51      110      114
     166      9       56       51      110      109
     167     21       56       51      110      113
     168     21       56       51      110      114
     169      2       57       58      163      161
     170      4       57       58      163      168
     171      4       57       58      163      169
     172     10       58      163      161      162
     173     10       58      163      161      164
     174     11       58      163      161      165
     175     20       59       57       58       62
     176     20       59       57       58       63
     177      5       59       57       58      163
     178     20       60       57       58       62
     179     20       60       57       58       63
     180      5       60       57       58      163
     181     20       61       57       58       62
     182     20       61       57       58       63
     183      5       61       57       58      163
     184     17       62       58      163      161
     185     21       62       58      163      168
     186     21       62       58      163      169
     187     17       63       58      163      161
     188     21       63       58      163      168
     189     21       63       58      163      169
     190      1       64       65      122      121
     191      4       64       65      122      125
     192      4       64       65      122      126
     193      6       65      122      121      116
     194      9       65      122      121      123
     195      9       65      122      121      124
     196     20       66       64       65       69
     197     20       66       64       65       70
     198      5       66       64       65      122
     199     20       67       64       65       69
     200     20       67       64       65       70
     201      5       67       64       65      122
     202     20       68       64       65       69
     203     20       68       64       65       70
     204      5       68       64       65      122
     205      9       69       65      122      121
     206     21       69       65      122      125
     207     21       69       65      122      126
     208      9       70       65      122      121
     209     21       70       65      122      125
     210     21       70       65      122      126
     211      1       71       72      128      127
     212      4       71       72      128      131
     213      4       71       72      128      132
     214      9       72      128      127      129
     215      9       72      128      127      130
     216      6       72      128      127      174
     217     20       73       71       72       76
     218     20       73       71       72       77
     219      5       73       71       72      128
     220     20       74       71       72       76
     221     20       74       71       72       77
     222      5       74       71       72      128
     223     20       75       71       72       76
     224     20       75       71       72       77
     225      5       75       71       72      128
     226      9       76       72      128      127
     227     21       76       72      128      131
     228     21       76       72      128      132
     229      9       77       72      128      127
     230     21       77       72      128      131
     231     21       77       72      128      132
     232      1       78       79      134      133
     233      4       78       79      134      137
     234      4       78       79      134      138
     235      9       79      134      133      135
     236      9       79      134      133      136
     237      6       79      134      133      175
     238     20       80       78       79       83
     239     20       80       78       79       84
     240      5       80       78       79      134
     241     20       81       78       79       83
     242     20       81       78       79       84
     243      5       81       78       79      134
     244     20       82       78       79       83
     245     20       82       78       79       84
     246      5       82       78       79      134
     247      9       83       79      134      133
     248     21       83       79      134      137
     249     21       83       79      134      138
     250      9       84       79      134      133
     251     21       84       79      134      137
     252     21       84       79      134      138
     253      6       85       86       91       92
     254      9       85       86       91       93
     255      9       85       86       91       94
     256      9       86       91       92       95
     257      9       86       91       92       96
     258      6       86       91       92      140
     259     21       87       85       86       89
     260     21       87       85       86       90
     261      9       87       85       86       91
     262     21       88       85       86       89
     263     21       88       85       86       90
     264      9       88       85       86       91
     265      9       89       86       91       92
     266     21       89       86       91       93
     267     21       89       86       91       94
     268      9       90       86       91       92
     269     21       90       86       91       93
     270     21       90       86       91       94
     271      7       91       92      140      139
     272      9       91       92      140      144
     273      9       91       92      140      145
     274     10       92      140      139      141
     275     10       92      140      139      142
     276     11       92      140      139      143
     277     21       93       91       92       95
     278     21       93       91       92       96
     279      9       93       91       92      140
     280     21       94       91       92       95
     281     21       94       91       92       96
     282      9       94       91       92      140
     283     17       95       92      140      139
     284     21       95       92      140      144
     285     21       95       92      140      145
     286     17       96       92      140      139
     287     21       96       92      140      144
     288     21       96       92      140      145
     289      8       97       98      184      183
     290      9       97       98      184      188
     291      9       97       98      184      189
     292     10       97      141      139      140
     293     10       97      141      139      142
     294     11       97      141      139      143
     295      7       98       97      141      139
     296      9       98       97      141      146
     297      9       98       97      141      147
     298     12       98      184      183      185
     299     12       98      184      183      186
     300     12       98      184      183      187
     301     21       99       97       98      101
     302     21       99       97       98      102
     303      9       99       97       98      184
     304     17       99       97      141      139
     305     21       99       97      141      146
     306     21       99       97      141      147
     307     21      100       97       98      101
     308     21      100       97       98      102
     309      9      100       97       98      184
     310     17      100       97      141      139
     311     21      100       97      141      146
     312     21      100       97      141      147
     313      9      101       98       97      141
     314     19      101       98      184      183
     315     21      101       98      184      188
     316     21      101       98      184      189
     317      9      102       98       97      141
     318     19      102       98      184      183
     319     21      102       98      184      188
     320     21      102       98      184      189
     321      8      103      104      197      196
     322      9      103      104      197      201
     323      9      103      104      197      202
     324     12      103      185      183      184
     325     12      103      185      183      186
     326     12      103      185      183      187
     327      8      104      103      185      183
     328      9      104      103      185      190
     329      9      104      103      185      191
     330     12      104      197      196      198
     331     12      104      197      196      199
     332     12      104      197      196      200
     333     21      105      103      104      107
     334     21      105      103      104      108
     335      9      105      103      104      197
     336     19      105      103      185      183
     337     21      105      103      185      190
     338     21      105      103      185      191
     339     21      106      103      104      107
     340     21      106      103      104      108
     341      9      106      103      104      197
     342     19      106      103      185      183
     343     21      106      103      185      190
     344     21      106      103      185      191
     345      9      107      104      103      185
     346     19      107      104      197      196
     347     21      107      104      197      201
     348     21      107      104      197      202
     349      9      108      104      103      185
     350     19      108      104      197      196
     351     21      108      104      197      201
     352     21      108      104      197      202
     353     10      109      153      150      151
     354     10      109      153      150      152
     355     11      109      153      150      154
     356      7      110      109      153      150
     357      9      110      109      153      159
     358      9      110      109      153      160
     359     21      111      109      110      113
     360     21      111      109      110      114
     361     17      111      109      153      150
     362     21      111      109      153      159
     363     21      111      109      153      160
     364     21      112      109      110      113
     365     21      112      109      110      114
     366     17      112      109      153      150
     367     21      112      109      153      159
     368     21      112      109      153      160
     369      9      113      110      109      153
     370      9      114      110      109      153
     371      6      115      116      121      122
     372      9      115      116      121      123
     373      9      115      116      121      124
     374     10      115      164      161      162
     375     10      115      164      161      163
     376     11      115      164      161      165
     377      7      116      115      164      161
     378      9      116      115      164      170
     379      9      116      115      164      171
     380      9      116      121      122      125
     381      9      116      121      122      126
     382     21      117      115      116      119
     383     21      117      115      116      120
     384      9      117      115      116      121
     385     17      117      115      164      161
     386     21      117      115      164      170
     387     21      117      115      164      171
     388     21      118      115      116      119
     389     21      118      115      116      120
     390      9      118      115      116      121
     391     17      118      115      164      161
     392     21      118      115      164      170
     393     21      118      115      164      171
     394      9      119      116      115      164
     395      9      119      116      121      122
     396     21      119      116      121      123
     397     21      119      116      121      124
     398      9      120      116      115      164
     399      9      120      116      121      122
     400     21      120      116      121      123
     401     21      120      116      121      124
     402      6      121      116      115      164
     403     21      123      121      122      125
     404     21      123      121      122      126
     405     21      124      121      122      125
     406     21      124      121      122      126
     407     10      127      174      172      173
     408     10      127      174      172      175
     409     11      127      174      172      176
     410      7      128      127      174      172
     411      9      128      127      174      179
     412      9      128      127      174      180
     413     21      129      127      128      131
     414     21      129      127      128      132
     415     17      129      127      174      172
     416     21      129      127      174      179
     417     21      129      127      174      180
     418     21      130      127      128      131
     419     21      130      127      128      132
     420     17      130      127      174      172
     421     21      130      127      174      179
     422     21      130      127      174      180
     423      9      131      128      127      174
     424      9      132      128      127      174
     425     10      133      175      172      173
     426     10      133      175      172      174
     427     11      133      175      172      176
     428      7      134      133      175      172
     429      9      134      133      175      181
     430      9      134      133      175      182
     431     21      135      133      134      137
     432     21      135      133      134      138
     433     17      135      133      175      172
     434     21      135      133      175      181
     435     21      135      133      175      182
     436     21      136      133      134      137
     437     21      136      133      134      138
     438     17      136      133      175      172
     439     21      136      133      175      181
     440     21      136      133      175      182
     441      9      137      134      133      175
     442      9      138      134      133      175
     443     15      139      142      173      172
     444     17      139      142      173      177
     445     17      139      142      173      178
     446     13      140      139      141      146
     447     13      140      139      141      147
     448     13      140      139      142      148
     449     13      140      139      142      149
     450     10      140      139      142      173
     451      6      141       97       98      184
     452     13      141      139      140      144
     453     13      141      139      140      145
     454     13      141      139      142      148
     455     13      141      139      142      149
     456     10      141      139      142      173
     457     13      142      139      140      144
     458     13      142      139      140      145
     459     13      142      139      141      146
     460     13      142      139      141      147
     461     10      142      173      172      174
     462     10      142      173      172      175
     463     11      142      173      172      176
     464     22      143      139      140      144
     465     22      143      139      140      145
     466     22      143      139      141      146
     467     22      143      139      141      147
     468     22      143      139      142      148
     469     22      143      139      142      149
     470     11      143      139      142      173
     471     17      148      142      173      172
     472     21      148      142      173      177
     473     21      148      142      173      178
     474     17      149      142      173      172
     475     21      149      142      173      177
     476     21      149      142      173      178
     477     16      150      151      186      183
     478     17      150      151      186      192
     479     17      150      151      186      193
     480     13      151      150      152      157
     481     13      151      150      152      158
     482     13      151      150      153      159
     483     13      151      150      153      160
     484     12      151      186      183      184
     485     12      151      186      183      185
     486     12      151      186      183      187
     487     13      152      150      151      155
     488     13      152      150      151      156
     489     10      152      150      151      186
     490     13      152      150      153      159
     491     13      152      150      153      160
     492     13      153      150      151      155
     493     13      153      150      151      156
     494     10      153      150      151      186
     495     13      153      150      152      157
     496     13      153      150      152      158
     497     22      154      150      151      155
     498     22      154      150      151      156
     499     11      154      150      151      186
     500     22      154      150      152      157
     501     22      154      150      152      158
     502     22      154      150      153      159
     503     22      154      150      153      160
     504     19      155      151      186      183
     505     21      155      151      186      192
     506     21      155      151      186      193
     507     19      156      151      186      183
     508     21      156      151      186      192
     509     21      156      151      186      193
     510     16      161      162      187      183
     511     17      161      162      187      194
     512     17      161      162      187      195
     513     13      162      161      163      168
     514     13      162      161      163      169
     515     13      162      161      164      170
     516     13      162      161      164      171
     517     12      162      187      183      184
     518     12      162      187      183      185
     519     12      162      187      183      186
     520     13      163      161      162      166
     521     13      163      161      162      167
     522     10      163      161      162      187
     523     13      163      161      164      170
     524     13      163      161      164      171
     525     13      164      161      162      166
     526     13      164      161      162      167
     527     10      164      161      162      187
     528     13      164      161      163      168
     529     13      164      161      163      169
     530     22      165      161      162      166
     531     22      165      161      162      167
     532     11      165      161      162      187
     533     22      165      161      163      168
     534     22      165      161      163      169
     535     22      165      161      164      170
     536     22      165      161      164      171
     537     19      166      162      187      183
     538     21      166      162      187      194
     539     21      166      162      187      195
     540     19      167      162      187      183
     541     21      167      162      187      194
     542     21      167      162      187      195
     543     13      173      172      174      179
     544     13      173      172      174      180
     545     13      173      172      175      181
     546     13      173      172      175      182
     547     13      174      172      173      177
     548     13      174      172      173      178
     549     13      174      172      175      181
     550     13      174      172      175      182
     551     13      175      172      173      177
     552     13      175      172      173      178
     553     13      175      172      174      179
     554     13      175      172      174      180
     555     22      176      172      173      177
     556     22      176      172      173      178
     557     22      176      172      174      179
     558     22      176      172      174      180
     559     22      176      172      175      181
     560     22      176      172      175      182
     561     14      184      183      185      190
     562     14      184      183      185      191
     563     14      184      183      186      192
     564     14      184      183      186      193
     565     14      184      183      187      194
     566     14      184      183      187      195
     567      6      185      103      104      197
     568     14      185      183      184      188
     569     14      185      183      184      189
     570     14      185      183      186      192
     571     14      185      183      186      193
     572     14      185      183      187      194
     573     14      185      183      187      195
     574     14      186      183      184      188
     575     14      186      183      184      189
     576     14      186      183      185      190
     577     14      186      183      185      191
     578     14      186      183      187      194
     579     14      186      183      187      195
     580     14      187      183      184      188
     581     14      187      183      184      189
     582     14      187      183      185      190
     583     14      187      183      185      191
     584     14      187      183      186      192
     585     14      187      183      186      193
     586     18      196      200      210      209
     587     19      196      200      210      214
     588     19      196      200      210      215
     589     14      197      196      198      203
     590     14      197      196      198      204
     591     14      197      196      199      205
     592     14      197      196      199      206
     593     14      197      196      200      207
     594     14      197      196      200      208
     595     12      197      196      200      210
     596     14      198      196      197      201
     597     14      198      196      197      202
     598     14      198      196      199      205
     599     14      198      196      199      206
     600     14      198      196      200      207
     601     14      198      196      200      208
     602     12      198      196      200      210
     603     14      199      196      197      201
     604     14      199      196      197      202
     605     14      199      196      198      203
     606     14      199      196      198      204
     607     14      199      196      200      207
     608     14      199      196      200      208
     609     12      199      196      200      210
     610     14      200      196      197      201
     611     14      200      196      197      202
     612     14      200      196      198      203
     613     14      200      196      198      204
     614     14      200      196      199      205
     615     14      200      196      199      206
     616     12      200      210      209      211
     617     12      200      210      209      212
     618     12      200      210      209      213
     619     19      207      200      210      209
     620     21      207      200      210      214
     621     21      207      200      210      215
     622     19      208      200      210      209
     623     21      208      200      210      214
     624     21      208      200      210      215
     625     14      210      209      211      216
     626     14      210      209      211      217
     627     14      210      209      212      218
     628     14      210      209      212      219
     629     14      210      209      213      220
     630     14      210      209      213      221
     631     14      211      209      210      214
     632     14      211      209      210      215
     633     14      211      209      212      218
     634     14      211      209      212      219
     635     14      211      209      213      220
     636     14      211      209      213      221
     637     14      212      209      210      214
     638     14      212      209      210      215
     639     14      212      209      211      216
     640     14      212      209      211      217
     641     14      212      209      213      220
     642     14      212      209      213      221
     643     14      213      209      210      214
     644     14      213      209      210      215
     645     14      213      209      211      216
     646     14      213      209      211      217
     647     14      213      209      212      218
     648     14      213      209      212      219

Impropers


