LAMMPS data file generated by clean-room 1-hop pipeline

     243 atoms
     249 bonds
     468 angles
     691 dihedrals
      42 impropers

      10 atom types
      18 bond types
      42 angle types
      65 dihedral types
       6 improper types

  -32.514900    32.658900 xlo xhi
  -29.715400    24.822600 ylo yhi
  -38.798100    32.216200 zlo zhi

Masses

       1    12.011000
       2    12.011000
       3    12.011000
       4    12.011000
       5    12.011000
       6    12.011000
       7    12.011000
       8    12.011000
       9     1.008000
      10     1.008000

Pair Coeffs

       1     0.070000     3.550000
       2     0.070000     3.550000
       3     0.070000     3.550000
       4     0.066000     3.500000
       5     0.066000     3.500000
       6     0.066000     3.500000
       7     0.066000     3.500000
       8     0.066000     3.500000
       9     0.030000     2.420000
      10     0.030000     2.500000

Bond Coeffs

       1   469.000000     1.400000
       2   317.000000     1.510000
       3   469.000000     1.400000
       4   469.000000     1.400000
       5   367.000000     1.080000
       6   385.000000     1.460000
       7   268.000000     1.529000
       8   268.000000     1.529000
       9   268.000000     1.529000
      10   268.000000     1.529000
      11   340.000000     1.090000
      12   268.000000     1.529000
      13   340.000000     1.090000
      14   268.000000     1.529000
      15   268.000000     1.529000
      16   268.000000     1.529000
      17   340.000000     1.090000
      18   340.000000     1.090000

Angle Coeffs

       1    63.000000   120.000000
       2    63.000000   120.000000
       3    35.000000   120.000000
       4    63.000000   114.000000
       5    63.000000   114.000000
       6    63.000000   114.000000
       7    63.000000   114.000000
       8    35.000000   109.500000
       9    63.000000   120.000000
      10    70.000000   120.000000
      11    63.000000   120.000000
      12    63.000000   120.000000
      13    35.000000   120.000000
      14    63.000000   120.000000
      15    63.000000   120.000000
      16    35.000000   120.000000
      17    37.500000   110.700000
      18    58.350000   112.700000
      19    37.500000   110.700000
      20    58.350000   112.700000
      21    58.350000   112.700000
      22    37.500000   110.700000
      23    58.350000   112.700000
      24    37.500000   110.700000
      25    58.350000   112.700000
      26    37.500000   110.700000
      27    37.500000   110.700000
      28    37.500000   110.700000
      29    58.350000   112.700000
      30    58.350000   112.700000
      31    58.350000   112.700000
      32    37.500000   110.700000
      33    58.350000   112.700000
      34    37.500000   110.700000
      35    58.350000   112.700000
      36    37.500000   110.700000
      37    37.500000   110.700000
      38    37.500000   110.700000
      39    37.500000   110.700000
      40    33.000000   107.800000
      41    33.000000   107.800000
      42    33.000000   107.800000

Dihedral Coeffs

       1     0.000000     7.250000     0.000000     0.000000
       2     0.000000     7.250000     0.000000     0.000000
       3     0.000000     7.250000     0.000000     0.000000
       4     0.000000     7.250000     0.000000     0.000000
       5     0.000000     7.250000     0.000000     0.000000
       6     0.000000     0.000000     0.462000     0.000000
       7     0.000000     0.000000     0.000000     0.000000
       8     0.000000     0.000000     0.462000     0.000000
       9     0.000000     0.000000     0.000000     0.000000
      10     0.000000     0.000000     0.000000     0.000000
      11     0.000000     0.000000     0.462000     0.000000
      12     0.000000     0.000000     0.000000     0.000000
      13     0.000000     7.250000     0.000000     0.000000
      14     0.000000     7.250000     0.000000     0.000000
      15    -0.250000     0.000000     0.000000     0.000000
      16    -0.250000     0.000000     0.000000     0.000000
      17    -0.250000     0.000000     0.000000     0.000000
      18    -0.250000     0.000000     0.000000     0.000000
      19     0.000000     0.000000     0.000000     0.000000
      20     0.000000     7.250000     0.000000     0.000000
      21     0.000000     7.250000     0.000000     0.000000
      22     0.000000     7.250000     0.000000     0.000000
      23     0.000000     7.250000     0.000000     0.000000
      24     0.000000     7.250000     0.000000     0.000000
      25     0.000000     7.250000     0.000000     0.000000
      26     0.000000     7.250000     0.000000     0.000000
      27     0.000000     1.650000     0.000000    -0.050000
      28     0.000000     7.250000     0.000000     0.000000
      29     0.000000     7.250000     0.000000     0.000000
      30     0.000000     7.250000     0.000000     0.000000
      31     0.850000    -0.200000     0.200000     0.000000
      32     0.850000    -0.200000     0.200000     0.000000
      33     0.000000     0.000000     0.300000     0.000000
      34     0.000000     0.000000     0.300000     0.000000
      35     0.850000    -0.200000     0.200000     0.000000
      36     0.000000     0.000000     0.300000     0.000000
      37     0.850000    -0.200000     0.200000     0.000000
      38     0.000000     0.000000     0.300000     0.000000
      39     0.850000    -0.200000     0.200000     0.000000
      40     0.850000    -0.200000     0.200000     0.000000
      41     0.000000     0.000000     0.300000     0.000000
      42     0.000000     0.000000     0.300000     0.000000
      43     0.000000     0.000000     0.300000     0.000000
      44     0.850000    -0.200000     0.200000     0.000000
      45     0.850000    -0.200000     0.200000     0.000000
      46     0.850000    -0.200000     0.200000     0.000000
      47     0.000000     0.000000     0.300000     0.000000
      48     0.850000    -0.200000     0.200000     0.000000
      49     0.000000     0.000000     0.300000     0.000000
      50     0.850000    -0.200000     0.200000     0.000000
      51     0.000000     0.000000     0.300000     0.000000
      52     0.000000     0.000000     0.300000     0.000000
      53     0.000000     0.000000     0.300000     0.000000
      54     0.000000     0.000000     0.300000     0.000000
      55     0.850000    -0.200000     0.200000     0.000000
      56     0.850000    -0.200000     0.200000     0.000000
      57     0.000000     0.000000     0.300000     0.000000
      58     0.000000     0.000000     0.300000     0.000000
      59     0.000000     7.250000     0.000000     0.000000
      60     0.000000     0.000000     0.300000     0.000000
      61     0.000000     0.000000     0.300000     0.000000
      62     0.000000     0.000000     0.300000     0.000000
      63     0.000000     0.000000     0.300000     0.000000
      64     0.000000     0.000000     0.300000     0.000000
      65     0.000000     0.000000     0.300000     0.000000

Improper Coeffs

       1     2.500000   -1    2
       2     2.500000   -1    2
       3     2.500000   -1    2
       4     2.500000   -1    2
       5     2.500000   -1    2
       6     2.500000   -1    2

Atoms

       1    1      5  -0.26323514     7.350200    -1.664900     5.741600
       2    1      6  -0.19258377     6.146800    -2.556400     6.102600
       3    1     10   0.09862582     7.472400    -1.635900     4.608400
       4    1     10   0.09862582     7.172300    -0.607500     6.128700
       5    1     10   0.09862582     8.295900    -2.089000     6.216400
       6    1     10   0.09862582     6.011100    -2.588600     7.234100
       7    1     10   0.09862582     6.322600    -3.612200     5.709100
       8    1      5  -0.26323514     7.052600    -6.987100     3.618400
       9    1      4  -0.14418635     6.115900    -6.052100     4.405200
      10    1     10   0.09862582     6.431900    -7.772100     3.072500
      11    1     10   0.09862582     7.643400    -6.376600     2.858300
      12    1     10   0.09862582     7.773300    -7.502400     4.335700
      13    1     10   0.09862582     6.730900    -5.261200     4.949600
      14    1     10   0.09862582     5.518500    -6.659000     5.163200
      15    1      5  -0.26323514    -4.792600    -9.059500     3.371400
      16    1      4  -0.14418635    -5.217100    -7.578500     3.378000
      17    1     10   0.09862582    -5.697600    -9.715400     3.147000
      18    1     10   0.09862582    -3.996700    -9.224600     2.572000
      19    1     10   0.09862582    -4.365400    -9.335500     4.391800
      20    1     10   0.09862582    -6.009900    -7.411900     4.180200
      21    1     10   0.09862582    -5.638400    -7.291600     2.358400
      22    1      5  -0.26323514    -2.280700    -2.914200     8.530500
      23    1      6  -0.19258377    -1.962700    -3.250300     7.060200
      24    1     10   0.09862582    -1.415300    -2.371900     9.030800
      25    1     10   0.09862582    -3.208700    -2.252900     8.565000
      26    1     10   0.09862582    -2.486300    -3.882600     9.095700
      27    1     10   0.09862582    -2.865000    -3.814600     6.651600
      28    1     10   0.09862582    -1.047100    -3.926000     7.005500
      29    1      5  -0.26323514    -3.321600     1.202600    11.610600
      30    1      6  -0.19258377    -3.235900     0.873600    10.108900
      31    1     10   0.09862582    -2.481100     1.919900    11.891100
      32    1     10   0.09862582    -4.327700     1.689100    11.836000
      33    1     10   0.09862582    -3.219900     0.242100    12.216200
      34    1     10   0.09862582    -4.076500     0.155600     9.830700
      35    1     10   0.09862582    -3.341000     1.833200     9.502500
      36    1      5  -0.26323514    -6.353400     2.818800    -2.552800
      37    1      6  -0.19258377    -6.252200     1.378900    -3.100900
      38    1     10   0.09862582    -5.987200     3.546600    -3.350000
      39    1     10   0.09862582    -7.440100     3.052100    -2.298000
      40    1     10   0.09862582    -5.713700     2.942600    -1.619200
      41    1     10   0.09862582    -6.652400     0.613200    -2.357300
      42    1     10   0.09862582    -6.884300     1.350500    -4.049200
      43    1      5  -0.26323514   -10.457400     1.611100     4.624700
      44    1      4  -0.14418635    -9.107300     1.037300     4.154900
      45    1     10   0.09862582   -10.359200     2.735900     4.781900
      46    1     10   0.09862582   -11.251000     1.408600     3.831500
      47    1     10   0.09862582   -10.761200     1.113600     5.604400
      48    1     10   0.09862582    -9.207400    -0.086900     3.995500
      49    1     10   0.09862582    -8.306600     1.242300     4.940000
      50    1      5  -0.26323514   -11.704100     4.132500     0.728200
      51    1      4  -0.14418635   -10.509000     3.793900    -0.182100
      52    1     10   0.09862582   -12.120900     3.170000     1.175100
      53    1     10   0.09862582   -11.358700     4.822600     1.567300
      54    1     10   0.09862582   -12.514900     4.652100     0.118000
      55    1     10   0.09862582   -10.854200     3.104000    -1.021400
      56    1     10   0.09862582   -10.083800     4.752500    -0.629100
      57    1      5  -0.26323514     8.404800     3.426300    -8.544200
      58    1      6  -0.19258377     6.944700     3.485100    -8.056100
      59    1     10   0.09862582     8.472600     2.752600    -9.461300
      60    1     10   0.09862582     8.759300     4.475400    -8.815000
      61    1     10   0.09862582     9.065400     3.005500    -7.715900
      62    1     10   0.09862582     6.879100     4.158200    -7.138300
      63    1     10   0.09862582     6.278500     3.901400    -8.882200
      64    1      5  -0.26323514    10.699700    -0.292100   -14.644500
      65    1      4  -0.14418635     9.571900    -1.340400   -14.640900
      66    1     10   0.09862582    11.502900    -0.597100   -13.895200
      67    1     10   0.09862582    11.156200    -0.231600   -15.687400
      68    1     10   0.09862582    10.277800     0.726300   -14.353800
      69    1     10   0.09862582     8.766600    -1.040800   -15.390100
      70    1     10   0.09862582    10.000000    -2.356200   -14.931600
      71    1      6  -0.19258377     4.882900    -1.976600     5.443300
      72    1      6  -0.19258377     5.116200    -1.931800     3.923000
      73    1     10   0.09862582     3.987500    -2.643600     5.675100
      74    1     10   0.09862582     4.690000    -0.923900     5.835800
      75    1     10   0.09862582     6.008800    -1.262400     3.688000
      76    1     10   0.09862582     5.328400    -2.988200     3.550300
      77    1      6  -0.19258377     3.861600    -1.401800     3.207200
      78    1      6  -0.19258377     4.165500    -1.454100     1.697900
      79    1     10   0.09862582     3.631500    -0.333700     3.532200
      80    1     10   0.09862582     2.990700    -2.080900     3.478000
      81    1     10   0.09862582     5.049800    -0.759600     1.511300
      82    1     10   0.09862582     4.480600    -2.514600     1.425600
      83    1      6  -0.19258377    -1.810600    -0.121200     8.301900
      84    1      6  -0.19258377    -1.878200     0.213700     9.801400
      85    1     10   0.09862582    -1.909100     0.833200     7.686500
      86    1     10   0.09862582    -2.665200    -0.829900     8.042100
      87    1     10   0.09862582    -1.031100     0.925800    10.074700
      88    1     10   0.09862582    -1.780400    -0.748100    10.405700
      89    1      6  -0.19258377    -0.142000     0.541900    -3.566000
      90    1      6  -0.19258377    -1.137800     0.365400    -2.403800
      91    1     10   0.09862582    -0.489500    -0.144600    -4.407100
      92    1     10   0.09862582    -0.257900     1.619300    -3.919900
      93    1     10   0.09862582    -0.912100     1.090900    -1.553900
      94    1     10   0.09862582    -1.152700    -0.709400    -2.023800
      95    1      6  -0.19258377    -5.157700     1.490400    -0.418900
      96    1      4  -0.14418635    -5.389300     2.583400     0.638800
      97    1     10   0.09862582    -6.017500     1.561300    -1.156200
      98    1     10   0.09862582    -5.188800     0.456700     0.060500
      99    1     10   0.09862582    -5.244000     3.600600     0.145400
     100    1     10   0.09862582    -4.666200     2.470900     1.512900
     101    1      4  -0.14418635     5.014600     2.117500    -7.186600
     102    1      6  -0.19258377     6.471900     2.067900    -7.684700
     103    1     10   0.09862582     4.333200     2.513300    -8.010300
     104    1     10   0.09862582     4.947000     2.797900    -6.274300
     105    1     10   0.09862582     6.536900     1.390800    -8.599700
     106    1     10   0.09862582     7.143700     1.655300    -6.861300
     107    1      8  -0.05285661     1.790600    -1.955700     0.719900
     108    1      6  -0.19258377     3.029500    -1.029000     0.743400
     109    1      4  -0.14418635     2.224300    -3.409100     0.423000
     110    1      6  -0.19258377     1.082300    -1.847300     2.084100
     111    1      6  -0.19258377     0.916000    -1.517600    -0.480400
     112    1     10   0.09862582     3.510100    -1.063200    -0.287100
     113    1     10   0.09862582     2.705000     0.039800     0.970100
     114    1     10   0.09862582     1.283900    -4.051200     0.368400
     115    1     10   0.09862582     2.732200    -3.427600    -0.596800
     116    1     10   0.09862582     0.478400    -0.882900     2.150300
     117    1     10   0.09862582     1.910200    -1.798900     2.858000
     118    1     10   0.09862582     0.065700    -2.253000    -0.668300
     119    1     10   0.09862582     0.509700    -0.463100    -0.329600
     120    1      1  -0.09170927     3.192200    -4.066400     1.427900
     121    1      2  -0.15169691     4.428300    -4.822800     0.907500
     122    1      2  -0.15169691     5.403000    -5.485200     1.899400
     123    1      1  -0.09170927     5.154900    -5.370100     3.414600
     124    1      2  -0.15169691     3.922800    -4.610400     3.936500
     125    1      2  -0.15169691     2.943000    -3.962200     2.942700
     126    1      9   0.16367827     4.618400    -4.898400    -0.213900
     127    1      9   0.16367827     6.309800    -6.058100     1.512500
     128    1      9   0.16367827     3.738500    -4.523900     5.058200
     129    1      9   0.16367827     2.038300    -3.393400     3.330300
     130    1      1  -0.09170927    -1.505400    -5.015500     4.355200
     131    1      2  -0.15169691    -1.419000    -6.551300     4.409600
     132    1      2  -0.15169691    -2.657400    -7.403900     4.083000
     133    1      1  -0.09170927    -3.978100    -6.720100     3.689200
     134    1      2  -0.15169691    -4.047700    -5.184400     3.575600
     135    1      2  -0.15169691    -2.808400    -4.330400     3.907500
     136    1      9   0.16367827    -0.441900    -7.056300     4.709600
     137    1      9   0.16367827    -2.598500    -8.541100     4.138400
     138    1      9   0.16367827    -5.017900    -4.680000     3.253700
     139    1      9   0.16367827    -2.861000    -3.193500     3.838100
     140    1      1  -0.09170927     6.769700    -4.117300   -11.384900
     141    1      2  -0.15169691     8.189100    -4.709100   -11.296800
     142    1      2  -0.15169691     9.072000    -4.787200   -12.554500
     143    1      3  -0.04343427     8.535200    -4.277100   -13.902400
     144    1      2  -0.15169691     7.128200    -3.657300   -13.987900
     145    1      2  -0.15169691     6.240700    -3.584800   -12.729500
     146    1      9   0.16367827     8.582600    -5.099400   -10.300700
     147    1      9   0.16367827    10.118700    -5.234600   -12.490400
     148    1      9   0.16367827     6.738400    -3.266200   -14.985400
     149    1      9   0.16367827     5.191600    -3.143800   -12.795000
     150    1      1  -0.09170927     7.650900    -1.780600   -10.465600
     151    1      2  -0.15169691     9.112600    -2.211400   -10.688700
     152    1      2  -0.15169691     9.761900    -2.041300   -12.075300
     153    1      1  -0.09170927     8.952700    -1.431000   -13.234200
     154    1      2  -0.15169691     7.507400    -0.955500   -12.997600
     155    1      2  -0.15169691     6.856300    -1.132900   -11.614200
     156    1      9   0.16367827     9.704600    -2.681700    -9.835500
     157    1      9   0.16367827    10.836500    -2.380500   -12.247600
     158    1      9   0.16367827     6.913800    -0.488300   -13.851400
     159    1      9   0.16367827     5.776800    -0.807000   -11.446900
     160    1      7  -0.12633039    -0.090300    -2.863400     3.972400
     161    1      6  -0.19258377     0.262100    -3.086200     2.487900
     162    1      4  -0.14418635    -0.280500    -4.176300     4.750900
     163    1      6  -0.19258377     1.085400    -2.169600     4.682900
     164    1     10   0.09862582    -0.991400    -2.172000     4.049500
     165    1     10   0.09862582     0.967000    -3.978600     2.419700
     166    1     10   0.09862582    -0.658800    -3.274700     1.842800
     167    1     10   0.09862582     0.660000    -4.809100     4.629400
     168    1     10   0.09862582    -0.386900    -3.901400     5.849800
     169    1     10   0.09862582     2.033700    -2.791200     4.565000
     170    1     10   0.09862582     1.245900    -1.150500     4.198200
     171    1      7  -0.12633039    -0.475600    -1.188700     6.490000
     172    1      6  -0.19258377     0.813500    -1.982100     6.190500
     173    1      6  -0.19258377    -1.759700    -1.994900     6.183500
     174    1      6  -0.19258377    -0.471900    -0.808900     7.979400
     175    1     10   0.09862582    -0.474500    -0.230300     5.872600
     176    1     10   0.09862582     0.743500    -2.996000     6.707300
     177    1     10   0.09862582     1.701100    -1.405600     6.613900
     178    1     10   0.09862582    -1.740800    -2.325600     5.095600
     179    1     10   0.09862582    -2.664200    -1.318600     6.338200
     180    1     10   0.09862582    -0.359300    -1.753600     8.604000
     181    1     10   0.09862582     0.400600    -0.110100     8.203100
     182    1      7  -0.12633039     1.789000    -1.152900    -3.094300
     183    1      6  -0.19258377     1.962900    -1.521500    -1.610300
     184    1      6  -0.19258377     1.371800     0.300700    -3.390800
     185    1      4  -0.14418635     3.274000    -1.279800    -3.486700
     186    1     10   0.09862582     1.156900    -1.894300    -3.686100
     187    1     10   0.09862582     2.417800    -2.565900    -1.614000
     188    1     10   0.09862582     2.759900    -0.783300    -1.274200
     189    1     10   0.09862582     1.812600     0.545700    -4.413400
     190    1     10   0.09862582     1.834900     1.006600    -2.624900
     191    1     10   0.09862582     3.615300    -2.340400    -3.245600
     192    1     10   0.09862582     3.866000    -0.554400    -2.836500
     193    1      7  -0.12633039    -3.790700     0.706600    -2.348400
     194    1      6  -0.19258377    -2.456100     0.728000    -3.119200
     195    1      6  -0.19258377    -4.795900     1.041900    -3.477600
     196    1      6  -0.19258377    -3.831100     1.707100    -1.177100
     197    1     10   0.09862582    -3.994600    -0.334300    -1.930700
     198    1     10   0.09862582    -2.331900     1.778500    -3.544200
     199    1     10   0.09862582    -2.565700     0.001200    -3.990400
     200    1     10   0.09862582    -4.801700     0.135800    -4.169300
     201    1     10   0.09862582    -4.402500     1.936800    -4.064000
     202    1     10   0.09862582    -2.963600     1.522100    -0.461000
     203    1     10   0.09862582    -3.768800     2.765700    -1.595400
     204    1      7  -0.12633039     5.608400    -2.781600    -9.477900
     205    1      4  -0.14418635     4.793400    -3.117400    -8.214500
     206    1      4  -0.14418635     5.857000    -4.150400   -10.144400
     207    1      4  -0.14418635     6.943000    -2.091000    -9.133600
     208    1     10   0.09862582     5.010400    -2.097600   -10.166700
     209    1     10   0.09862582     5.390600    -3.865200    -7.595100
     210    1     10   0.09862582     3.814000    -3.606600    -8.531900
     211    1     10   0.09862582     6.359600    -4.824400    -9.374400
     212    1     10   0.09862582     4.852500    -4.608600   -10.428100
     213    1     10   0.09862582     7.584000    -2.779700    -8.490000
     214    1     10   0.09862582     6.741000    -1.116800    -8.577200
     215    1      1  -0.09170927    -6.860600     2.488400     1.081900
     216    1      2  -0.15169691    -7.241700     1.785800     2.398000
     217    1      1  -0.09170927    -8.719600     1.712400     2.827500
     218    1      2  -0.15169691    -9.807100     2.384600     1.969200
     219    1      1  -0.09170927    -9.426400     3.087200     0.654200
     220    1      2  -0.15169691    -7.951500     3.151000     0.218700
     221    1      9   0.16367827    -6.433400     1.315700     3.049900
     222    1      9   0.16367827   -10.895300     2.361900     2.308500
     223    1      9   0.16367827    -7.665700     3.685800    -0.746900
     224    1      1  -0.09170927     3.635200    -0.990700    -4.954300
     225    1      2  -0.15169691     3.971700     0.444000    -5.397300
     226    1      1  -0.09170927     4.577900     0.696700    -6.790400
     227    1      2  -0.15169691     4.839900    -0.484100    -7.744900
     228    1      1  -0.09170927     4.476300    -1.914200    -7.309400
     229    1      2  -0.15169691     3.866000    -2.164400    -5.919800
     230    1      9   0.16367827     3.806800     1.314800    -4.680400
     231    1      9   0.16367827     5.321800    -0.302300    -8.762000
     232    1      9   0.16367827     3.619700    -3.227600    -5.590500
     233    1      3  -0.04343427     9.396300    -4.416400   -15.169600
     234    1      2  -0.15169691     8.864400    -3.910500   -16.522300
     235    1      2  -0.15169691     9.713600    -4.083400   -17.795300
     236    1      2  -0.15169691    11.096200    -4.757600   -17.713400
     237    1      2  -0.15169691    11.633200    -5.252100   -16.357400
     238    1      2  -0.15169691    10.783900    -5.077900   -15.084800
     239    1      9   0.16367827     7.840900    -3.411900   -16.581800
     240    1      9   0.16367827     9.319400    -3.711300   -18.798100
     241    1      9   0.16367827    11.723200    -4.887200   -18.656600
     242    1      9   0.16367827    12.658900    -5.745900   -16.296100
     243    1      9   0.16367827    11.180100    -5.443400   -14.080200

Bonds

       1     12        1        2
       2     13        1        3
       3     13        1        4
       4     13        1        5
       5     17        2        6
       6     17        2        7
       7     14        2       71
       8      7        8        9
       9     13        8       10
      10     13        8       11
      11     13        8       12
      12     11        9       13
      13     11        9       14
      14      2        9      123
      15      7       15       16
      16     13       15       17
      17     13       15       18
      18     13       15       19
      19     11       16       20
      20     11       16       21
      21      2       16      133
      22     12       22       23
      23     13       22       24
      24     13       22       25
      25     13       22       26
      26     17       23       27
      27     17       23       28
      28     14       23      173
      29     12       29       30
      30     13       29       31
      31     13       29       32
      32     13       29       33
      33     17       30       34
      34     17       30       35
      35     14       30       84
      36     12       36       37
      37     13       36       38
      38     13       36       39
      39     13       36       40
      40     17       37       41
      41     17       37       42
      42     14       37      195
      43      7       43       44
      44     13       43       45
      45     13       43       46
      46     13       43       47
      47     11       44       48
      48     11       44       49
      49      2       44      217
      50      7       50       51
      51     13       50       52
      52     13       50       53
      53     13       50       54
      54     11       51       55
      55     11       51       56
      56      2       51      219
      57     12       57       58
      58     13       57       59
      59     13       57       60
      60     13       57       61
      61     17       58       62
      62     17       58       63
      63     14       58      102
      64      7       64       65
      65     13       64       66
      66     13       64       67
      67     13       64       68
      68     11       65       69
      69     11       65       70
      70      2       65      153
      71     14       71       72
      72     17       71       73
      73     17       71       74
      74     17       72       75
      75     17       72       76
      76     14       72       77
      77     14       77       78
      78     17       77       79
      79     17       77       80
      80     17       78       81
      81     17       78       82
      82     14       78      108
      83     14       83       84
      84     17       83       85
      85     17       83       86
      86     14       83      174
      87     17       84       87
      88     17       84       88
      89     14       89       90
      90     17       89       91
      91     17       89       92
      92     14       89      184
      93     17       90       93
      94     17       90       94
      95     14       90      194
      96      8       95       96
      97     17       95       97
      98     17       95       98
      99     14       95      196
     100     11       96       99
     101     11       96      100
     102      2       96      215
     103      8      101      102
     104     11      101      103
     105     11      101      104
     106      2      101      226
     107     17      102      105
     108     17      102      106
     109     16      107      108
     110     10      107      109
     111     16      107      110
     112     16      107      111
     113     17      108      112
     114     17      108      113
     115     11      109      114
     116     11      109      115
     117      2      109      120
     118     17      110      116
     119     17      110      117
     120     14      110      161
     121     17      111      118
     122     17      111      119
     123     14      111      183
     124      1      120      121
     125      3      121      122
     126      5      121      126
     127      1      122      123
     128      5      122      127
     129      1      123      124
     130      3      124      125
     131      5      124      128
     132      1      125      120
     133      5      125      129
     134      1      130      131
     135      2      130      162
     136      3      131      132
     137      5      131      136
     138      1      132      133
     139      5      132      137
     140      1      133      134
     141      3      134      135
     142      5      134      138
     143      1      135      130
     144      5      135      139
     145      1      140      141
     146      2      140      206
     147      3      141      142
     148      5      141      146
     149      4      142      143
     150      5      142      147
     151      4      143      144
     152      6      143      233
     153      3      144      145
     154      5      144      148
     155      1      145      140
     156      5      145      149
     157      1      150      151
     158      2      150      207
     159      3      151      152
     160      5      151      156
     161      1      152      153
     162      5      152      157
     163      1      153      154
     164      3      154      155
     165      5      154      158
     166      1      155      150
     167      5      155      159
     168     15      160      161
     169      9      160      162
     170     15      160      163
     171     18      160      164
     172     17      161      165
     173     17      161      166
     174     11      162      167
     175     11      162      168
     176     17      163      169
     177     17      163      170
     178     14      163      172
     179     15      171      172
     180     15      171      173
     181     15      171      174
     182     18      171      175
     183     17      172      176
     184     17      172      177
     185     17      173      178
     186     17      173      179
     187     17      174      180
     188     17      174      181
     189     15      182      183
     190     15      182      184
     191      9      182      185
     192     18      182      186
     193     17      183      187
     194     17      183      188
     195     17      184      189
     196     17      184      190
     197     11      185      191
     198     11      185      192
     199      2      185      224
     200     15      193      194
     201     15      193      195
     202     15      193      196
     203     18      193      197
     204     17      194      198
     205     17      194      199
     206     17      195      200
     207     17      195      201
     208     17      196      202
     209     17      196      203
     210      9      204      205
     211      9      204      206
     212      9      204      207
     213     18      204      208
     214     11      205      209
     215     11      205      210
     216      2      205      228
     217     11      206      211
     218     11      206      212
     219     11      207      213
     220     11      207      214
     221      1      215      216
     222      1      216      217
     223      5      216      221
     224      1      217      218
     225      1      218      219
     226      5      218      222
     227      1      219      220
     228      1      220      215
     229      5      220      223
     230      1      224      225
     231      1      225      226
     232      5      225      230
     233      1      226      227
     234      1      227      228
     235      5      227      231
     236      1      228      229
     237      1      229      224
     238      5      229      232
     239      4      233      234
     240      3      234      235
     241      5      234      239
     242      3      235      236
     243      5      235      240
     244      3      236      237
     245      5      236      241
     246      3      237      238
     247      5      237      242
     248      4      238      233
     249      5      238      243

Angles

       1     26        1        2        6
       2     26        1        2        7
       3     25        1        2       71
       4     28        2        1        3
       5     28        2        1        4
       6     28        2        1        5
       7     29        2       71       72
       8     32        2       71       73
       9     32        2       71       74
      10     41        3        1        4
      11     41        3        1        5
      12     41        4        1        5
      13     42        6        2        7
      14     32        6        2       71
      15     32        7        2       71
      16     24        8        9       13
      17     24        8        9       14
      18      4        8        9      123
      19     17        9        8       10
      20     17        9        8       11
      21     17        9        8       12
      22     10        9      123      122
      23     10        9      123      124
      24     41       10        8       11
      25     41       10        8       12
      26     41       11        8       12
      27     40       13        9       14
      28      8       13        9      123
      29      8       14        9      123
      30     24       15       16       20
      31     24       15       16       21
      32      4       15       16      133
      33     17       16       15       17
      34     17       16       15       18
      35     17       16       15       19
      36     10       16      133      132
      37     10       16      133      134
      38     41       17       15       18
      39     41       17       15       19
      40     41       18       15       19
      41     40       20       16       21
      42      8       20       16      133
      43      8       21       16      133
      44     26       22       23       27
      45     26       22       23       28
      46     25       22       23      173
      47     28       23       22       24
      48     28       23       22       25
      49     28       23       22       26
      50     30       23      173      171
      51     32       23      173      178
      52     32       23      173      179
      53     41       24       22       25
      54     41       24       22       26
      55     41       25       22       26
      56     42       27       23       28
      57     32       27       23      173
      58     32       28       23      173
      59     26       29       30       34
      60     26       29       30       35
      61     25       29       30       84
      62     28       30       29       31
      63     28       30       29       32
      64     28       30       29       33
      65     29       30       84       83
      66     32       30       84       87
      67     32       30       84       88
      68     41       31       29       32
      69     41       31       29       33
      70     41       32       29       33
      71     42       34       30       35
      72     32       34       30       84
      73     32       35       30       84
      74     26       36       37       41
      75     26       36       37       42
      76     25       36       37      195
      77     28       37       36       38
      78     28       37       36       39
      79     28       37       36       40
      80     30       37      195      193
      81     32       37      195      200
      82     32       37      195      201
      83     41       38       36       39
      84     41       38       36       40
      85     41       39       36       40
      86     42       41       37       42
      87     32       41       37      195
      88     32       42       37      195
      89     24       43       44       48
      90     24       43       44       49
      91      4       43       44      217
      92     17       44       43       45
      93     17       44       43       46
      94     17       44       43       47
      95     10       44      217      216
      96     10       44      217      218
      97     41       45       43       46
      98     41       45       43       47
      99     41       46       43       47
     100     40       48       44       49
     101      8       48       44      217
     102      8       49       44      217
     103     24       50       51       55
     104     24       50       51       56
     105      4       50       51      219
     106     17       51       50       52
     107     17       51       50       53
     108     17       51       50       54
     109     10       51      219      218
     110     10       51      219      220
     111     41       52       50       53
     112     41       52       50       54
     113     41       53       50       54
     114     40       55       51       56
     115      8       55       51      219
     116      8       56       51      219
     117     26       57       58       62
     118     26       57       58       63
     119     25       57       58      102
     120     28       58       57       59
     121     28       58       57       60
     122     28       58       57       61
     123     18       58      102      101
     124     32       58      102      105
     125     32       58      102      106
     126     41       59       57       60
     127     41       59       57       61
     128     41       60       57       61
     129     42       62       58       63
     130     32       62       58      102
     131     32       63       58      102
     132     24       64       65       69
     133     24       64       65       70
     134      4       64       65      153
     135     17       65       64       66
     136     17       65       64       67
     137     17       65       64       68
     138     10       65      153      152
     139     10       65      153      154
     140     41       66       64       67
     141     41       66       64       68
     142     41       67       64       68
     143     40       69       65       70
     144      8       69       65      153
     145      8       70       65      153
     146     32       71       72       75
     147     32       71       72       76
     148     29       71       72       77
     149     32       72       71       73
     150     32       72       71       74
     151     29       72       77       78
     152     32       72       77       79
     153     32       72       77       80
     154     42       73       71       74
     155     42       75       72       76
     156     32       75       72       77
     157     32       76       72       77
     158     32       77       78       81
     159     32       77       78       82
     160     29       77       78      108
     161     32       78       77       79
     162     32       78       77       80
     163     31       78      108      107
     164     32       78      108      112
     165     32       78      108      113
     166     42       79       77       80
     167     42       81       78       82
     168     32       81       78      108
     169     32       82       78      108
     170     32       83       84       87
     171     32       83       84       88
     172     30       83      174      171
     173     32       83      174      180
     174     32       83      174      181
     175     32       84       83       85
     176     32       84       83       86
     177     29       84       83      174
     178     42       85       83       86
     179     32       85       83      174
     180     32       86       83      174
     181     42       87       84       88
     182     32       89       90       93
     183     32       89       90       94
     184     29       89       90      194
     185     30       89      184      182
     186     32       89      184      189
     187     32       89      184      190
     188     32       90       89       91
     189     32       90       89       92
     190     29       90       89      184
     191     30       90      194      193
     192     32       90      194      198
     193     32       90      194      199
     194     42       91       89       92
     195     32       91       89      184
     196     32       92       89      184
     197     42       93       90       94
     198     32       93       90      194
     199     32       94       90      194
     200     27       95       96       99
     201     27       95       96      100
     202      5       95       96      215
     203     30       95      196      193
     204     32       95      196      202
     205     32       95      196      203
     206     19       96       95       97
     207     19       96       95       98
     208     18       96       95      196
     209     10       96      215      216
     210     10       96      215      220
     211     42       97       95       98
     212     32       97       95      196
     213     32       98       95      196
     214     40       99       96      100
     215      8       99       96      215
     216      8      100       96      215
     217     19      101      102      105
     218     19      101      102      106
     219     10      101      226      225
     220     10      101      226      227
     221     27      102      101      103
     222     27      102      101      104
     223      5      102      101      226
     224     40      103      101      104
     225      8      103      101      226
     226      8      104      101      226
     227     42      105      102      106
     228     39      107      108      112
     229     39      107      108      113
     230     38      107      109      114
     231     38      107      109      115
     232      7      107      109      120
     233     39      107      110      116
     234     39      107      110      117
     235     31      107      110      161
     236     39      107      111      118
     237     39      107      111      119
     238     31      107      111      183
     239     23      108      107      109
     240     35      108      107      110
     241     35      108      107      111
     242     23      109      107      110
     243     23      109      107      111
     244     10      109      120      121
     245     10      109      120      125
     246     35      110      107      111
     247     30      110      161      160
     248     32      110      161      165
     249     32      110      161      166
     250     30      111      183      182
     251     32      111      183      187
     252     32      111      183      188
     253     42      112      108      113
     254     40      114      109      115
     255      8      114      109      120
     256      8      115      109      120
     257     42      116      110      117
     258     32      116      110      161
     259     32      117      110      161
     260     42      118      111      119
     261     32      118      111      183
     262     32      119      111      183
     263      2      120      121      122
     264      3      120      121      126
     265      2      120      125      124
     266      3      120      125      129
     267      9      121      120      125
     268      2      121      122      123
     269     13      121      122      127
     270     13      122      121      126
     271      9      122      123      124
     272      3      123      122      127
     273      2      123      124      125
     274      3      123      124      128
     275     13      124      125      129
     276     13      125      124      128
     277      2      130      131      132
     278      3      130      131      136
     279      2      130      135      134
     280      3      130      135      139
     281      6      130      162      160
     282      8      130      162      167
     283      8      130      162      168
     284      9      131      130      135
     285     10      131      130      162
     286      2      131      132      133
     287     13      131      132      137
     288     13      132      131      136
     289      9      132      133      134
     290      3      133      132      137
     291      2      133      134      135
     292      3      133      134      138
     293     13      134      135      139
     294     10      135      130      162
     295     13      135      134      138
     296      2      140      141      142
     297      3      140      141      146
     298      2      140      145      144
     299      3      140      145      149
     300      6      140      206      204
     301      8      140      206      211
     302      8      140      206      212
     303      9      141      140      145
     304     10      141      140      206
     305     12      141      142      143
     306     13      141      142      147
     307     13      142      141      146
     308     14      142      143      144
     309     15      142      143      233
     310     16      143      142      147
     311     12      143      144      145
     312     16      143      144      148
     313     15      143      233      234
     314     15      143      233      238
     315     15      144      143      233
     316     13      144      145      149
     317     10      145      140      206
     318     13      145      144      148
     319      2      150      151      152
     320      3      150      151      156
     321      2      150      155      154
     322      3      150      155      159
     323      6      150      207      204
     324      8      150      207      213
     325      8      150      207      214
     326      9      151      150      155
     327     10      151      150      207
     328      2      151      152      153
     329     13      151      152      157
     330     13      152      151      156
     331      9      152      153      154
     332      3      153      152      157
     333      2      153      154      155
     334      3      153      154      158
     335     13      154      155      159
     336     10      155      150      207
     337     13      155      154      158
     338     37      160      161      165
     339     37      160      161      166
     340     36      160      162      167
     341     36      160      162      168
     342     37      160      163      169
     343     37      160      163      170
     344     30      160      163      172
     345     21      161      160      162
     346     33      161      160      163
     347     34      161      160      164
     348     21      162      160      163
     349     22      162      160      164
     350     34      163      160      164
     351     30      163      172      171
     352     32      163      172      176
     353     32      163      172      177
     354     42      165      161      166
     355     40      167      162      168
     356     42      169      163      170
     357     32      169      163      172
     358     32      170      163      172
     359     37      171      172      176
     360     37      171      172      177
     361     37      171      173      178
     362     37      171      173      179
     363     37      171      174      180
     364     37      171      174      181
     365     33      172      171      173
     366     33      172      171      174
     367     34      172      171      175
     368     33      173      171      174
     369     34      173      171      175
     370     34      174      171      175
     371     42      176      172      177
     372     42      178      173      179
     373     42      180      174      181
     374     37      182      183      187
     375     37      182      183      188
     376     37      182      184      189
     377     37      182      184      190
     378     36      182      185      191
     379     36      182      185      192
     380      6      182      185      224
     381     33      183      182      184
     382     21      183      182      185
     383     34      183      182      186
     384     21      184      182      185
     385     34      184      182      186
     386     22      185      182      186
     387     10      185      224      225
     388     10      185      224      229
     389     42      187      183      188
     390     42      189      184      190
     391     40      191      185      192
     392      8      191      185      224
     393      8      192      185      224
     394     37      193      194      198
     395     37      193      194      199
     396     37      193      195      200
     397     37      193      195      201
     398     37      193      196      202
     399     37      193      196      203
     400     33      194      193      195
     401     33      194      193      196
     402     34      194      193      197
     403     33      195      193      196
     404     34      195      193      197
     405     34      196      193      197
     406     42      198      194      199
     407     42      200      195      201
     408     42      202      196      203
     409     36      204      205      209
     410     36      204      205      210
     411      6      204      205      228
     412     36      204      206      211
     413     36      204      206      212
     414     36      204      207      213
     415     36      204      207      214
     416     20      205      204      206
     417     20      205      204      207
     418     22      205      204      208
     419     10      205      228      227
     420     10      205      228      229
     421     20      206      204      207
     422     22      206      204      208
     423     22      207      204      208
     424     40      209      205      210
     425      8      209      205      228
     426      8      210      205      228
     427     40      211      206      212
     428     40      213      207      214
     429      1      215      216      217
     430      3      215      216      221
     431      1      215      220      219
     432      3      215      220      223
     433      9      216      215      220
     434      9      216      217      218
     435      3      217      216      221
     436      1      217      218      219
     437      3      217      218      222
     438      9      218      219      220
     439      3      219      218      222
     440      3      219      220      223
     441      1      224      225      226
     442      3      224      225      230
     443      1      224      229      228
     444      3      224      229      232
     445      9      225      224      229
     446      9      225      226      227
     447      3      226      225      230
     448      1      226      227      228
     449      3      226      227      231
     450      9      227      228      229
     451      3      228      227      231
     452      3      228      229      232
     453     12      233      234      235
     454     16      233      234      239
     455     12      233      238      237
     456     16      233      238      243
     457     14      234      233      238
     458     11      234      235      236
     459     13      234      235      240
     460     13      235      234      239
     461     11      235      236      237
     462     13      235      236      241
     463     13      236      235      240
     464     11      236      237      238
     465     13      236      237      242
     466     13      237      236      241
     467     13      237      238      243
     468     13      238      237      242

Dihedrals

       1     39        1        2       71       72
       2     41        1        2       71       73
       3     41        1        2       71       74
       4     47        2       71       72       75
       5     47        2       71       72       76
       6     44        2       71       72       77
       7     63        3        1        2        6
       8     63        3        1        2        7
       9     43        3        1        2       71
      10     63        4        1        2        6
      11     63        4        1        2        7
      12     43        4        1        2       71
      13     63        5        1        2        6
      14     63        5        1        2        7
      15     43        5        1        2       71
      16     47        6        2       71       72
      17     64        6        2       71       73
      18     64        6        2       71       74
      19     47        7        2       71       72
      20     64        7        2       71       73
      21     64        7        2       71       74
      22     15        8        9      123      122
      23     15        8        9      123      124
      24     20        9      123      122      121
      25     30        9      123      122      127
      26     20        9      123      124      125
      27     30        9      123      124      128
      28     60       10        8        9       13
      29     60       10        8        9       14
      30      6       10        8        9      123
      31     60       11        8        9       13
      32     60       11        8        9       14
      33      6       11        8        9      123
      34     60       12        8        9       13
      35     60       12        8        9       14
      36      6       12        8        9      123
      37     19       13        9      123      122
      38     19       13        9      123      124
      39     19       14        9      123      122
      40     19       14        9      123      124
      41     15       15       16      133      132
      42     15       15       16      133      134
      43     20       16      133      132      131
      44     30       16      133      132      137
      45     20       16      133      134      135
      46     30       16      133      134      138
      47     60       17       15       16       20
      48     60       17       15       16       21
      49      6       17       15       16      133
      50     60       18       15       16       20
      51     60       18       15       16       21
      52      6       18       15       16      133
      53     60       19       15       16       20
      54     60       19       15       16       21
      55      6       19       15       16      133
      56     19       20       16      133      132
      57     19       20       16      133      134
      58     19       21       16      133      132
      59     19       21       16      133      134
      60     40       22       23      173      171
      61     41       22       23      173      178
      62     41       22       23      173      179
      63     48       23      173      171      172
      64     48       23      173      171      174
      65     49       23      173      171      175
      66     63       24       22       23       27
      67     63       24       22       23       28
      68     43       24       22       23      173
      69     63       25       22       23       27
      70     63       25       22       23       28
      71     43       25       22       23      173
      72     63       26       22       23       27
      73     63       26       22       23       28
      74     43       26       22       23      173
      75     57       27       23      173      171
      76     64       27       23      173      178
      77     64       27       23      173      179
      78     57       28       23      173      171
      79     64       28       23      173      178
      80     64       28       23      173      179
      81     39       29       30       84       83
      82     41       29       30       84       87
      83     41       29       30       84       88
      84     47       30       84       83       85
      85     47       30       84       83       86
      86     44       30       84       83      174
      87     63       31       29       30       34
      88     63       31       29       30       35
      89     43       31       29       30       84
      90     63       32       29       30       34
      91     63       32       29       30       35
      92     43       32       29       30       84
      93     63       33       29       30       34
      94     63       33       29       30       35
      95     43       33       29       30       84
      96     47       34       30       84       83
      97     64       34       30       84       87
      98     64       34       30       84       88
      99     47       35       30       84       83
     100     64       35       30       84       87
     101     64       35       30       84       88
     102     40       36       37      195      193
     103     41       36       37      195      200
     104     41       36       37      195      201
     105     48       37      195      193      194
     106     48       37      195      193      196
     107     49       37      195      193      197
     108     63       38       36       37       41
     109     63       38       36       37       42
     110     43       38       36       37      195
     111     63       39       36       37       41
     112     63       39       36       37       42
     113     43       39       36       37      195
     114     63       40       36       37       41
     115     63       40       36       37       42
     116     43       40       36       37      195
     117     57       41       37      195      193
     118     64       41       37      195      200
     119     64       41       37      195      201
     120     57       42       37      195      193
     121     64       42       37      195      200
     122     64       42       37      195      201
     123     15       43       44      217      216
     124     15       43       44      217      218
     125      2       44      217      216      215
     126     30       44      217      216      221
     127      2       44      217      218      219
     128     30       44      217      218      222
     129     60       45       43       44       48
     130     60       45       43       44       49
     131      6       45       43       44      217
     132     60       46       43       44       48
     133     60       46       43       44       49
     134      6       46       43       44      217
     135     60       47       43       44       48
     136     60       47       43       44       49
     137      6       47       43       44      217
     138     19       48       44      217      216
     139     19       48       44      217      218
     140     19       49       44      217      216
     141     19       49       44      217      218
     142     15       50       51      219      218
     143     15       50       51      219      220
     144      2       51      219      218      217
     145     30       51      219      218      222
     146      2       51      219      220      215
     147     30       51      219      220      223
     148     60       52       50       51       55
     149     60       52       50       51       56
     150      6       52       50       51      219
     151     60       53       50       51       55
     152     60       53       50       51       56
     153      6       53       50       51      219
     154     60       54       50       51       55
     155     60       54       50       51       56
     156      6       54       50       51      219
     157     19       55       51      219      218
     158     19       55       51      219      220
     159     19       56       51      219      218
     160     19       56       51      219      220
     161     31       57       58      102      101
     162     41       57       58      102      105
     163     41       57       58      102      106
     164     42       58      102      101      103
     165     42       58      102      101      104
     166      7       58      102      101      226
     167     63       59       57       58       62
     168     63       59       57       58       63
     169     43       59       57       58      102
     170     63       60       57       58       62
     171     63       60       57       58       63
     172     43       60       57       58      102
     173     63       61       57       58       62
     174     63       61       57       58       63
     175     43       61       57       58      102
     176     33       62       58      102      101
     177     64       62       58      102      105
     178     64       62       58      102      106
     179     33       63       58      102      101
     180     64       63       58      102      105
     181     64       63       58      102      106
     182     15       64       65      153      152
     183     15       64       65      153      154
     184     20       65      153      152      151
     185     30       65      153      152      157
     186     20       65      153      154      155
     187     30       65      153      154      158
     188     60       66       64       65       69
     189     60       66       64       65       70
     190      6       66       64       65      153
     191     60       67       64       65       69
     192     60       67       64       65       70
     193      6       67       64       65      153
     194     60       68       64       65       69
     195     60       68       64       65       70
     196      6       68       64       65      153
     197     19       69       65      153      152
     198     19       69       65      153      154
     199     19       70       65      153      152
     200     19       70       65      153      154
     201     44       71       72       77       78
     202     47       71       72       77       79
     203     47       71       72       77       80
     204     47       72       77       78       81
     205     47       72       77       78       82
     206     44       72       77       78      108
     207     64       73       71       72       75
     208     64       73       71       72       76
     209     47       73       71       72       77
     210     64       74       71       72       75
     211     64       74       71       72       76
     212     47       74       71       72       77
     213     47       75       72       77       78
     214     64       75       72       77       79
     215     64       75       72       77       80
     216     47       76       72       77       78
     217     64       76       72       77       79
     218     64       76       72       77       80
     219     46       77       78      108      107
     220     47       77       78      108      112
     221     47       77       78      108      113
     222     37       78      108      107      109
     223     50       78      108      107      110
     224     50       78      108      107      111
     225     64       79       77       78       81
     226     64       79       77       78       82
     227     47       79       77       78      108
     228     64       80       77       78       81
     229     64       80       77       78       82
     230     47       80       77       78      108
     231     58       81       78      108      107
     232     64       81       78      108      112
     233     64       81       78      108      113
     234     58       82       78      108      107
     235     64       82       78      108      112
     236     64       82       78      108      113
     237     48       83      174      171      172
     238     48       83      174      171      173
     239     49       83      174      171      175
     240     45       84       83      174      171
     241     47       84       83      174      180
     242     47       84       83      174      181
     243     64       85       83       84       87
     244     64       85       83       84       88
     245     57       85       83      174      171
     246     64       85       83      174      180
     247     64       85       83      174      181
     248     64       86       83       84       87
     249     64       86       83       84       88
     250     57       86       83      174      171
     251     64       86       83      174      180
     252     64       86       83      174      181
     253     47       87       84       83      174
     254     47       88       84       83      174
     255     45       89       90      194      193
     256     47       89       90      194      198
     257     47       89       90      194      199
     258     48       89      184      182      183
     259     35       89      184      182      185
     260     49       89      184      182      186
     261     45       90       89      184      182
     262     47       90       89      184      189
     263     47       90       89      184      190
     264     48       90      194      193      195
     265     48       90      194      193      196
     266     49       90      194      193      197
     267     64       91       89       90       93
     268     64       91       89       90       94
     269     47       91       89       90      194
     270     57       91       89      184      182
     271     64       91       89      184      189
     272     64       91       89      184      190
     273     64       92       89       90       93
     274     64       92       89       90       94
     275     47       92       89       90      194
     276     57       92       89      184      182
     277     64       92       89      184      189
     278     64       92       89      184      190
     279     47       93       90       89      184
     280     57       93       90      194      193
     281     64       93       90      194      198
     282     64       93       90      194      199
     283     47       94       90       89      184
     284     57       94       90      194      193
     285     64       94       90      194      198
     286     64       94       90      194      199
     287     16       95       96      215      216
     288     16       95       96      215      220
     289     48       95      196      193      194
     290     48       95      196      193      195
     291     49       95      196      193      197
     292     32       96       95      196      193
     293     33       96       95      196      202
     294     33       96       95      196      203
     295      2       96      215      216      217
     296     30       96      215      216      221
     297      2       96      215      220      219
     298     30       96      215      220      223
     299     61       97       95       96       99
     300     61       97       95       96      100
     301      8       97       95       96      215
     302     57       97       95      196      193
     303     64       97       95      196      202
     304     64       97       95      196      203
     305     61       98       95       96       99
     306     61       98       95       96      100
     307      8       98       95       96      215
     308     57       98       95      196      193
     309     64       98       95      196      202
     310     64       98       95      196      203
     311     42       99       96       95      196
     312     19       99       96      215      216
     313     19       99       96      215      220
     314     42      100       96       95      196
     315     19      100       96      215      216
     316     19      100       96      215      220
     317      2      101      226      225      224
     318     30      101      226      225      230
     319      2      101      226      227      228
     320     30      101      226      227      231
     321     16      102      101      226      225
     322     16      102      101      226      227
     323     61      103      101      102      105
     324     61      103      101      102      106
     325     19      103      101      226      225
     326     19      103      101      226      227
     327     61      104      101      102      105
     328     61      104      101      102      106
     329     19      104      101      226      225
     330     19      104      101      226      227
     331      8      105      102      101      226
     332      8      106      102      101      226
     333     18      107      109      120      121
     334     18      107      109      120      125
     335     56      107      110      161      160
     336     58      107      110      161      165
     337     58      107      110      161      166
     338     56      107      111      183      182
     339     58      107      111      183      187
     340     58      107      111      183      188
     341     53      108      107      109      114
     342     53      108      107      109      115
     343     12      108      107      109      120
     344     54      108      107      110      116
     345     54      108      107      110      117
     346     50      108      107      110      161
     347     54      108      107      111      118
     348     54      108      107      111      119
     349     50      108      107      111      183
     350     38      109      107      108      112
     351     38      109      107      108      113
     352     38      109      107      110      116
     353     38      109      107      110      117
     354     37      109      107      110      161
     355     38      109      107      111      118
     356     38      109      107      111      119
     357     37      109      107      111      183
     358     20      109      120      121      122
     359     30      109      120      121      126
     360     20      109      120      125      124
     361     30      109      120      125      129
     362     54      110      107      108      112
     363     54      110      107      108      113
     364     53      110      107      109      114
     365     53      110      107      109      115
     366     12      110      107      109      120
     367     54      110      107      111      118
     368     54      110      107      111      119
     369     50      110      107      111      183
     370     35      110      161      160      162
     371     48      110      161      160      163
     372     49      110      161      160      164
     373     54      111      107      108      112
     374     54      111      107      108      113
     375     53      111      107      109      114
     376     53      111      107      109      115
     377     12      111      107      109      120
     378     54      111      107      110      116
     379     54      111      107      110      117
     380     50      111      107      110      161
     381     48      111      183      182      184
     382     35      111      183      182      185
     383     49      111      183      182      186
     384     19      114      109      120      121
     385     19      114      109      120      125
     386     19      115      109      120      121
     387     19      115      109      120      125
     388     57      116      110      161      160
     389     64      116      110      161      165
     390     64      116      110      161      166
     391     57      117      110      161      160
     392     64      117      110      161      165
     393     64      117      110      161      166
     394     57      118      111      183      182
     395     64      118      111      183      187
     396     64      118      111      183      188
     397     57      119      111      183      182
     398     64      119      111      183      187
     399     64      119      111      183      188
     400      3      120      121      122      123
     401      5      120      121      122      127
     402      3      120      125      124      123
     403      5      120      125      124      128
     404     13      121      120      125      124
     405     14      121      120      125      129
     406     13      121      122      123      124
     407     13      122      121      120      125
     408     13      122      123      124      125
     409     14      122      123      124      128
     410      5      123      122      121      126
     411      5      123      124      125      129
     412     14      124      123      122      127
     413     14      125      120      121      126
     414     59      126      121      122      127
     415     59      128      124      125      129
     416      3      130      131      132      133
     417      5      130      131      132      137
     418      3      130      135      134      133
     419      5      130      135      134      138
     420     10      130      162      160      161
     421     10      130      162      160      163
     422     11      130      162      160      164
     423     13      131      130      135      134
     424     14      131      130      135      139
     425     17      131      130      162      160
     426     19      131      130      162      167
     427     19      131      130      162      168
     428     13      131      132      133      134
     429     13      132      131      130      135
     430     20      132      131      130      162
     431     13      132      133      134      135
     432     14      132      133      134      138
     433      5      133      132      131      136
     434      5      133      134      135      139
     435     14      134      133      132      137
     436     20      134      135      130      162
     437     14      135      130      131      136
     438     17      135      130      162      160
     439     19      135      130      162      167
     440     19      135      130      162      168
     441     30      136      131      130      162
     442     59      136      131      132      137
     443     59      138      134      135      139
     444     30      139      135      130      162
     445      4      140      141      142      143
     446      5      140      141      142      147
     447      4      140      145      144      143
     448      5      140      145      144      148
     449      9      140      206      204      205
     450      9      140      206      204      207
     451     11      140      206      204      208
     452     13      141      140      145      144
     453     14      141      140      145      149
     454     17      141      140      206      204
     455     19      141      140      206      211
     456     19      141      140      206      212
     457     24      141      142      143      144
     458     25      141      142      143      233
     459     13      142      141      140      145
     460     20      142      141      140      206
     461     24      142      143      144      145
     462     26      142      143      144      148
     463     27      142      143      233      234
     464     27      142      143      233      238
     465     28      143      142      141      146
     466     28      143      144      145      149
     467     25      143      233      234      235
     468     29      143      233      234      239
     469     25      143      233      238      237
     470     29      143      233      238      243
     471     26      144      143      142      147
     472     27      144      143      233      234
     473     27      144      143      233      238
     474     20      144      145      140      206
     475     14      145      140      141      146
     476     17      145      140      206      204
     477     19      145      140      206      211
     478     19      145      140      206      212
     479     25      145      144      143      233
     480     30      146      141      140      206
     481     59      146      141      142      147
     482     29      147      142      143      233
     483     29      148      144      143      233
     484     59      148      144      145      149
     485     30      149      145      140      206
     486      3      150      151      152      153
     487      5      150      151      152      157
     488      3      150      155      154      153
     489      5      150      155      154      158
     490      9      150      207      204      205
     491      9      150      207      204      206
     492     11      150      207      204      208
     493     13      151      150      155      154
     494     14      151      150      155      159
     495     17      151      150      207      204
     496     19      151      150      207      213
     497     19      151      150      207      214
     498     13      151      152      153      154
     499     13      152      151      150      155
     500     20      152      151      150      207
     501     13      152      153      154      155
     502     14      152      153      154      158
     503      5      153      152      151      156
     504      5      153      154      155      159
     505     14      154      153      152      157
     506     20      154      155      150      207
     507     14      155      150      151      156
     508     17      155      150      207      204
     509     19      155      150      207      213
     510     19      155      150      207      214
     511     30      156      151      150      207
     512     59      156      151      152      157
     513     59      158      154      155      159
     514     30      159      155      150      207
     515     55      160      163      172      171
     516     57      160      163      172      176
     517     57      160      163      172      177
     518     51      161      160      162      167
     519     51      161      160      162      168
     520     52      161      160      163      169
     521     52      161      160      163      170
     522     48      161      160      163      172
     523     36      162      160      161      165
     524     36      162      160      161      166
     525     36      162      160      163      169
     526     36      162      160      163      170
     527     35      162      160      163      172
     528     52      163      160      161      165
     529     52      163      160      161      166
     530     51      163      160      162      167
     531     51      163      160      162      168
     532     48      163      172      171      173
     533     48      163      172      171      174
     534     49      163      172      171      175
     535     65      164      160      161      165
     536     65      164      160      161      166
     537     62      164      160      162      167
     538     62      164      160      162      168
     539     65      164      160      163      169
     540     65      164      160      163      170
     541     49      164      160      163      172
     542     57      169      163      172      171
     543     64      169      163      172      176
     544     64      169      163      172      177
     545     57      170      163      172      171
     546     64      170      163      172      176
     547     64      170      163      172      177
     548     52      172      171      173      178
     549     52      172      171      173      179
     550     52      172      171      174      180
     551     52      172      171      174      181
     552     52      173      171      172      176
     553     52      173      171      172      177
     554     52      173      171      174      180
     555     52      173      171      174      181
     556     52      174      171      172      176
     557     52      174      171      172      177
     558     52      174      171      173      178
     559     52      174      171      173      179
     560     65      175      171      172      176
     561     65      175      171      172      177
     562     65      175      171      173      178
     563     65      175      171      173      179
     564     65      175      171      174      180
     565     65      175      171      174      181
     566     17      182      185      224      225
     567     17      182      185      224      229
     568     52      183      182      184      189
     569     52      183      182      184      190
     570     51      183      182      185      191
     571     51      183      182      185      192
     572     10      183      182      185      224
     573     44      184       89       90      194
     574     52      184      182      183      187
     575     52      184      182      183      188
     576     51      184      182      185      191
     577     51      184      182      185      192
     578     10      184      182      185      224
     579     36      185      182      183      187
     580     36      185      182      183      188
     581     36      185      182      184      189
     582     36      185      182      184      190
     583      2      185      224      225      226
     584     30      185      224      225      230
     585      2      185      224      229      228
     586     30      185      224      229      232
     587     65      186      182      183      187
     588     65      186      182      183      188
     589     65      186      182      184      189
     590     65      186      182      184      190
     591     62      186      182      185      191
     592     62      186      182      185      192
     593     11      186      182      185      224
     594     19      191      185      224      225
     595     19      191      185      224      229
     596     19      192      185      224      225
     597     19      192      185      224      229
     598     52      194      193      195      200
     599     52      194      193      195      201
     600     52      194      193      196      202
     601     52      194      193      196      203
     602     52      195      193      194      198
     603     52      195      193      194      199
     604     52      195      193      196      202
     605     52      195      193      196      203
     606      7      196       95       96      215
     607     52      196      193      194      198
     608     52      196      193      194      199
     609     52      196      193      195      200
     610     52      196      193      195      201
     611     65      197      193      194      198
     612     65      197      193      194      199
     613     65      197      193      195      200
     614     65      197      193      195      201
     615     65      197      193      196      202
     616     65      197      193      196      203
     617     17      204      205      228      227
     618     17      204      205      228      229
     619     34      205      204      206      211
     620     34      205      204      206      212
     621     34      205      204      207      213
     622     34      205      204      207      214
     623      2      205      228      227      226
     624     30      205      228      227      231
     625      2      205      228      229      224
     626     30      205      228      229      232
     627     34      206      204      205      209
     628     34      206      204      205      210
     629      9      206      204      205      228
     630     34      206      204      207      213
     631     34      206      204      207      214
     632     34      207      204      205      209
     633     34      207      204      205      210
     634      9      207      204      205      228
     635     34      207      204      206      211
     636     34      207      204      206      212
     637     62      208      204      205      209
     638     62      208      204      205      210
     639     11      208      204      205      228
     640     62      208      204      206      211
     641     62      208      204      206      212
     642     62      208      204      207      213
     643     62      208      204      207      214
     644     19      209      205      228      227
     645     19      209      205      228      229
     646     19      210      205      228      227
     647     19      210      205      228      229
     648      1      215      216      217      218
     649      1      215      220      219      218
     650      1      216      215      220      219
     651     14      216      215      220      223
     652      1      216      217      218      219
     653     14      216      217      218      222
     654      1      217      216      215      220
     655      1      217      218      219      220
     656     14      218      217      216      221
     657     14      218      219      220      223
     658     14      220      215      216      221
     659     14      220      219      218      222
     660      1      224      225      226      227
     661      1      224      229      228      227
     662      1      225      224      229      228
     663     14      225      224      229      232
     664      1      225      226      227      228
     665     14      225      226      227      231
     666      1      226      225      224      229
     667      1      226      227      228      229
     668     14      227      226      225      230
     669     14      227      228      229      232
     670     14      229      224      225      230
     671     14      229      228      227      231
     672     22      233      234      235      236
     673     28      233      234      235      240
     674     22      233      238      237      236
     675     28      233      238      237      242
     676     24      234      233      238      237
     677     26      234      233      238      243
     678     21      234      235      236      237
     679     23      234      235      236      241
     680     24      235      234      233      238
     681     21      235      236      237      238
     682     23      235      236      237      242
     683     23      236      235      234      239
     684     23      236      237      238      243
     685     23      237      236      235      240
     686     26      238      233      234      239
     687     23      238      237      236      241
     688     59      239      234      235      240
     689     59      240      235      236      241
     690     59      241      236      237      242
     691     59      242      237      238      243

Impropers

       1      1      109      120      121      125
       2      3      120      121      122      126
       3      3      121      122      123      127
       4      1        9      123      122      124
       5      3      123      124      125      128
       6      3      120      125      124      129
       7      1      131      130      135      162
       8      3      130      131      132      136
       9      3      131      132      133      137
      10      1       16      133      132      134
      11      3      133      134      135      138
      12      3      130      135      134      139
      13      1      141      140      145      206
      14      3      140      141      142      146
      15      5      141      142      143      147
      16      6      142      143      144      233
      17      5      143      144      145      148
      18      3      140      145      144      149
      19      1      151      150      155      207
      20      3      150      151      152      156
      21      3      151      152      153      157
      22      1       65      153      152      154
      23      3      153      154      155      158
      24      3      150      155      154      159
      25      1       96      215      216      220
      26      2      215      216      217      221
      27      1       44      217      216      218
      28      2      217      218      219      222
      29      1       51      219      218      220
      30      2      215      220      219      223
      31      1      185      224      225      229
      32      2      224      225      226      230
      33      1      101      226      225      227
      34      2      226      227      228      231
      35      1      205      228      227      229
      36      2      224      229      228      232
      37      6      143      233      234      238
      38      5      233      234      235      239
      39      4      234      235      236      240
      40      4      235      236      237      241
      41      4      236      237      238      242
      42      5      233      238      237      243

