LAMMPS data file generated by clean-room 1-hop pipeline

     246 atoms
     252 bonds
     474 angles
     703 dihedrals
      42 impropers

       9 atom types
      16 bond types
      34 angle types
      55 dihedral types
       8 improper types

  -31.030700    31.115200 xlo xhi
  -35.196700    32.432000 ylo yhi
  -30.192800    31.282600 zlo zhi

Masses

       1    12.011000
       2    12.011000
       3    12.011000
       4    12.011000
       5    12.011000
       6    12.011000
       7    12.011000
       8     1.008000
       9     1.008000

Pair Coeffs

       1     0.070000     3.550000
       2     0.070000     3.550000
       3     0.070000     3.550000
       4     0.066000     3.500000
       5     0.066000     3.500000
       6     0.066000     3.500000
       7     0.066000     3.500000
       8     0.030000     2.420000
       9     0.030000     2.500000

Bond Coeffs

       1   469.000000     1.400000
       2   469.000000     1.400000
       3   317.000000     1.510000
       4   469.000000     1.400000
       5   469.000000     1.400000
       6   367.000000     1.080000
       7   385.000000     1.460000
       8   268.000000     1.529000
       9   268.000000     1.529000
      10   340.000000     1.090000
      11   268.000000     1.529000
      12   340.000000     1.090000
      13   268.000000     1.529000
      14   268.000000     1.529000
      15   340.000000     1.090000
      16   340.000000     1.090000

Angle Coeffs

       1    63.000000   120.000000
       2    70.000000   120.000000
       3    63.000000   120.000000
       4    63.000000   120.000000
       5    35.000000   120.000000
       6    63.000000   114.000000
       7    63.000000   114.000000
       8    35.000000   109.500000
       9    63.000000   120.000000
      10    70.000000   120.000000
      11    63.000000   120.000000
      12    63.000000   120.000000
      13    35.000000   120.000000
      14    63.000000   120.000000
      15    63.000000   120.000000
      16    35.000000   120.000000
      17    63.000000   120.000000
      18    37.500000   110.700000
      19    58.350000   112.700000
      20    37.500000   110.700000
      21    37.500000   110.700000
      22    58.350000   112.700000
      23    37.500000   110.700000
      24    37.500000   110.700000
      25    58.350000   112.700000
      26    58.350000   112.700000
      27    37.500000   110.700000
      28    58.350000   112.700000
      29    37.500000   110.700000
      30    37.500000   110.700000
      31    37.500000   110.700000
      32    33.000000   107.800000
      33    33.000000   107.800000
      34    33.000000   107.800000

Dihedral Coeffs

       1     0.000000     7.250000     0.000000     0.000000
       2     0.000000     7.250000     0.000000     0.000000
       3    -0.250000     0.000000     0.000000     0.000000
       4     0.000000     0.000000     0.000000     0.000000
       5     0.000000     7.250000     0.000000     0.000000
       6     0.000000     7.250000     0.000000     0.000000
       7     0.000000     7.250000     0.000000     0.000000
       8     0.000000     7.250000     0.000000     0.000000
       9     0.000000     0.000000     0.462000     0.000000
      10     0.000000     0.000000     0.000000     0.000000
      11     0.000000     0.000000     0.462000     0.000000
      12     0.000000     7.250000     0.000000     0.000000
      13     0.000000     7.250000     0.000000     0.000000
      14     0.000000     7.250000     0.000000     0.000000
      15     0.000000     7.250000     0.000000     0.000000
      16    -0.250000     0.000000     0.000000     0.000000
      17    -0.250000     0.000000     0.000000     0.000000
      18     0.000000     0.000000     0.000000     0.000000
      19     0.000000     7.250000     0.000000     0.000000
      20     0.000000     7.250000     0.000000     0.000000
      21     0.000000     7.250000     0.000000     0.000000
      22     0.000000     7.250000     0.000000     0.000000
      23     0.000000     7.250000     0.000000     0.000000
      24     0.000000     7.250000     0.000000     0.000000
      25     0.000000     7.250000     0.000000     0.000000
      26     0.000000     1.650000     0.000000    -0.050000
      27     0.000000     1.650000     0.000000    -0.050000
      28     0.000000     7.250000     0.000000     0.000000
      29     0.000000     7.250000     0.000000     0.000000
      30     0.000000     7.250000     0.000000     0.000000
      31     0.000000     7.250000     0.000000     0.000000
      32     0.000000     1.650000     0.000000    -0.050000
      33     0.000000     7.250000     0.000000     0.000000
      34     0.000000     7.250000     0.000000     0.000000
      35     0.850000    -0.200000     0.200000     0.000000
      36     0.000000     0.000000     0.300000     0.000000
      37     0.850000    -0.200000     0.200000     0.000000
      38     0.850000    -0.200000     0.200000     0.000000
      39     0.000000     0.000000     0.300000     0.000000
      40     0.000000     0.000000     0.300000     0.000000
      41     0.850000    -0.200000     0.200000     0.000000
      42     0.850000    -0.200000     0.200000     0.000000
      43     0.000000     0.000000     0.300000     0.000000
      44     0.850000    -0.200000     0.200000     0.000000
      45     0.000000     0.000000     0.300000     0.000000
      46     0.000000     0.000000     0.300000     0.000000
      47     0.000000     0.000000     0.300000     0.000000
      48     0.850000    -0.200000     0.200000     0.000000
      49     0.000000     0.000000     0.300000     0.000000
      50     0.000000     7.250000     0.000000     0.000000
      51     0.000000     0.000000     0.300000     0.000000
      52     0.000000     0.000000     0.300000     0.000000
      53     0.000000     0.000000     0.300000     0.000000
      54     0.000000     0.000000     0.300000     0.000000
      55     0.000000     0.000000     0.300000     0.000000

Improper Coeffs

       1     2.500000   -1    2
       2     2.500000   -1    2
       3     2.500000   -1    2
       4     2.500000   -1    2
       5     2.500000   -1    2
       6     2.500000   -1    2
       7     2.500000   -1    2
       8     2.500000   -1    2

Atoms

       1    1      3  -0.04342091    -3.536900     8.884700     7.692400
       2    1      2  -0.15168355    -4.053700    10.285100     7.315100
       3    1      2  -0.15168355    -4.125600    11.392000     8.384100
       4    1      2  -0.15168355    -3.692000    11.093600     9.831900
       5    1      2  -0.15168355    -3.185500     9.689700    10.210300
       6    1      2  -0.15168355    -3.104700     8.586200     9.139500
       7    1      8   0.16369163    -4.371500    10.505300     6.242500
       8    1      8   0.16369163    -4.499500    12.432000     8.104100
       9    1      8   0.16369163    -3.746000    11.912500    10.623200
      10    1      8   0.16369163    -2.868500     9.468100    11.282600
      11    1      8   0.16369163    -2.722800     7.548700     9.417600
      12    1      3  -0.04342091    -3.424000     7.792200     6.614800
      13    1      2  -0.15168355    -2.787100     6.436800     6.965700
      14    1      2  -0.15168355    -2.597800     5.372200     5.871100
      15    1      3  -0.04342091    -3.063800     5.654600     4.431800
      16    1      2  -0.15168355    -3.735300     6.996200     4.086600
      17    1      2  -0.15168355    -3.912400     8.067500     5.179900
      18    1      8   0.16369163    -2.441900     6.227100     8.031900
      19    1      8   0.16369163    -2.112300     4.372600     6.125300
      20    1      8   0.16369163    -4.089500     7.200900     3.022400
      21    1      8   0.16369163    -4.390000     9.070400     4.923900
      22    1      3  -0.04342091    -2.868100     4.580800     3.349100
      23    1      2  -0.15168355    -2.171900     3.261300     3.719300
      24    1      2  -0.15168355    -2.058000     2.135800     2.678000
      25    1      3  -0.04342091    -2.675600     2.311700     1.279300
      26    1      2  -0.15168355    -3.261100     3.677000     0.870500
      27    1      2  -0.15168355    -3.369600     4.809700     1.911300
      28    1      8   0.16369163    -1.755000     3.111900     4.770100
      29    1      8   0.16369163    -1.544800     1.155400     2.952900
      30    1      8   0.16369163    -3.623400     3.846800    -0.196800
      31    1      8   0.16369163    -3.834100     5.809500     1.621800
      32    1      3  -0.04342091    -4.786100     1.913400    -1.159000
      33    1      2  -0.15168355    -5.379500     1.925600    -2.580700
      34    1      2  -0.15168355    -6.476100     2.936900    -2.954500
      35    1      1  -0.09169591    -7.014000     3.911600    -1.894100
      36    1      2  -0.15168355    -6.470000     3.858100    -0.453700
      37    1      2  -0.15168355    -5.379600     2.835600    -0.078700
      38    1      8   0.16369163    -4.985100     1.199400    -3.366100
      39    1      8   0.16369163    -6.885700     2.968600    -4.018100
      40    1      8   0.16369163    -6.877300     4.572000     0.336200
      41    1      8   0.16369163    -5.012400     2.763400     0.997600
      42    1      1  -0.09169591    -7.379200    -6.018100    -5.257300
      43    1      2  -0.15168355    -6.910900    -7.453600    -5.557200
      44    1      2  -0.15168355    -7.758300    -8.364900    -6.465100
      45    1      1  -0.09169591    -9.063400    -7.833400    -7.088000
      46    1      2  -0.15168355    -9.537800    -6.402500    -6.775900
      47    1      2  -0.15168355    -8.689400    -5.491700    -5.870500
      48    1      8   0.16369163    -5.933900    -7.838600    -5.113800
      49    1      8   0.16369163    -7.417200    -9.431400    -6.679600
      50    1      8   0.16369163   -10.514300    -6.015800    -7.219500
      51    1      8   0.16369163    -9.029800    -4.425100    -5.656300
      52    1      1  -0.09169591     5.152500    -6.540500     4.311300
      53    1      2  -0.15168355     4.523000    -7.926400     4.540800
      54    1      2  -0.15168355     5.253800    -8.973900     5.402000
      55    1      1  -0.09169591     6.615400    -8.635200     6.037000
      56    1      2  -0.15168355     7.266100    -7.264300     5.772300
      57    1      2  -0.15168355     6.530900    -6.213700     4.916800
      58    1      8   0.16369163     3.504600    -8.169400     4.089600
      59    1      8   0.16369163     4.777600    -9.993300     5.585500
      60    1      8   0.16369163     8.281900    -7.018700     6.227800
      61    1      8   0.16369163     7.001900    -5.190500     4.741200
      62    1      3  -0.04342091    -2.625000     1.117600     0.304200
      63    1      3  -0.04342091    -3.643500     0.920400    -0.852900
      64    1      2  -0.15168355    -3.552100    -0.341100    -1.730900
      65    1      1  -0.09169591    -2.436500    -1.371200    -1.499200
      66    1      1  -0.09169591    -1.301900    -1.051400    -0.516700
      67    1      2  -0.15168355    -1.471600     0.108700     0.477600
      68    1      8   0.16369163    -4.340300    -0.531600    -2.532400
      69    1      8   0.16369163    -0.689500     0.275900     1.290500
      70    1      5  -0.26322178    -7.979400     5.169600    -3.825800
      71    1      4  -0.14417299    -8.043200     4.982500    -2.298200
      72    1      9   0.09863918    -8.217100     4.179100    -4.337900
      73    1      9   0.09863918    -8.739600     5.956500    -4.145800
      74    1      9   0.09863918    -6.931600     5.506700    -4.122400
      75    1      9   0.09863918    -7.798900     5.967600    -1.779200
      76    1      9   0.09863918    -9.088700     4.642100    -1.997300
      77    1      5  -0.26322178    -4.638900    -0.747900    -9.109400
      78    1      6  -0.19257041    -3.724700    -1.601200    -8.211700
      79    1      9   0.09863918    -4.532100    -1.088300   -10.192800
      80    1      9   0.09863918    -5.722800    -0.874300    -8.777400
      81    1      9   0.09863918    -4.338700     0.349300    -9.025400
      82    1      9   0.09863918    -2.641200    -1.479000    -8.544000
      83    1      9   0.09863918    -4.027800    -2.696800    -8.300300
      84    1      5  -0.26322178    -4.993400    -5.460000    -8.629000
      85    1      6  -0.19257041    -5.381800    -5.852400    -7.191400
      86    1      9   0.09863918    -5.499800    -6.166200    -9.365200
      87    1      9   0.09863918    -5.330300    -4.391400    -8.833800
      88    1      9   0.09863918    -3.863000    -5.530300    -8.748500
      89    1      9   0.09863918    -5.043400    -6.920500    -6.979600
      90    1      9   0.09863918    -6.513500    -5.780600    -7.076900
      91    1      5  -0.26322178    -9.627500    -8.464900    -9.451300
      92    1      4  -0.14417299    -9.928300    -8.753200    -7.969000
      93    1      9   0.09863918    -8.523900    -8.662500    -9.660100
      94    1      9   0.09863918    -9.866300    -7.373700    -9.681400
      95    1      9   0.09863918   -10.267800    -9.142100   -10.108600
      96    1      9   0.09863918    -9.687300    -9.842500    -7.735100
      97    1      9   0.09863918   -11.030700    -8.552300    -7.759700
      98    1      5  -0.26322178     3.809700    -5.607200     6.573000
      99    1      6  -0.19257041     2.612800    -6.389700     5.996200
     100    1      9   0.09863918     4.652800    -5.513100     5.817300
     101    1      9   0.09863918     3.460900    -4.560000     6.858500
     102    1      9   0.09863918     4.193900    -6.140800     7.504400
     103    1      9   0.09863918     1.803800    -6.386900     6.799200
     104    1      9   0.09863918     2.892900    -7.467600     5.754800
     105    1      5  -0.26322178     9.025300   -14.145600     8.096300
     106    1      6  -0.19257041     8.594200   -13.279500     6.898200
     107    1      9   0.09863918     9.279900   -15.196700     7.734300
     108    1      9   0.09863918     9.941500   -13.680700     8.591400
     109    1      9   0.09863918     8.172200   -14.200900     8.851200
     110    1      9   0.09863918     7.677600   -13.745400     6.406200
     111    1      9   0.09863918     9.450200   -13.236400     6.151000
     112    1      5  -0.26322178    10.219000   -11.356000     3.335600
     113    1      6  -0.19257041     9.227100   -11.804000     4.424900
     114    1      9   0.09863918    10.570300   -12.265900     2.745700
     115    1      9   0.09863918     9.704500   -10.622200     2.631400
     116    1      9   0.09863918    11.115200   -10.848500     3.824000
     117    1      9   0.09863918     9.757200   -12.535700     5.115400
     118    1      9   0.09863918     8.331000   -12.312800     3.937500
     119    1      5  -0.26322178     6.487600     4.849200     4.386600
     120    1      6  -0.19257041     5.177400     4.174900     3.941100
     121    1      9   0.09863918     6.482400     4.980100     5.520100
     122    1      9   0.09863918     7.374900     4.201400     4.078800
     123    1      9   0.09863918     6.577700     5.871000     3.886900
     124    1      9   0.09863918     4.297300     4.831500     4.247000
     125    1      9   0.09863918     5.082700     3.153800     4.438800
     126    1      5  -0.26322178     2.765700    10.770200    -1.049700
     127    1      6  -0.19257041     1.593200    10.059200    -0.348400
     128    1      9   0.09863918     2.899900    10.341400    -2.096900
     129    1      9   0.09863918     2.546700    11.886600    -1.117100
     130    1      9   0.09863918     3.721500    10.607900    -0.450700
     131    1      9   0.09863918     1.466000    10.487400     0.700500
     132    1      9   0.09863918     0.635000    10.219100    -0.945000
     133    1      5  -0.26322178    -1.803400    10.032300     5.253800
     134    1      6  -0.19257041    -1.797400     9.268700     3.916200
     135    1      9   0.09863918    -0.729700    10.209800     5.594000
     136    1      9   0.09863918    -2.330100    11.034400     5.117700
     137    1      9   0.09863918    -2.351400     9.422900     6.043500
     138    1      9   0.09863918    -2.867400     9.097500     3.562400
     139    1      9   0.09863918    -1.238300     9.892300     3.142900
     140    1      7  -0.12631703    -2.259900    -2.791700    -3.646700
     141    1      4  -0.14417299    -2.550700    -2.768400    -2.137600
     142    1      6  -0.19257041    -3.107900    -1.742100    -4.385800
     143    1      6  -0.19257041    -2.757800    -4.132600    -4.212600
     144    1      9   0.09863918    -1.152600    -2.630700    -3.864500
     145    1      9   0.09863918    -3.633400    -3.098100    -1.998700
     146    1      9   0.09863918    -1.871300    -3.509300    -1.599900
     147    1      9   0.09863918    -4.201700    -1.869000    -4.092100
     148    1      9   0.09863918    -2.765000    -0.684700    -4.132700
     149    1      9   0.09863918    -2.236600    -5.031100    -3.742700
     150    1      9   0.09863918    -2.589300    -4.133500    -5.340000
     151    1      7  -0.12631703    -5.000800    -5.219400    -4.737900
     152    1      6  -0.19257041    -4.269600    -4.143600    -3.919400
     153    1      6  -0.19257041    -4.692500    -4.885700    -6.211300
     154    1      4  -0.14417299    -6.501600    -5.075000    -4.415400
     155    1      9   0.09863918    -4.630600    -6.266100    -4.478900
     156    1      9   0.09863918    -4.703500    -3.145100    -4.255000
     157    1      9   0.09863918    -4.449600    -4.271100    -2.801000
     158    1      9   0.09863918    -5.039200    -3.822100    -6.431500
     159    1      9   0.09863918    -3.564500    -4.944800    -6.365400
     160    1      9   0.09863918    -6.669100    -5.292400    -3.308900
     161    1      9   0.09863918    -6.816900    -4.001700    -4.635200
     162    1      7  -0.12631703     1.216900    -0.975700    -0.003600
     163    1      4  -0.14417299     0.062100    -1.748400    -0.677700
     164    1      6  -0.19257041     1.311900    -1.343900     1.487400
     165    1      6  -0.19257041     1.162000     0.539800    -0.301000
     166    1      9   0.09863918     2.188600    -1.373200    -0.447800
     167    1      9   0.09863918     0.037400    -2.825000    -0.303400
     168    1      9   0.09863918     0.267900    -1.754400    -1.798900
     169    1      9   0.09863918     0.379700    -1.069100     2.083400
     170    1      9   0.09863918     2.231200    -0.832300     1.926700
     171    1      9   0.09863918     1.252900     0.671700    -1.429600
     172    1      9   0.09863918     0.193300     1.018800     0.056000
     173    1      7  -0.12631703     2.884100    -5.869700     3.450300
     174    1      6  -0.19257041     2.202100    -5.038300     2.347000
     175    1      6  -0.19257041     2.047100    -5.701900     4.737700
     176    1      4  -0.14417299     4.368000    -5.460800     3.539000
     177    1      9   0.09863918     2.870800    -6.962600     3.125900
     178    1      9   0.09863918     2.833100    -5.131000     1.402000
     179    1      9   0.09863918     1.163100    -5.460500     2.142400
     180    1      9   0.09863918     1.023600    -6.150900     4.513500
     181    1      9   0.09863918     1.915800    -4.593600     4.970100
     182    1      9   0.09863918     4.476700    -4.428200     4.009700
     183    1      9   0.09863918     4.792500    -5.440400     2.481200
     184    1      7  -0.12631703     7.710600   -10.930600     6.301300
     185    1      4  -0.14417299     7.280900    -9.630900     7.006900
     186    1      6  -0.19257041     8.245100   -11.867200     7.405200
     187    1      6  -0.19257041     8.753700   -10.573800     5.222100
     188    1      9   0.09863918     6.798300   -11.409200     5.813200
     189    1      9   0.09863918     8.192500    -9.142200     7.486100
     190    1      9   0.09863918     6.527500    -9.894400     7.820900
     191    1      9   0.09863918     7.425900   -11.978700     8.190000
     192    1      9   0.09863918     9.162500   -11.397000     7.891800
     193    1      9   0.09863918     9.653100   -10.077900     5.716700
     194    1      9   0.09863918     8.274900    -9.836900     4.495900
     195    1      7  -0.12631703     2.524500     2.681600    -0.150900
     196    1      6  -0.19257041     2.341200     1.249200     0.391700
     197    1      6  -0.19257041     3.827900     3.269200     0.431200
     198    1      6  -0.19257041     1.355700     3.684100     0.003400
     199    1      9   0.09863918     2.690300     2.580500    -1.274200
     200    1      9   0.09863918     2.195300     1.248200     1.522500
     201    1      9   0.09863918     3.292700     0.675100     0.137700
     202    1      9   0.09863918     4.691400     2.591900     0.123500
     203    1      9   0.09863918     3.992900     4.303100    -0.019700
     204    1      9   0.09863918     1.727800     4.630300    -0.510000
     205    1      9   0.09863918     0.439700     3.308000    -0.561400
     206    1      7  -0.12631703     0.136900     5.412100     1.334600
     207    1      6  -0.19257041     0.924600     4.088800     1.429200
     208    1      6  -0.19257041     1.138900     6.341900     0.611400
     209    1      6  -0.19257041    -0.178500     5.942900     2.750600
     210    1      9   0.09863918    -0.824500     5.281200     0.735700
     211    1      9   0.09863918     1.842600     4.336500     2.043000
     212    1      9   0.09863918     0.334500     3.256500     1.939700
     213    1      9   0.09863918     2.120200     6.304200     1.190300
     214    1      9   0.09863918     1.318100     5.927500    -0.434600
     215    1      9   0.09863918    -0.764500     5.165800     3.344400
     216    1      9   0.09863918     0.812900     6.145600     3.275700
     217    1      6  -0.19257041    -2.961400    -2.054500    -5.886900
     218    1      6  -0.19257041    -3.865700    -1.153300    -6.744900
     219    1      9   0.09863918    -3.282100    -3.134600    -6.060900
     220    1      9   0.09863918    -1.873500    -1.929700    -6.203700
     221    1      9   0.09863918    -4.949500    -1.281000    -6.415500
     222    1      9   0.09863918    -3.554800    -0.062500    -6.631500
     223    1      6  -0.19257041     1.539100    -2.868100     1.418700
     224    1      6  -0.19257041     2.046800    -3.546200     2.705900
     225    1      9   0.09863918     2.345200    -3.049900     0.633500
     226    1      9   0.09863918     0.574100    -3.363100     1.067200
     227    1      9   0.09863918     1.313400    -3.419000     3.569400
     228    1      9   0.09863918     3.059400    -3.104100     2.986400
     229    1      6  -0.19257041     3.846600     3.381100     1.969000
     230    1      6  -0.19257041     5.182000     4.005600     2.410500
     231    1      9   0.09863918     3.722400     2.348000     2.435900
     232    1      9   0.09863918     3.018400     4.063300     2.332100
     233    1      9   0.09863918     5.291200     5.030100     1.922600
     234    1      9   0.09863918     6.048000     3.335900     2.093000
     235    1      6  -0.19257041     0.754000     7.826700     0.479900
     236    1      6  -0.19257041     1.897800     8.552900    -0.253200
     237    1      9   0.09863918    -0.222700     7.939500    -0.097000
     238    1      9   0.09863918     0.655300     8.286000     1.517300
     239    1      9   0.09863918     2.020300     8.117700    -1.299600
     240    1      9   0.09863918     2.864500     8.407600     0.333200
     241    1      6  -0.19257041    -1.005700     7.244200     2.690500
     242    1      6  -0.19257041    -1.085900     7.911200     4.076700
     243    1      9   0.09863918    -0.497500     7.990200     2.002700
     244    1      9   0.09863918    -2.049600     7.024900     2.287700
     245    1      9   0.09863918    -1.645200     7.248100     4.816600
     246    1      9   0.09863918    -0.027000     8.096700     4.456000

Bonds

       1      5        1        2
       2      7        1       12
       3      4        2        3
       4      6        2        7
       5      4        3        4
       6      6        3        8
       7      4        4        5
       8      6        4        9
       9      4        5        6
      10      6        5       10
      11      5        6        1
      12      6        6       11
      13      5       12       13
      14      4       13       14
      15      6       13       18
      16      5       14       15
      17      6       14       19
      18      5       15       16
      19      7       15       22
      20      4       16       17
      21      6       16       20
      22      5       17       12
      23      6       17       21
      24      5       22       23
      25      4       23       24
      26      6       23       28
      27      5       24       25
      28      6       24       29
      29      5       25       26
      30      7       25       62
      31      4       26       27
      32      6       26       30
      33      5       27       22
      34      6       27       31
      35      5       32       33
      36      7       32       63
      37      4       33       34
      38      6       33       38
      39      2       34       35
      40      6       34       39
      41      2       35       36
      42      3       35       71
      43      4       36       37
      44      6       36       40
      45      5       37       32
      46      6       37       41
      47      2       42       43
      48      3       42      154
      49      4       43       44
      50      6       43       48
      51      2       44       45
      52      6       44       49
      53      2       45       46
      54      3       45       92
      55      4       46       47
      56      6       46       50
      57      2       47       42
      58      6       47       51
      59      2       52       53
      60      3       52      176
      61      4       53       54
      62      6       53       58
      63      2       54       55
      64      6       54       59
      65      2       55       56
      66      3       55      185
      67      4       56       57
      68      6       56       60
      69      2       57       52
      70      6       57       61
      71      7       62       63
      72      5       63       64
      73      2       64       65
      74      6       64       68
      75      1       65       66
      76      3       65      141
      77      2       66       67
      78      3       66      163
      79      5       67       62
      80      6       67       69
      81      8       70       71
      82     12       70       72
      83     12       70       73
      84     12       70       74
      85     10       71       75
      86     10       71       76
      87     11       77       78
      88     12       77       79
      89     12       77       80
      90     12       77       81
      91     15       78       82
      92     15       78       83
      93     13       78      218
      94     11       84       85
      95     12       84       86
      96     12       84       87
      97     12       84       88
      98     15       85       89
      99     15       85       90
     100     13       85      153
     101      8       91       92
     102     12       91       93
     103     12       91       94
     104     12       91       95
     105     10       92       96
     106     10       92       97
     107     11       98       99
     108     12       98      100
     109     12       98      101
     110     12       98      102
     111     15       99      103
     112     15       99      104
     113     13       99      175
     114     11      105      106
     115     12      105      107
     116     12      105      108
     117     12      105      109
     118     15      106      110
     119     15      106      111
     120     13      106      186
     121     11      112      113
     122     12      112      114
     123     12      112      115
     124     12      112      116
     125     15      113      117
     126     15      113      118
     127     13      113      187
     128     11      119      120
     129     12      119      121
     130     12      119      122
     131     12      119      123
     132     15      120      124
     133     15      120      125
     134     13      120      230
     135     11      126      127
     136     12      126      128
     137     12      126      129
     138     12      126      130
     139     15      127      131
     140     15      127      132
     141     13      127      236
     142     11      133      134
     143     12      133      135
     144     12      133      136
     145     12      133      137
     146     15      134      138
     147     15      134      139
     148     13      134      242
     149      9      140      141
     150     14      140      142
     151     14      140      143
     152     16      140      144
     153     10      141      145
     154     10      141      146
     155     15      142      147
     156     15      142      148
     157     13      142      217
     158     15      143      149
     159     15      143      150
     160     13      143      152
     161     14      151      152
     162     14      151      153
     163      9      151      154
     164     16      151      155
     165     15      152      156
     166     15      152      157
     167     15      153      158
     168     15      153      159
     169     10      154      160
     170     10      154      161
     171      9      162      163
     172     14      162      164
     173     14      162      165
     174     16      162      166
     175     10      163      167
     176     10      163      168
     177     15      164      169
     178     15      164      170
     179     13      164      223
     180     15      165      171
     181     15      165      172
     182     13      165      196
     183     14      173      174
     184     14      173      175
     185      9      173      176
     186     16      173      177
     187     15      174      178
     188     15      174      179
     189     13      174      224
     190     15      175      180
     191     15      175      181
     192     10      176      182
     193     10      176      183
     194      9      184      185
     195     14      184      186
     196     14      184      187
     197     16      184      188
     198     10      185      189
     199     10      185      190
     200     15      186      191
     201     15      186      192
     202     15      187      193
     203     15      187      194
     204     14      195      196
     205     14      195      197
     206     14      195      198
     207     16      195      199
     208     15      196      200
     209     15      196      201
     210     15      197      202
     211     15      197      203
     212     13      197      229
     213     15      198      204
     214     15      198      205
     215     13      198      207
     216     14      206      207
     217     14      206      208
     218     14      206      209
     219     16      206      210
     220     15      207      211
     221     15      207      212
     222     15      208      213
     223     15      208      214
     224     13      208      235
     225     15      209      215
     226     15      209      216
     227     13      209      241
     228     13      217      218
     229     15      217      219
     230     15      217      220
     231     15      218      221
     232     15      218      222
     233     13      223      224
     234     15      223      225
     235     15      223      226
     236     15      224      227
     237     15      224      228
     238     13      229      230
     239     15      229      231
     240     15      229      232
     241     15      230      233
     242     15      230      234
     243     13      235      236
     244     15      235      237
     245     15      235      238
     246     15      236      239
     247     15      236      240
     248     13      241      242
     249     15      241      243
     250     15      241      244
     251     15      242      245
     252     15      242      246

Angles

       1     12        1        2        3
       2     16        1        2        7
       3     12        1        6        5
       4     16        1        6       11
       5     15        1       12       13
       6     15        1       12       17
       7     14        2        1        6
       8     15        2        1       12
       9     11        2        3        4
      10     13        2        3        8
      11     13        3        2        7
      12     11        3        4        5
      13     13        3        4        9
      14     13        4        3        8
      15     11        4        5        6
      16     13        4        5       10
      17     13        5        4        9
      18     13        5        6       11
      19     15        6        1       12
      20     13        6        5       10
      21     12       12       13       14
      22     16       12       13       18
      23     12       12       17       16
      24     16       12       17       21
      25     14       13       12       17
      26     12       13       14       15
      27     13       13       14       19
      28     13       14       13       18
      29     14       14       15       16
      30     15       14       15       22
      31     16       15       14       19
      32     12       15       16       17
      33     16       15       16       20
      34     15       15       22       23
      35     15       15       22       27
      36     15       16       15       22
      37     13       16       17       21
      38     13       17       16       20
      39     12       22       23       24
      40     16       22       23       28
      41     12       22       27       26
      42     16       22       27       31
      43     14       23       22       27
      44     12       23       24       25
      45     13       23       24       29
      46     13       24       23       28
      47     14       24       25       26
      48     15       24       25       62
      49     16       25       24       29
      50     12       25       26       27
      51     16       25       26       30
      52     17       25       62       63
      53     15       25       62       67
      54     15       26       25       62
      55     13       26       27       31
      56     13       27       26       30
      57     12       32       33       34
      58     16       32       33       38
      59     12       32       37       36
      60     16       32       37       41
      61     17       32       63       62
      62     15       32       63       64
      63     14       33       32       37
      64     15       33       32       63
      65      3       33       34       35
      66     13       33       34       39
      67     13       34       33       38
      68      9       34       35       36
      69     10       34       35       71
      70      5       35       34       39
      71      3       35       36       37
      72      5       35       36       40
      73      6       35       71       70
      74      8       35       71       75
      75      8       35       71       76
      76     10       36       35       71
      77     13       36       37       41
      78     15       37       32       63
      79     13       37       36       40
      80      3       42       43       44
      81      5       42       43       48
      82      3       42       47       46
      83      5       42       47       51
      84      7       42      154      151
      85      8       42      154      160
      86      8       42      154      161
      87      9       43       42       47
      88     10       43       42      154
      89      3       43       44       45
      90     13       43       44       49
      91     13       44       43       48
      92      9       44       45       46
      93     10       44       45       92
      94      5       45       44       49
      95      3       45       46       47
      96      5       45       46       50
      97      6       45       92       91
      98      8       45       92       96
      99      8       45       92       97
     100     10       46       45       92
     101     13       46       47       51
     102     10       47       42      154
     103     13       47       46       50
     104      3       52       53       54
     105      5       52       53       58
     106      3       52       57       56
     107      5       52       57       61
     108      7       52      176      173
     109      8       52      176      182
     110      8       52      176      183
     111      9       53       52       57
     112     10       53       52      176
     113      3       53       54       55
     114     13       53       54       59
     115     13       54       53       58
     116      9       54       55       56
     117     10       54       55      185
     118      5       55       54       59
     119      3       55       56       57
     120      5       55       56       60
     121      7       55      185      184
     122      8       55      185      189
     123      8       55      185      190
     124     10       56       55      185
     125     13       56       57       61
     126     10       57       52      176
     127     13       57       56       60
     128     15       62       63       64
     129      4       62       67       66
     130     16       62       67       69
     131     15       63       62       67
     132      4       63       64       65
     133     16       63       64       68
     134      1       64       65       66
     135     10       64       65      141
     136      5       65       64       68
     137      1       65       66       67
     138      2       65       66      163
     139      7       65      141      140
     140      8       65      141      145
     141      8       65      141      146
     142      2       66       65      141
     143      5       66       67       69
     144      7       66      163      162
     145      8       66      163      167
     146      8       66      163      168
     147     10       67       66      163
     148     21       70       71       75
     149     21       70       71       76
     150     18       71       70       72
     151     18       71       70       73
     152     18       71       70       74
     153     33       72       70       73
     154     33       72       70       74
     155     33       73       70       74
     156     32       75       71       76
     157     23       77       78       82
     158     23       77       78       83
     159     22       77       78      218
     160     24       78       77       79
     161     24       78       77       80
     162     24       78       77       81
     163     25       78      218      217
     164     27       78      218      221
     165     27       78      218      222
     166     33       79       77       80
     167     33       79       77       81
     168     33       80       77       81
     169     34       82       78       83
     170     27       82       78      218
     171     27       83       78      218
     172     23       84       85       89
     173     23       84       85       90
     174     22       84       85      153
     175     24       85       84       86
     176     24       85       84       87
     177     24       85       84       88
     178     26       85      153      151
     179     27       85      153      158
     180     27       85      153      159
     181     33       86       84       87
     182     33       86       84       88
     183     33       87       84       88
     184     34       89       85       90
     185     27       89       85      153
     186     27       90       85      153
     187     21       91       92       96
     188     21       91       92       97
     189     18       92       91       93
     190     18       92       91       94
     191     18       92       91       95
     192     33       93       91       94
     193     33       93       91       95
     194     33       94       91       95
     195     32       96       92       97
     196     23       98       99      103
     197     23       98       99      104
     198     22       98       99      175
     199     24       99       98      100
     200     24       99       98      101
     201     24       99       98      102
     202     26       99      175      173
     203     27       99      175      180
     204     27       99      175      181
     205     33      100       98      101
     206     33      100       98      102
     207     33      101       98      102
     208     34      103       99      104
     209     27      103       99      175
     210     27      104       99      175
     211     23      105      106      110
     212     23      105      106      111
     213     22      105      106      186
     214     24      106      105      107
     215     24      106      105      108
     216     24      106      105      109
     217     26      106      186      184
     218     27      106      186      191
     219     27      106      186      192
     220     33      107      105      108
     221     33      107      105      109
     222     33      108      105      109
     223     34      110      106      111
     224     27      110      106      186
     225     27      111      106      186
     226     23      112      113      117
     227     23      112      113      118
     228     22      112      113      187
     229     24      113      112      114
     230     24      113      112      115
     231     24      113      112      116
     232     26      113      187      184
     233     27      113      187      193
     234     27      113      187      194
     235     33      114      112      115
     236     33      114      112      116
     237     33      115      112      116
     238     34      117      113      118
     239     27      117      113      187
     240     27      118      113      187
     241     23      119      120      124
     242     23      119      120      125
     243     22      119      120      230
     244     24      120      119      121
     245     24      120      119      122
     246     24      120      119      123
     247     25      120      230      229
     248     27      120      230      233
     249     27      120      230      234
     250     33      121      119      122
     251     33      121      119      123
     252     33      122      119      123
     253     34      124      120      125
     254     27      124      120      230
     255     27      125      120      230
     256     23      126      127      131
     257     23      126      127      132
     258     22      126      127      236
     259     24      127      126      128
     260     24      127      126      129
     261     24      127      126      130
     262     25      127      236      235
     263     27      127      236      239
     264     27      127      236      240
     265     33      128      126      129
     266     33      128      126      130
     267     33      129      126      130
     268     34      131      127      132
     269     27      131      127      236
     270     27      132      127      236
     271     23      133      134      138
     272     23      133      134      139
     273     22      133      134      242
     274     24      134      133      135
     275     24      134      133      136
     276     24      134      133      137
     277     25      134      242      241
     278     27      134      242      245
     279     27      134      242      246
     280     33      135      133      136
     281     33      135      133      137
     282     33      136      133      137
     283     34      138      134      139
     284     27      138      134      242
     285     27      139      134      242
     286     30      140      141      145
     287     30      140      141      146
     288     31      140      142      147
     289     31      140      142      148
     290     26      140      142      217
     291     31      140      143      149
     292     31      140      143      150
     293     26      140      143      152
     294     19      141      140      142
     295     19      141      140      143
     296     20      141      140      144
     297     28      142      140      143
     298     29      142      140      144
     299     25      142      217      218
     300     27      142      217      219
     301     27      142      217      220
     302     29      143      140      144
     303     26      143      152      151
     304     27      143      152      156
     305     27      143      152      157
     306     32      145      141      146
     307     34      147      142      148
     308     27      147      142      217
     309     27      148      142      217
     310     34      149      143      150
     311     27      149      143      152
     312     27      150      143      152
     313     31      151      152      156
     314     31      151      152      157
     315     31      151      153      158
     316     31      151      153      159
     317     30      151      154      160
     318     30      151      154      161
     319     28      152      151      153
     320     19      152      151      154
     321     29      152      151      155
     322     19      153      151      154
     323     29      153      151      155
     324     20      154      151      155
     325     34      156      152      157
     326     34      158      153      159
     327     32      160      154      161
     328     30      162      163      167
     329     30      162      163      168
     330     31      162      164      169
     331     31      162      164      170
     332     26      162      164      223
     333     31      162      165      171
     334     31      162      165      172
     335     26      162      165      196
     336     19      163      162      164
     337     19      163      162      165
     338     20      163      162      166
     339     28      164      162      165
     340     29      164      162      166
     341     25      164      223      224
     342     27      164      223      225
     343     27      164      223      226
     344     29      165      162      166
     345     26      165      196      195
     346     27      165      196      200
     347     27      165      196      201
     348     32      167      163      168
     349     34      169      164      170
     350     27      169      164      223
     351     27      170      164      223
     352     34      171      165      172
     353     27      171      165      196
     354     27      172      165      196
     355     31      173      174      178
     356     31      173      174      179
     357     26      173      174      224
     358     31      173      175      180
     359     31      173      175      181
     360     30      173      176      182
     361     30      173      176      183
     362     28      174      173      175
     363     19      174      173      176
     364     29      174      173      177
     365     25      174      224      223
     366     27      174      224      227
     367     27      174      224      228
     368     19      175      173      176
     369     29      175      173      177
     370     20      176      173      177
     371     34      178      174      179
     372     27      178      174      224
     373     27      179      174      224
     374     34      180      175      181
     375     32      182      176      183
     376     30      184      185      189
     377     30      184      185      190
     378     31      184      186      191
     379     31      184      186      192
     380     31      184      187      193
     381     31      184      187      194
     382     19      185      184      186
     383     19      185      184      187
     384     20      185      184      188
     385     28      186      184      187
     386     29      186      184      188
     387     29      187      184      188
     388     32      189      185      190
     389     34      191      186      192
     390     34      193      187      194
     391     31      195      196      200
     392     31      195      196      201
     393     31      195      197      202
     394     31      195      197      203
     395     26      195      197      229
     396     31      195      198      204
     397     31      195      198      205
     398     26      195      198      207
     399     28      196      195      197
     400     28      196      195      198
     401     29      196      195      199
     402     28      197      195      198
     403     29      197      195      199
     404     25      197      229      230
     405     27      197      229      231
     406     27      197      229      232
     407     29      198      195      199
     408     26      198      207      206
     409     27      198      207      211
     410     27      198      207      212
     411     34      200      196      201
     412     34      202      197      203
     413     27      202      197      229
     414     27      203      197      229
     415     34      204      198      205
     416     27      204      198      207
     417     27      205      198      207
     418     31      206      207      211
     419     31      206      207      212
     420     31      206      208      213
     421     31      206      208      214
     422     26      206      208      235
     423     31      206      209      215
     424     31      206      209      216
     425     26      206      209      241
     426     28      207      206      208
     427     28      207      206      209
     428     29      207      206      210
     429     28      208      206      209
     430     29      208      206      210
     431     25      208      235      236
     432     27      208      235      237
     433     27      208      235      238
     434     29      209      206      210
     435     25      209      241      242
     436     27      209      241      243
     437     27      209      241      244
     438     34      211      207      212
     439     34      213      208      214
     440     27      213      208      235
     441     27      214      208      235
     442     34      215      209      216
     443     27      215      209      241
     444     27      216      209      241
     445     27      217      218      221
     446     27      217      218      222
     447     27      218      217      219
     448     27      218      217      220
     449     34      219      217      220
     450     34      221      218      222
     451     27      223      224      227
     452     27      223      224      228
     453     27      224      223      225
     454     27      224      223      226
     455     34      225      223      226
     456     34      227      224      228
     457     27      229      230      233
     458     27      229      230      234
     459     27      230      229      231
     460     27      230      229      232
     461     34      231      229      232
     462     34      233      230      234
     463     27      235      236      239
     464     27      235      236      240
     465     27      236      235      237
     466     27      236      235      238
     467     34      237      235      238
     468     34      239      236      240
     469     27      241      242      245
     470     27      241      242      246
     471     27      242      241      243
     472     27      242      241      244
     473     34      243      241      244
     474     34      245      242      246

Dihedrals

       1     21        1        2        3        4
       2     30        1        2        3        8
       3     21        1        6        5        4
       4     30        1        6        5       10
       5     24        1       12       13       14
       6     31        1       12       13       18
       7     24        1       12       17       16
       8     31        1       12       17       21
       9     23        2        1        6        5
      10     25        2        1        6       11
      11     26        2        1       12       13
      12     26        2        1       12       17
      13     20        2        3        4        5
      14     22        2        3        4        9
      15     23        3        2        1        6
      16     24        3        2        1       12
      17     20        3        4        5        6
      18     22        3        4        5       10
      19     22        4        3        2        7
      20     22        4        5        6       11
      21     22        5        4        3        8
      22     24        5        6        1       12
      23     25        6        1        2        7
      24     26        6        1       12       13
      25     26        6        1       12       17
      26     22        6        5        4        9
      27     31        7        2        1       12
      28     50        7        2        3        8
      29     50        8        3        4        9
      30     50        9        4        5       10
      31     50       10        5        6       11
      32     31       11        6        1       12
      33     29       12       13       14       15
      34     30       12       13       14       19
      35     29       12       17       16       15
      36     30       12       17       16       20
      37     23       13       12       17       16
      38     25       13       12       17       21
      39     23       13       14       15       16
      40     24       13       14       15       22
      41     23       14       13       12       17
      42     23       14       15       16       17
      43     25       14       15       16       20
      44     26       14       15       22       23
      45     26       14       15       22       27
      46     30       15       14       13       18
      47     30       15       16       17       21
      48     24       15       22       23       24
      49     31       15       22       23       28
      50     24       15       22       27       26
      51     31       15       22       27       31
      52     25       16       15       14       19
      53     26       16       15       22       23
      54     26       16       15       22       27
      55     25       17       12       13       18
      56     24       17       16       15       22
      57     50       18       13       14       19
      58     31       19       14       15       22
      59     31       20       16       15       22
      60     50       20       16       17       21
      61     29       22       23       24       25
      62     30       22       23       24       29
      63     29       22       27       26       25
      64     30       22       27       26       30
      65     23       23       22       27       26
      66     25       23       22       27       31
      67     23       23       24       25       26
      68     24       23       24       25       62
      69     23       24       23       22       27
      70     23       24       25       26       27
      71     25       24       25       26       30
      72     27       24       25       62       63
      73     26       24       25       62       67
      74     30       25       24       23       28
      75     30       25       26       27       31
      76     32       25       62       63       32
      77     27       25       62       63       64
      78      8       25       62       67       66
      79     31       25       62       67       69
      80     25       26       25       24       29
      81     27       26       25       62       63
      82     26       26       25       62       67
      83     25       27       22       23       28
      84     24       27       26       25       62
      85     50       28       23       24       29
      86     31       29       24       25       62
      87     31       30       26       25       62
      88     50       30       26       27       31
      89      6       32       33       34       35
      90     30       32       33       34       39
      91      6       32       37       36       35
      92     30       32       37       36       40
      93     27       32       63       62       67
      94      8       32       63       64       65
      95     31       32       63       64       68
      96     23       33       32       37       36
      97     25       33       32       37       41
      98     27       33       32       63       62
      99     26       33       32       63       64
     100     14       33       34       35       36
     101     19       33       34       35       71
     102     23       34       33       32       37
     103     24       34       33       32       63
     104     14       34       35       36       37
     105     15       34       35       36       40
     106     16       34       35       71       70
     107     18       34       35       71       75
     108     18       34       35       71       76
     109      7       35       34       33       38
     110      7       35       36       37       41
     111      9       35       71       70       72
     112      9       35       71       70       73
     113      9       35       71       70       74
     114     15       36       35       34       39
     115     16       36       35       71       70
     116     18       36       35       71       75
     117     18       36       35       71       76
     118     24       36       37       32       63
     119     25       37       32       33       38
     120     27       37       32       63       62
     121     26       37       32       63       64
     122     19       37       36       35       71
     123     31       38       33       32       63
     124     50       38       33       34       39
     125     34       39       34       35       71
     126     34       40       36       35       71
     127     50       40       36       37       41
     128     31       41       37       32       63
     129      5       42       43       44       45
     130      7       42       43       44       49
     131      5       42       47       46       45
     132      7       42       47       46       50
     133     10       42      154      151      152
     134     10       42      154      151      153
     135     11       42      154      151      155
     136     14       43       42       47       46
     137     15       43       42       47       51
     138     17       43       42      154      151
     139     18       43       42      154      160
     140     18       43       42      154      161
     141     14       43       44       45       46
     142     19       43       44       45       92
     143     14       44       43       42       47
     144     19       44       43       42      154
     145     14       44       45       46       47
     146     15       44       45       46       50
     147     16       44       45       92       91
     148     18       44       45       92       96
     149     18       44       45       92       97
     150      7       45       44       43       48
     151      7       45       46       47       51
     152      9       45       92       91       93
     153      9       45       92       91       94
     154      9       45       92       91       95
     155     15       46       45       44       49
     156     16       46       45       92       91
     157     18       46       45       92       96
     158     18       46       45       92       97
     159     19       46       47       42      154
     160     15       47       42       43       48
     161     17       47       42      154      151
     162     18       47       42      154      160
     163     18       47       42      154      161
     164     19       47       46       45       92
     165     34       48       43       42      154
     166     50       48       43       44       49
     167     34       49       44       45       92
     168     34       50       46       45       92
     169     50       50       46       47       51
     170     34       51       47       42      154
     171      5       52       53       54       55
     172      7       52       53       54       59
     173      5       52       57       56       55
     174      7       52       57       56       60
     175     10       52      176      173      174
     176     10       52      176      173      175
     177     11       52      176      173      177
     178     14       53       52       57       56
     179     15       53       52       57       61
     180     17       53       52      176      173
     181     18       53       52      176      182
     182     18       53       52      176      183
     183     14       53       54       55       56
     184     19       53       54       55      185
     185     14       54       53       52       57
     186     19       54       53       52      176
     187     14       54       55       56       57
     188     15       54       55       56       60
     189     17       54       55      185      184
     190     18       54       55      185      189
     191     18       54       55      185      190
     192      7       55       54       53       58
     193      7       55       56       57       61
     194     10       55      185      184      186
     195     10       55      185      184      187
     196     11       55      185      184      188
     197     15       56       55       54       59
     198     17       56       55      185      184
     199     18       56       55      185      189
     200     18       56       55      185      190
     201     19       56       57       52      176
     202     15       57       52       53       58
     203     17       57       52      176      173
     204     18       57       52      176      182
     205     18       57       52      176      183
     206     19       57       56       55      185
     207     34       58       53       52      176
     208     50       58       53       54       59
     209     34       59       54       55      185
     210     34       60       56       55      185
     211     50       60       56       57       61
     212     34       61       57       52      176
     213      8       62       63       64       65
     214     31       62       63       64       68
     215      1       62       67       66       65
     216     28       62       67       66      163
     217      8       63       62       67       66
     218     31       63       62       67       69
     219      1       63       64       65       66
     220     28       63       64       65      141
     221     26       64       63       62       67
     222     12       64       65       66       67
     223     13       64       65       66      163
     224     17       64       65      141      140
     225     18       64       65      141      145
     226     18       64       65      141      146
     227      2       65       66       67       69
     228      3       65       66      163      162
     229      4       65       66      163      167
     230      4       65       66      163      168
     231     10       65      141      140      142
     232     10       65      141      140      143
     233     11       65      141      140      144
     234      2       66       65       64       68
     235      3       66       65      141      140
     236      4       66       65      141      145
     237      4       66       65      141      146
     238     10       66      163      162      164
     239     10       66      163      162      165
     240     11       66      163      162      166
     241     13       67       66       65      141
     242     17       67       66      163      162
     243     18       67       66      163      167
     244     18       67       66      163      168
     245     34       68       64       65      141
     246     34       69       67       66      163
     247     51       72       70       71       75
     248     51       72       70       71       76
     249     51       73       70       71       75
     250     51       73       70       71       76
     251     51       74       70       71       75
     252     51       74       70       71       76
     253     37       77       78      218      217
     254     39       77       78      218      221
     255     39       77       78      218      222
     256     41       78      218      217      142
     257     43       78      218      217      219
     258     43       78      218      217      220
     259     53       79       77       78       82
     260     53       79       77       78       83
     261     40       79       77       78      218
     262     53       80       77       78       82
     263     53       80       77       78       83
     264     40       80       77       78      218
     265     53       81       77       78       82
     266     53       81       77       78       83
     267     40       81       77       78      218
     268     43       82       78      218      217
     269     54       82       78      218      221
     270     54       82       78      218      222
     271     43       83       78      218      217
     272     54       83       78      218      221
     273     54       83       78      218      222
     274     38       84       85      153      151
     275     39       84       85      153      158
     276     39       84       85      153      159
     277     44       85      153      151      152
     278     35       85      153      151      154
     279     45       85      153      151      155
     280     53       86       84       85       89
     281     53       86       84       85       90
     282     40       86       84       85      153
     283     53       87       84       85       89
     284     53       87       84       85       90
     285     40       87       84       85      153
     286     53       88       84       85       89
     287     53       88       84       85       90
     288     40       88       84       85      153
     289     49       89       85      153      151
     290     54       89       85      153      158
     291     54       89       85      153      159
     292     49       90       85      153      151
     293     54       90       85      153      158
     294     54       90       85      153      159
     295     51       93       91       92       96
     296     51       93       91       92       97
     297     51       94       91       92       96
     298     51       94       91       92       97
     299     51       95       91       92       96
     300     51       95       91       92       97
     301     38       98       99      175      173
     302     39       98       99      175      180
     303     39       98       99      175      181
     304     44       99      175      173      174
     305     35       99      175      173      176
     306     45       99      175      173      177
     307     53      100       98       99      103
     308     53      100       98       99      104
     309     40      100       98       99      175
     310     53      101       98       99      103
     311     53      101       98       99      104
     312     40      101       98       99      175
     313     53      102       98       99      103
     314     53      102       98       99      104
     315     40      102       98       99      175
     316     49      103       99      175      173
     317     54      103       99      175      180
     318     54      103       99      175      181
     319     49      104       99      175      173
     320     54      104       99      175      180
     321     54      104       99      175      181
     322     38      105      106      186      184
     323     39      105      106      186      191
     324     39      105      106      186      192
     325     35      106      186      184      185
     326     44      106      186      184      187
     327     45      106      186      184      188
     328     53      107      105      106      110
     329     53      107      105      106      111
     330     40      107      105      106      186
     331     53      108      105      106      110
     332     53      108      105      106      111
     333     40      108      105      106      186
     334     53      109      105      106      110
     335     53      109      105      106      111
     336     40      109      105      106      186
     337     49      110      106      186      184
     338     54      110      106      186      191
     339     54      110      106      186      192
     340     49      111      106      186      184
     341     54      111      106      186      191
     342     54      111      106      186      192
     343     38      112      113      187      184
     344     39      112      113      187      193
     345     39      112      113      187      194
     346     35      113      187      184      185
     347     44      113      187      184      186
     348     45      113      187      184      188
     349     53      114      112      113      117
     350     53      114      112      113      118
     351     40      114      112      113      187
     352     53      115      112      113      117
     353     53      115      112      113      118
     354     40      115      112      113      187
     355     53      116      112      113      117
     356     53      116      112      113      118
     357     40      116      112      113      187
     358     49      117      113      187      184
     359     54      117      113      187      193
     360     54      117      113      187      194
     361     49      118      113      187      184
     362     54      118      113      187      193
     363     54      118      113      187      194
     364     37      119      120      230      229
     365     39      119      120      230      233
     366     39      119      120      230      234
     367     41      120      230      229      197
     368     43      120      230      229      231
     369     43      120      230      229      232
     370     53      121      119      120      124
     371     53      121      119      120      125
     372     40      121      119      120      230
     373     53      122      119      120      124
     374     53      122      119      120      125
     375     40      122      119      120      230
     376     53      123      119      120      124
     377     53      123      119      120      125
     378     40      123      119      120      230
     379     43      124      120      230      229
     380     54      124      120      230      233
     381     54      124      120      230      234
     382     43      125      120      230      229
     383     54      125      120      230      233
     384     54      125      120      230      234
     385     37      126      127      236      235
     386     39      126      127      236      239
     387     39      126      127      236      240
     388     41      127      236      235      208
     389     43      127      236      235      237
     390     43      127      236      235      238
     391     53      128      126      127      131
     392     53      128      126      127      132
     393     40      128      126      127      236
     394     53      129      126      127      131
     395     53      129      126      127      132
     396     40      129      126      127      236
     397     53      130      126      127      131
     398     53      130      126      127      132
     399     40      130      126      127      236
     400     43      131      127      236      235
     401     54      131      127      236      239
     402     54      131      127      236      240
     403     43      132      127      236      235
     404     54      132      127      236      239
     405     54      132      127      236      240
     406     37      133      134      242      241
     407     39      133      134      242      245
     408     39      133      134      242      246
     409     41      134      242      241      209
     410     43      134      242      241      243
     411     43      134      242      241      244
     412     53      135      133      134      138
     413     53      135      133      134      139
     414     40      135      133      134      242
     415     53      136      133      134      138
     416     53      136      133      134      139
     417     40      136      133      134      242
     418     53      137      133      134      138
     419     53      137      133      134      139
     420     40      137      133      134      242
     421     43      138      134      242      241
     422     54      138      134      242      245
     423     54      138      134      242      246
     424     43      139      134      242      241
     425     54      139      134      242      245
     426     54      139      134      242      246
     427     42      140      142      217      218
     428     49      140      142      217      219
     429     49      140      142      217      220
     430     48      140      143      152      151
     431     49      140      143      152      156
     432     49      140      143      152      157
     433     33      141       65       66      163
     434     36      141      140      142      147
     435     36      141      140      142      148
     436     35      141      140      142      217
     437     36      141      140      143      149
     438     36      141      140      143      150
     439     35      141      140      143      152
     440     46      142      140      141      145
     441     46      142      140      141      146
     442     47      142      140      143      149
     443     47      142      140      143      150
     444     44      142      140      143      152
     445     43      142      217      218      221
     446     43      142      217      218      222
     447     46      143      140      141      145
     448     46      143      140      141      146
     449     47      143      140      142      147
     450     47      143      140      142      148
     451     44      143      140      142      217
     452     44      143      152      151      153
     453     35      143      152      151      154
     454     45      143      152      151      155
     455     52      144      140      141      145
     456     52      144      140      141      146
     457     55      144      140      142      147
     458     55      144      140      142      148
     459     45      144      140      142      217
     460     55      144      140      143      149
     461     55      144      140      143      150
     462     45      144      140      143      152
     463     43      147      142      217      218
     464     54      147      142      217      219
     465     54      147      142      217      220
     466     43      148      142      217      218
     467     54      148      142      217      219
     468     54      148      142      217      220
     469     49      149      143      152      151
     470     54      149      143      152      156
     471     54      149      143      152      157
     472     49      150      143      152      151
     473     54      150      143      152      156
     474     54      150      143      152      157
     475     47      152      151      153      158
     476     47      152      151      153      159
     477     46      152      151      154      160
     478     46      152      151      154      161
     479     47      153      151      152      156
     480     47      153      151      152      157
     481     46      153      151      154      160
     482     46      153      151      154      161
     483     36      154      151      152      156
     484     36      154      151      152      157
     485     36      154      151      153      158
     486     36      154      151      153      159
     487     55      155      151      152      156
     488     55      155      151      152      157
     489     55      155      151      153      158
     490     55      155      151      153      159
     491     52      155      151      154      160
     492     52      155      151      154      161
     493     42      162      164      223      224
     494     49      162      164      223      225
     495     49      162      164      223      226
     496     48      162      165      196      195
     497     49      162      165      196      200
     498     49      162      165      196      201
     499     36      163      162      164      169
     500     36      163      162      164      170
     501     35      163      162      164      223
     502     36      163      162      165      171
     503     36      163      162      165      172
     504     35      163      162      165      196
     505     46      164      162      163      167
     506     46      164      162      163      168
     507     47      164      162      165      171
     508     47      164      162      165      172
     509     44      164      162      165      196
     510     41      164      223      224      174
     511     43      164      223      224      227
     512     43      164      223      224      228
     513     46      165      162      163      167
     514     46      165      162      163      168
     515     47      165      162      164      169
     516     47      165      162      164      170
     517     44      165      162      164      223
     518     44      165      196      195      197
     519     44      165      196      195      198
     520     45      165      196      195      199
     521     52      166      162      163      167
     522     52      166      162      163      168
     523     55      166      162      164      169
     524     55      166      162      164      170
     525     45      166      162      164      223
     526     55      166      162      165      171
     527     55      166      162      165      172
     528     45      166      162      165      196
     529     43      169      164      223      224
     530     54      169      164      223      225
     531     54      169      164      223      226
     532     43      170      164      223      224
     533     54      170      164      223      225
     534     54      170      164      223      226
     535     49      171      165      196      195
     536     54      171      165      196      200
     537     54      171      165      196      201
     538     49      172      165      196      195
     539     54      172      165      196      200
     540     54      172      165      196      201
     541     42      173      174      224      223
     542     49      173      174      224      227
     543     49      173      174      224      228
     544     47      174      173      175      180
     545     47      174      173      175      181
     546     46      174      173      176      182
     547     46      174      173      176      183
     548     43      174      224      223      225
     549     43      174      224      223      226
     550     47      175      173      174      178
     551     47      175      173      174      179
     552     44      175      173      174      224
     553     46      175      173      176      182
     554     46      175      173      176      183
     555     36      176      173      174      178
     556     36      176      173      174      179
     557     35      176      173      174      224
     558     36      176      173      175      180
     559     36      176      173      175      181
     560     55      177      173      174      178
     561     55      177      173      174      179
     562     45      177      173      174      224
     563     55      177      173      175      180
     564     55      177      173      175      181
     565     52      177      173      176      182
     566     52      177      173      176      183
     567     43      178      174      224      223
     568     54      178      174      224      227
     569     54      178      174      224      228
     570     43      179      174      224      223
     571     54      179      174      224      227
     572     54      179      174      224      228
     573     36      185      184      186      191
     574     36      185      184      186      192
     575     36      185      184      187      193
     576     36      185      184      187      194
     577     46      186      184      185      189
     578     46      186      184      185      190
     579     47      186      184      187      193
     580     47      186      184      187      194
     581     46      187      184      185      189
     582     46      187      184      185      190
     583     47      187      184      186      191
     584     47      187      184      186      192
     585     52      188      184      185      189
     586     52      188      184      185      190
     587     55      188      184      186      191
     588     55      188      184      186      192
     589     55      188      184      187      193
     590     55      188      184      187      194
     591     42      195      197      229      230
     592     49      195      197      229      231
     593     49      195      197      229      232
     594     48      195      198      207      206
     595     49      195      198      207      211
     596     49      195      198      207      212
     597     47      196      195      197      202
     598     47      196      195      197      203
     599     44      196      195      197      229
     600     47      196      195      198      204
     601     47      196      195      198      205
     602     44      196      195      198      207
     603     47      197      195      196      200
     604     47      197      195      196      201
     605     47      197      195      198      204
     606     47      197      195      198      205
     607     44      197      195      198      207
     608     43      197      229      230      233
     609     43      197      229      230      234
     610     47      198      195      196      200
     611     47      198      195      196      201
     612     47      198      195      197      202
     613     47      198      195      197      203
     614     44      198      195      197      229
     615     44      198      207      206      208
     616     44      198      207      206      209
     617     45      198      207      206      210
     618     55      199      195      196      200
     619     55      199      195      196      201
     620     55      199      195      197      202
     621     55      199      195      197      203
     622     45      199      195      197      229
     623     55      199      195      198      204
     624     55      199      195      198      205
     625     45      199      195      198      207
     626     43      202      197      229      230
     627     54      202      197      229      231
     628     54      202      197      229      232
     629     43      203      197      229      230
     630     54      203      197      229      231
     631     54      203      197      229      232
     632     49      204      198      207      206
     633     54      204      198      207      211
     634     54      204      198      207      212
     635     49      205      198      207      206
     636     54      205      198      207      211
     637     54      205      198      207      212
     638     42      206      208      235      236
     639     49      206      208      235      237
     640     49      206      208      235      238
     641     42      206      209      241      242
     642     49      206      209      241      243
     643     49      206      209      241      244
     644     47      207      206      208      213
     645     47      207      206      208      214
     646     44      207      206      208      235
     647     47      207      206      209      215
     648     47      207      206      209      216
     649     44      207      206      209      241
     650     47      208      206      207      211
     651     47      208      206      207      212
     652     47      208      206      209      215
     653     47      208      206      209      216
     654     44      208      206      209      241
     655     43      208      235      236      239
     656     43      208      235      236      240
     657     47      209      206      207      211
     658     47      209      206      207      212
     659     47      209      206      208      213
     660     47      209      206      208      214
     661     44      209      206      208      235
     662     43      209      241      242      245
     663     43      209      241      242      246
     664     55      210      206      207      211
     665     55      210      206      207      212
     666     55      210      206      208      213
     667     55      210      206      208      214
     668     45      210      206      208      235
     669     55      210      206      209      215
     670     55      210      206      209      216
     671     45      210      206      209      241
     672     43      213      208      235      236
     673     54      213      208      235      237
     674     54      213      208      235      238
     675     43      214      208      235      236
     676     54      214      208      235      237
     677     54      214      208      235      238
     678     43      215      209      241      242
     679     54      215      209      241      243
     680     54      215      209      241      244
     681     43      216      209      241      242
     682     54      216      209      241      243
     683     54      216      209      241      244
     684     54      219      217      218      221
     685     54      219      217      218      222
     686     54      220      217      218      221
     687     54      220      217      218      222
     688     54      225      223      224      227
     689     54      225      223      224      228
     690     54      226      223      224      227
     691     54      226      223      224      228
     692     54      231      229      230      233
     693     54      231      229      230      234
     694     54      232      229      230      233
     695     54      232      229      230      234
     696     54      237      235      236      239
     697     54      237      235      236      240
     698     54      238      235      236      239
     699     54      238      235      236      240
     700     54      243      241      242      245
     701     54      243      241      242      246
     702     54      244      241      242      245
     703     54      244      241      242      246

Impropers

       1      7        2        1        6       12
       2      6        1        2        3        7
       3      5        2        3        4        8
       4      5        3        4        5        9
       5      5        4        5        6       10
       6      6        1        6        5       11
       7      7        1       12       13       17
       8      6       12       13       14       18
       9      6       13       14       15       19
      10      7       14       15       16       22
      11      6       15       16       17       20
      12      6       12       17       16       21
      13      7       15       22       23       27
      14      6       22       23       24       28
      15      6       23       24       25       29
      16      7       24       25       26       62
      17      6       25       26       27       30
      18      6       22       27       26       31
      19      7       33       32       37       63
      20      6       32       33       34       38
      21      3       33       34       35       39
      22      2       34       35       36       71
      23      3       35       36       37       40
      24      6       32       37       36       41
      25      2       43       42       47      154
      26      3       42       43       44       48
      27      3       43       44       45       49
      28      2       44       45       46       92
      29      3       45       46       47       50
      30      3       42       47       46       51
      31      2       53       52       57      176
      32      3       52       53       54       58
      33      3       53       54       55       59
      34      2       54       55       56      185
      35      3       55       56       57       60
      36      3       52       57       56       61
      37      8       25       62       63       67
      38      8       32       63       62       64
      39      4       63       64       65       68
      40      1       64       65       66      141
      41      1       65       66       67      163
      42      4       62       67       66       69

