LAMMPS data file generated by clean-room 1-hop pipeline

     221 atoms
     220 bonds
     438 angles
     648 dihedrals
       0 impropers

       5 atom types
       7 bond types
      14 angle types
      22 dihedral types
       0 improper types

  -28.390600    30.415900 xlo xhi
  -28.771300    33.516100 ylo yhi
  -29.221200    30.527200 zlo zhi

Masses

       1    12.011000
       2    12.011000
       3    12.011000
       4    12.011000
       5     1.008000

Pair Coeffs

       1     0.066000     3.500000
       2     0.066000     3.500000
       3     0.066000     3.500000
       4     0.066000     3.500000
       5     0.030000     2.500000

Bond Coeffs

       1   268.000000     1.529000
       2   340.000000     1.090000
       3   268.000000     1.529000
       4   268.000000     1.529000
       5   268.000000     1.529000
       6   340.000000     1.090000
       7   340.000000     1.090000

Angle Coeffs

       1    58.350000   112.700000
       2    37.500000   110.700000
       3    37.500000   110.700000
       4    58.350000   112.700000
       5    58.350000   112.700000
       6    58.350000   112.700000
       7    37.500000   110.700000
       8    58.350000   112.700000
       9    37.500000   110.700000
      10    58.350000   112.700000
      11    37.500000   110.700000
      12    37.500000   110.700000
      13    33.000000   107.800000
      14    33.000000   107.800000

Dihedral Coeffs

       1     0.850000    -0.200000     0.200000     0.000000
       2     0.850000    -0.200000     0.200000     0.000000
       3     0.850000    -0.200000     0.200000     0.000000
       4     0.000000     0.000000     0.300000     0.000000
       5     0.000000     0.000000     0.300000     0.000000
       6     0.850000    -0.200000     0.200000     0.000000
       7     0.850000    -0.200000     0.200000     0.000000
       8     0.850000    -0.200000     0.200000     0.000000
       9     0.000000     0.000000     0.300000     0.000000
      10     0.850000    -0.200000     0.200000     0.000000
      11     0.000000     0.000000     0.300000     0.000000
      12     0.850000    -0.200000     0.200000     0.000000
      13     0.000000     0.000000     0.300000     0.000000
      14     0.000000     0.000000     0.300000     0.000000
      15     0.850000    -0.200000     0.200000     0.000000
      16     0.850000    -0.200000     0.200000     0.000000
      17     0.000000     0.000000     0.300000     0.000000
      18     0.850000    -0.200000     0.200000     0.000000
      19     0.000000     0.000000     0.300000     0.000000
      20     0.000000     0.000000     0.300000     0.000000
      21     0.000000     0.000000     0.300000     0.000000
      22     0.000000     0.000000     0.300000     0.000000

Improper Coeffs


Atoms

       1    1      1  -0.26490929    -7.340100    -6.927100     2.220100
       2    1      2  -0.19425792    -7.423300    -7.769800     0.935100
       3    1      5   0.09695167    -6.721900    -7.482500     3.000300
       4    1      5   0.09695167    -6.844500    -5.928200     1.982700
       5    1      5   0.09695167    -8.390600    -6.745700     2.624200
       6    1      5   0.09695167    -8.043400    -7.211300     0.158400
       7    1      5   0.09695167    -7.917200    -8.771300     1.165200
       8    1      1  -0.26490929    -5.180900    -4.368600    -4.534100
       9    1      2  -0.19425792    -3.863600    -5.005300    -4.056200
      10    1      5   0.09695167    -4.949300    -3.476100    -5.204300
      11    1      5   0.09695167    -5.785100    -5.136800    -5.121100
      12    1      5   0.09695167    -5.783000    -4.021900    -3.630400
      13    1      5   0.09695167    -4.093900    -5.897000    -3.383800
      14    1      5   0.09695167    -3.258200    -5.354200    -4.957000
      15    1      1  -0.26490929     0.828600    -7.274500    -8.378700
      16    1      2  -0.19425792     0.024100    -5.979400    -8.158100
      17    1      5   0.09695167     0.355400    -7.879400    -9.221200
      18    1      5   0.09695167     1.902100    -7.008700    -8.656200
      19    1      5   0.09695167     0.826800    -7.891800    -7.420400
      20    1      5   0.09695167    -1.052200    -6.231300    -7.879900
      21    1      5   0.09695167     0.035200    -5.364500    -9.117900
      22    1      1  -0.26490929     5.787100    -2.751600    -7.749000
      23    1      2  -0.19425792     4.249400    -2.687800    -7.801100
      24    1      5   0.09695167     6.155200    -3.625700    -8.381800
      25    1      5   0.09695167     6.223300    -1.778500    -8.151600
      26    1      5   0.09695167     6.120300    -2.897700    -6.669100
      27    1      5   0.09695167     3.884400    -1.822800    -7.154300
      28    1      5   0.09695167     3.906100    -2.533100    -8.877000
      29    1      1  -0.26490929     9.378200    -4.912800    -2.510800
      30    1      2  -0.19425792     8.337800    -3.893700    -2.006200
      31    1      5   0.09695167     9.160200    -5.224300    -3.581900
      32    1      5   0.09695167    10.415900    -4.444100    -2.456800
      33    1      5   0.09695167     9.348500    -5.839500    -1.847800
      34    1      5   0.09695167     8.612300    -3.635900    -0.930200
      35    1      5   0.09695167     7.292500    -4.348500    -2.026700
      36    1      1  -0.26490929     8.861900    -4.853400    -7.344600
      37    1      2  -0.19425792     8.082700    -3.816400    -6.514700
      38    1      5   0.09695167     8.427500    -4.900300    -8.397500
      39    1      5   0.09695167     9.959000    -4.548300    -7.397700
      40    1      5   0.09695167     8.775700    -5.878000    -6.852200
      41    1      5   0.09695167     6.985100    -4.120600    -6.454800
      42    1      5   0.09695167     8.163300    -2.792300    -7.008600
      43    1      1  -0.26490929    -2.194700    -1.745900    -0.964100
      44    1      2  -0.19425792    -3.083100    -0.719900    -0.264000
      45    1      5   0.09695167    -2.824300    -2.426000    -1.628300
      46    1      5   0.09695167    -1.426400    -1.190600    -1.596600
      47    1      5   0.09695167    -1.656100    -2.368800    -0.176200
      48    1      5   0.09695167    -3.852900    -1.242000     0.394900
      49    1      5   0.09695167    -3.620900    -0.079800    -1.037600
      50    1      1  -0.26490929    -2.493800     1.484700    -3.751400
      51    1      2  -0.19425792    -2.049700     0.641700    -2.542000
      52    1      5   0.09695167    -2.874300     0.794400    -4.574900
      53    1      5   0.09695167    -3.327100     2.194800    -3.433400
      54    1      5   0.09695167    -1.606100     2.086200    -4.138600
      55    1      5   0.09695167    -2.935600     0.033600    -2.168900
      56    1      5   0.09695167    -1.226500    -0.071900    -2.872000
      57    1      1  -0.26490929    -4.280000     3.572500     3.420400
      58    1      2  -0.19425792    -4.368300     3.884600     1.915300
      59    1      5   0.09695167    -3.308500     3.019700     3.639200
      60    1      5   0.09695167    -4.322300     4.539100     4.019800
      61    1      5   0.09695167    -5.156600     2.906100     3.714900
      62    1      5   0.09695167    -5.378600     4.366700     1.700300
      63    1      5   0.09695167    -4.295000     2.902000     1.341700
      64    1      1  -0.26490929    -5.268200     5.571000     5.883200
      65    1      2  -0.19425792    -4.093600     6.218100     5.127400
      66    1      5   0.09695167    -5.219300     4.439000     5.756800
      67    1      5   0.09695167    -5.197100     5.834700     6.990100
      68    1      5   0.09695167    -6.253400     5.958100     5.460200
      69    1      5   0.09695167    -4.135100     7.351200     5.248700
      70    1      5   0.09695167    -4.156100     5.952600     4.020300
      71    1      1  -0.26490929     0.738700    10.243300     7.917800
      72    1      2  -0.19425792     0.461500     8.738100     8.084100
      73    1      5   0.09695167     1.735400    10.392000     7.385000
      74    1      5   0.09695167    -0.097800    10.712900     7.300800
      75    1      5   0.09695167     0.778400    10.738500     8.943800
      76    1      5   0.09695167    -0.543100     8.606500     8.607400
      77    1      5   0.09695167     1.284300     8.252200     8.705500
      78    1      1  -0.26490929    -4.194600    12.395700     6.808300
      79    1      2  -0.19425792    -3.660100    11.823300     5.480600
      80    1      5   0.09695167    -3.450100    12.226300     7.650600
      81    1      5   0.09695167    -4.367200    13.516100     6.688400
      82    1      5   0.09695167    -5.181100    11.887000     7.068300
      83    1      5   0.09695167    -4.431400    12.050700     4.672600
      84    1      5   0.09695167    -2.674400    12.325000     5.204800
      85    1      1  -0.26490929    -4.233800    10.307400     9.836700
      86    1      2  -0.19425792    -3.990000     9.825200     8.394700
      87    1      5   0.09695167    -4.159400    11.444500     9.873300
      88    1      5   0.09695167    -5.273300     9.983700    10.174500
      89    1      5   0.09695167    -3.449300     9.852100    10.527200
      90    1      5   0.09695167    -4.058000     8.688200     8.347300
      91    1      5   0.09695167    -4.772600    10.283100     7.703300
      92    1      2  -0.19425792    -6.007100    -8.009200     0.378100
      93    1      2  -0.19425792    -5.334600    -6.659600     0.061000
      94    1      5   0.09695167    -6.091300    -8.620000    -0.580700
      95    1      5   0.09695167    -5.378500    -8.582200     1.137100
      96    1      5   0.09695167    -6.000800    -6.083500    -0.662800
      97    1      5   0.09695167    -5.194600    -6.052100     1.015300
      98    1      2  -0.19425792    -3.980500    -6.919800    -0.626500
      99    1      2  -0.19425792    -3.347600    -5.596600    -1.096500
     100    1      5   0.09695167    -4.188600    -7.552300    -1.551800
     101    1      5   0.09695167    -3.268000    -7.482700     0.062600
     102    1      5   0.09695167    -4.131300    -5.041400    -1.710900
     103    1      5   0.09695167    -3.012300    -4.942100    -0.225500
     104    1      2  -0.19425792    -0.178300    -1.710400    -5.462900
     105    1      2  -0.19425792     0.613000    -3.008400    -5.709600
     106    1      5   0.09695167    -0.202700    -1.103700    -6.427700
     107    1      5   0.09695167    -1.244400    -2.008200    -5.189300
     108    1      5   0.09695167     1.677300    -2.755000    -6.028300
     109    1      5   0.09695167     0.625000    -3.622200    -4.749500
     110    1      2  -0.19425792    -0.069700    -3.837600    -6.814900
     111    1      2  -0.19425792     0.679500    -5.169200    -7.024800
     112    1      5   0.09695167    -0.069700    -3.240900    -7.786100
     113    1      5   0.09695167    -1.144400    -4.062100    -6.507800
     114    1      5   0.09695167     1.760200    -4.970400    -7.316200
     115    1      5   0.09695167     0.658100    -5.775700    -6.060000
     116    1      2  -0.19425792     4.155200    -4.172200    -5.807400
     117    1      2  -0.19425792     3.669000    -4.006100    -7.258100
     118    1      5   0.09695167     3.800200    -5.159800    -5.362100
     119    1      5   0.09695167     5.290700    -4.157200    -5.824800
     120    1      5   0.09695167     2.533100    -3.942000    -7.279800
     121    1      5   0.09695167     4.030600    -4.878600    -7.896700
     122    1      2  -0.19425792     0.026100     6.586200     6.857300
     123    1      2  -0.19425792     0.393600     8.077500     6.695100
     124    1      5   0.09695167     0.915400     6.069700     7.349000
     125    1      5   0.09695167    -0.898900     6.458200     7.511400
     126    1      5   0.09695167    -0.400700     8.621000     6.089900
     127    1      5   0.09695167     1.391500     8.175900     6.152900
     128    1      3  -0.12800454    -1.753000    -4.665100    -2.798000
     129    1      2  -0.19425792    -2.186100    -5.938100    -2.046500
     130    1      2  -0.19425792    -3.046200    -3.973300    -3.258900
     131    1      2  -0.19425792    -0.855000    -3.655500    -2.056400
     132    1      5   0.09695167    -1.167200    -4.984000    -3.722200
     133    1      5   0.09695167    -1.315000    -6.454800    -1.523000
     134    1      5   0.09695167    -2.624800    -6.643900    -2.827100
     135    1      5   0.09695167    -2.790900    -3.078100    -3.917200
     136    1      5   0.09695167    -3.642800    -3.626900    -2.351100
     137    1      5   0.09695167     0.176600    -4.127900    -1.946100
     138    1      5   0.09695167    -1.248700    -3.369900    -1.029200
     139    1      3  -0.12800454     3.994900    -2.772300    -3.564500
     140    1      2  -0.19425792     2.975100    -1.738400    -3.038200
     141    1      2  -0.19425792     3.537300    -3.000000    -5.019100
     142    1      2  -0.19425792     5.442300    -2.232900    -3.549100
     143    1      5   0.09695167     3.923000    -3.731200    -2.952100
     144    1      5   0.09695167     2.920800    -0.891500    -3.799600
     145    1      5   0.09695167     3.248800    -1.321900    -2.012900
     146    1      5   0.09695167     2.419000    -3.199300    -4.988900
     147    1      5   0.09695167     3.724800    -2.031700    -5.591000
     148    1      5   0.09695167     5.776900    -2.079800    -2.470100
     149    1      5   0.09695167     5.476200    -1.237200    -4.103000
     150    1      3  -0.12800454     7.851200    -2.727200    -4.276100
     151    1      2  -0.19425792     6.394400    -3.216400    -4.258000
     152    1      2  -0.19425792     8.355400    -2.586500    -2.826900
     153    1      2  -0.19425792     8.664100    -3.748500    -5.091200
     154    1      5   0.09695167     7.904900    -1.711600    -4.791800
     155    1      5   0.09695167     6.352100    -4.234500    -3.746500
     156    1      5   0.09695167     6.072600    -3.307200    -5.342800
     157    1      5   0.09695167     7.672100    -1.835500    -2.308900
     158    1      5   0.09695167     9.419300    -2.178000    -2.835900
     159    1      5   0.09695167     8.557900    -4.777500    -4.618800
     160    1      5   0.09695167     9.761800    -3.443600    -5.128400
     161    1      3  -0.12800454    -1.852400     4.262800     1.646200
     162    1      2  -0.19425792    -1.913300     2.871100     0.975600
     163    1      2  -0.19425792    -3.263400     4.836100     1.409800
     164    1      2  -0.19425792    -1.547200     4.418800     3.153100
     165    1      5   0.09695167    -1.104100     4.913400     1.084000
     166    1      5   0.09695167    -2.285900     3.085600    -0.078700
     167    1      5   0.09695167    -2.700200     2.243800     1.510700
     168    1      5   0.09695167    -3.416000     4.958200     0.286800
     169    1      5   0.09695167    -3.355200     5.857400     1.906300
     170    1      5   0.09695167    -2.291400     3.834300     3.783300
     171    1      5   0.09695167    -0.486400     4.082200     3.400300
     172    1      3  -0.12800454    -2.346100     9.830000     6.492000
     173    1      2  -0.19425792    -2.269500     8.292400     6.433900
     174    1      2  -0.19425792    -3.467400    10.293500     5.539300
     175    1      2  -0.19425792    -2.590500    10.277800     7.943500
     176    1      5   0.09695167    -1.343100    10.253000     6.152800
     177    1      5   0.09695167    -3.265500     7.824700     6.732600
     178    1      5   0.09695167    -1.471200     7.947200     7.166700
     179    1      5   0.09695167    -3.198700     9.925500     4.494300
     180    1      5   0.09695167    -4.451700     9.814700     5.858100
     181    1      5   0.09695167    -1.791300     9.824500     8.618800
     182    1      5   0.09695167    -2.517500    11.411600     8.005000
     183    1      4  -0.05453076     0.401700    -1.514700    -2.949400
     184    1      2  -0.19425792    -0.806800    -2.468400    -3.043900
     185    1      2  -0.19425792     0.364400    -0.813800    -4.324300
     186    1      2  -0.19425792     1.617600    -2.466800    -2.948900
     187    1      2  -0.19425792     0.545000    -0.282600    -2.006400
     188    1      5   0.09695167    -1.795600    -1.902200    -3.082200
     189    1      5   0.09695167    -0.666400    -2.994000    -4.044200
     190    1      5   0.09695167    -0.374000     0.050900    -4.238700
     191    1      5   0.09695167     1.396900    -0.396600    -4.567900
     192    1      5   0.09695167     1.514300    -3.119200    -3.875100
     193    1      5   0.09695167     1.616800    -3.141300    -2.029700
     194    1      5   0.09695167     1.655500    -0.048600    -2.115400
     195    1      5   0.09695167     0.004100     0.554900    -2.557900
     196    1      4  -0.05453076    -1.028500     0.878800    -0.163600
     197    1      2  -0.19425792     0.249500     0.059300    -0.518700
     198    1      2  -0.19425792    -2.172800     0.167300     0.595300
     199    1      2  -0.19425792    -1.538600     1.591400    -1.436900
     200    1      2  -0.19425792    -0.630000     2.027800     0.798100
     201    1      5   0.09695167     1.024300     0.883200    -0.375500
     202    1      5   0.09695167     0.526900    -0.751300     0.233100
     203    1      5   0.09695167    -1.717300    -0.436500     1.448100
     204    1      5   0.09695167    -2.858000     0.962500     1.037700
     205    1      5   0.09695167    -0.681900     2.211100    -1.862700
     206    1      5   0.09695167    -2.395400     2.286600    -1.154000
     207    1      5   0.09695167    -0.250200     1.639800     1.800500
     208    1      5   0.09695167     0.174400     2.660900     0.296100
     209    1      4  -0.05453076    -1.628600     6.360600     4.905300
     210    1      2  -0.19425792    -1.723500     5.931000     3.426300
     211    1      2  -0.19425792    -2.764000     5.696600     5.700200
     212    1      2  -0.19425792    -0.251800     5.955400     5.478300
     213    1      2  -0.19425792    -1.901200     7.875200     4.992700
     214    1      5   0.09695167    -2.761300     6.236600     3.068800
     215    1      5   0.09695167    -0.944100     6.500100     2.819500
     216    1      5   0.09695167    -2.700300     4.563000     5.597900
     217    1      5   0.09695167    -2.685800     5.993700     6.798200
     218    1      5   0.09695167    -0.247900     4.818500     5.561200
     219    1      5   0.09695167     0.583400     6.281400     4.774300
     220    1      5   0.09695167    -0.981300     8.436200     4.620500
     221    1      5   0.09695167    -2.797100     8.138000     4.338400

Bonds

       1      1        1        2
       2      2        1        3
       3      2        1        4
       4      2        1        5
       5      6        2        6
       6      6        2        7
       7      3        2       92
       8      1        8        9
       9      2        8       10
      10      2        8       11
      11      2        8       12
      12      6        9       13
      13      6        9       14
      14      3        9      130
      15      1       15       16
      16      2       15       17
      17      2       15       18
      18      2       15       19
      19      6       16       20
      20      6       16       21
      21      3       16      111
      22      1       22       23
      23      2       22       24
      24      2       22       25
      25      2       22       26
      26      6       23       27
      27      6       23       28
      28      3       23      117
      29      1       29       30
      30      2       29       31
      31      2       29       32
      32      2       29       33
      33      6       30       34
      34      6       30       35
      35      3       30      152
      36      1       36       37
      37      2       36       38
      38      2       36       39
      39      2       36       40
      40      6       37       41
      41      6       37       42
      42      3       37      153
      43      1       43       44
      44      2       43       45
      45      2       43       46
      46      2       43       47
      47      6       44       48
      48      6       44       49
      49      3       44      198
      50      1       50       51
      51      2       50       52
      52      2       50       53
      53      2       50       54
      54      6       51       55
      55      6       51       56
      56      3       51      199
      57      1       57       58
      58      2       57       59
      59      2       57       60
      60      2       57       61
      61      6       58       62
      62      6       58       63
      63      3       58      163
      64      1       64       65
      65      2       64       66
      66      2       64       67
      67      2       64       68
      68      6       65       69
      69      6       65       70
      70      3       65      211
      71      1       71       72
      72      2       71       73
      73      2       71       74
      74      2       71       75
      75      6       72       76
      76      6       72       77
      77      3       72      123
      78      1       78       79
      79      2       78       80
      80      2       78       81
      81      2       78       82
      82      6       79       83
      83      6       79       84
      84      3       79      174
      85      1       85       86
      86      2       85       87
      87      2       85       88
      88      2       85       89
      89      6       86       90
      90      6       86       91
      91      3       86      175
      92      3       92       93
      93      6       92       94
      94      6       92       95
      95      6       93       96
      96      6       93       97
      97      3       93       98
      98      3       98       99
      99      6       98      100
     100      6       98      101
     101      6       99      102
     102      6       99      103
     103      3       99      129
     104      3      104      105
     105      6      104      106
     106      6      104      107
     107      3      104      185
     108      6      105      108
     109      6      105      109
     110      3      105      110
     111      3      110      111
     112      6      110      112
     113      6      110      113
     114      6      111      114
     115      6      111      115
     116      3      116      117
     117      6      116      118
     118      6      116      119
     119      3      116      141
     120      6      117      120
     121      6      117      121
     122      3      122      123
     123      6      122      124
     124      6      122      125
     125      3      122      212
     126      6      123      126
     127      6      123      127
     128      4      128      129
     129      4      128      130
     130      4      128      131
     131      7      128      132
     132      6      129      133
     133      6      129      134
     134      6      130      135
     135      6      130      136
     136      6      131      137
     137      6      131      138
     138      3      131      184
     139      4      139      140
     140      4      139      141
     141      4      139      142
     142      7      139      143
     143      6      140      144
     144      6      140      145
     145      3      140      186
     146      6      141      146
     147      6      141      147
     148      6      142      148
     149      6      142      149
     150      3      142      151
     151      4      150      151
     152      4      150      152
     153      4      150      153
     154      7      150      154
     155      6      151      155
     156      6      151      156
     157      6      152      157
     158      6      152      158
     159      6      153      159
     160      6      153      160
     161      4      161      162
     162      4      161      163
     163      4      161      164
     164      7      161      165
     165      6      162      166
     166      6      162      167
     167      3      162      200
     168      6      163      168
     169      6      163      169
     170      6      164      170
     171      6      164      171
     172      3      164      210
     173      4      172      173
     174      4      172      174
     175      4      172      175
     176      7      172      176
     177      6      173      177
     178      6      173      178
     179      3      173      213
     180      6      174      179
     181      6      174      180
     182      6      175      181
     183      6      175      182
     184      5      183      184
     185      5      183      185
     186      5      183      186
     187      5      183      187
     188      6      184      188
     189      6      184      189
     190      6      185      190
     191      6      185      191
     192      6      186      192
     193      6      186      193
     194      6      187      194
     195      6      187      195
     196      3      187      197
     197      5      196      197
     198      5      196      198
     199      5      196      199
     200      5      196      200
     201      6      197      201
     202      6      197      202
     203      6      198      203
     204      6      198      204
     205      6      199      205
     206      6      199      206
     207      6      200      207
     208      6      200      208
     209      5      209      210
     210      5      209      211
     211      5      209      212
     212      5      209      213
     213      6      210      214
     214      6      210      215
     215      6      211      216
     216      6      211      217
     217      6      212      218
     218      6      212      219
     219      6      213      220
     220      6      213      221

Angles

       1      2        1        2        6
       2      2        1        2        7
       3      1        1        2       92
       4      3        2        1        3
       5      3        2        1        4
       6      3        2        1        5
       7      4        2       92       93
       8      7        2       92       94
       9      7        2       92       95
      10     13        3        1        4
      11     13        3        1        5
      12     13        4        1        5
      13     14        6        2        7
      14      7        6        2       92
      15      7        7        2       92
      16      2        8        9       13
      17      2        8        9       14
      18      1        8        9      130
      19      3        9        8       10
      20      3        9        8       11
      21      3        9        8       12
      22      5        9      130      128
      23      7        9      130      135
      24      7        9      130      136
      25     13       10        8       11
      26     13       10        8       12
      27     13       11        8       12
      28     14       13        9       14
      29      7       13        9      130
      30      7       14        9      130
      31      2       15       16       20
      32      2       15       16       21
      33      1       15       16      111
      34      3       16       15       17
      35      3       16       15       18
      36      3       16       15       19
      37      4       16      111      110
      38      7       16      111      114
      39      7       16      111      115
      40     13       17       15       18
      41     13       17       15       19
      42     13       18       15       19
      43     14       20       16       21
      44      7       20       16      111
      45      7       21       16      111
      46      2       22       23       27
      47      2       22       23       28
      48      1       22       23      117
      49      3       23       22       24
      50      3       23       22       25
      51      3       23       22       26
      52      4       23      117      116
      53      7       23      117      120
      54      7       23      117      121
      55     13       24       22       25
      56     13       24       22       26
      57     13       25       22       26
      58     14       27       23       28
      59      7       27       23      117
      60      7       28       23      117
      61      2       29       30       34
      62      2       29       30       35
      63      1       29       30      152
      64      3       30       29       31
      65      3       30       29       32
      66      3       30       29       33
      67      5       30      152      150
      68      7       30      152      157
      69      7       30      152      158
      70     13       31       29       32
      71     13       31       29       33
      72     13       32       29       33
      73     14       34       30       35
      74      7       34       30      152
      75      7       35       30      152
      76      2       36       37       41
      77      2       36       37       42
      78      1       36       37      153
      79      3       37       36       38
      80      3       37       36       39
      81      3       37       36       40
      82      5       37      153      150
      83      7       37      153      159
      84      7       37      153      160
      85     13       38       36       39
      86     13       38       36       40
      87     13       39       36       40
      88     14       41       37       42
      89      7       41       37      153
      90      7       42       37      153
      91      2       43       44       48
      92      2       43       44       49
      93      1       43       44      198
      94      3       44       43       45
      95      3       44       43       46
      96      3       44       43       47
      97      6       44      198      196
      98      7       44      198      203
      99      7       44      198      204
     100     13       45       43       46
     101     13       45       43       47
     102     13       46       43       47
     103     14       48       44       49
     104      7       48       44      198
     105      7       49       44      198
     106      2       50       51       55
     107      2       50       51       56
     108      1       50       51      199
     109      3       51       50       52
     110      3       51       50       53
     111      3       51       50       54
     112      6       51      199      196
     113      7       51      199      205
     114      7       51      199      206
     115     13       52       50       53
     116     13       52       50       54
     117     13       53       50       54
     118     14       55       51       56
     119      7       55       51      199
     120      7       56       51      199
     121      2       57       58       62
     122      2       57       58       63
     123      1       57       58      163
     124      3       58       57       59
     125      3       58       57       60
     126      3       58       57       61
     127      5       58      163      161
     128      7       58      163      168
     129      7       58      163      169
     130     13       59       57       60
     131     13       59       57       61
     132     13       60       57       61
     133     14       62       58       63
     134      7       62       58      163
     135      7       63       58      163
     136      2       64       65       69
     137      2       64       65       70
     138      1       64       65      211
     139      3       65       64       66
     140      3       65       64       67
     141      3       65       64       68
     142      6       65      211      209
     143      7       65      211      216
     144      7       65      211      217
     145     13       66       64       67
     146     13       66       64       68
     147     13       67       64       68
     148     14       69       65       70
     149      7       69       65      211
     150      7       70       65      211
     151      2       71       72       76
     152      2       71       72       77
     153      1       71       72      123
     154      3       72       71       73
     155      3       72       71       74
     156      3       72       71       75
     157      4       72      123      122
     158      7       72      123      126
     159      7       72      123      127
     160     13       73       71       74
     161     13       73       71       75
     162     13       74       71       75
     163     14       76       72       77
     164      7       76       72      123
     165      7       77       72      123
     166      2       78       79       83
     167      2       78       79       84
     168      1       78       79      174
     169      3       79       78       80
     170      3       79       78       81
     171      3       79       78       82
     172      5       79      174      172
     173      7       79      174      179
     174      7       79      174      180
     175     13       80       78       81
     176     13       80       78       82
     177     13       81       78       82
     178     14       83       79       84
     179      7       83       79      174
     180      7       84       79      174
     181      2       85       86       90
     182      2       85       86       91
     183      1       85       86      175
     184      3       86       85       87
     185      3       86       85       88
     186      3       86       85       89
     187      5       86      175      172
     188      7       86      175      181
     189      7       86      175      182
     190     13       87       85       88
     191     13       87       85       89
     192     13       88       85       89
     193     14       90       86       91
     194      7       90       86      175
     195      7       91       86      175
     196      7       92       93       96
     197      7       92       93       97
     198      4       92       93       98
     199      7       93       92       94
     200      7       93       92       95
     201      4       93       98       99
     202      7       93       98      100
     203      7       93       98      101
     204     14       94       92       95
     205     14       96       93       97
     206      7       96       93       98
     207      7       97       93       98
     208      7       98       99      102
     209      7       98       99      103
     210      4       98       99      129
     211      7       99       98      100
     212      7       99       98      101
     213      5       99      129      128
     214      7       99      129      133
     215      7       99      129      134
     216     14      100       98      101
     217     14      102       99      103
     218      7      102       99      129
     219      7      103       99      129
     220      7      104      105      108
     221      7      104      105      109
     222      4      104      105      110
     223      6      104      185      183
     224      7      104      185      190
     225      7      104      185      191
     226      7      105      104      106
     227      7      105      104      107
     228      4      105      104      185
     229      4      105      110      111
     230      7      105      110      112
     231      7      105      110      113
     232     14      106      104      107
     233      7      106      104      185
     234      7      107      104      185
     235     14      108      105      109
     236      7      108      105      110
     237      7      109      105      110
     238      7      110      111      114
     239      7      110      111      115
     240      7      111      110      112
     241      7      111      110      113
     242     14      112      110      113
     243     14      114      111      115
     244      7      116      117      120
     245      7      116      117      121
     246      5      116      141      139
     247      7      116      141      146
     248      7      116      141      147
     249      7      117      116      118
     250      7      117      116      119
     251      4      117      116      141
     252     14      118      116      119
     253      7      118      116      141
     254      7      119      116      141
     255     14      120      117      121
     256      7      122      123      126
     257      7      122      123      127
     258      6      122      212      209
     259      7      122      212      218
     260      7      122      212      219
     261      7      123      122      124
     262      7      123      122      125
     263      4      123      122      212
     264     14      124      122      125
     265      7      124      122      212
     266      7      125      122      212
     267     14      126      123      127
     268     11      128      129      133
     269     11      128      129      134
     270     11      128      130      135
     271     11      128      130      136
     272     11      128      131      137
     273     11      128      131      138
     274      5      128      131      184
     275      8      129      128      130
     276      8      129      128      131
     277      9      129      128      132
     278      8      130      128      131
     279      9      130      128      132
     280      9      131      128      132
     281      6      131      184      183
     282      7      131      184      188
     283      7      131      184      189
     284     14      133      129      134
     285     14      135      130      136
     286     14      137      131      138
     287      7      137      131      184
     288      7      138      131      184
     289     11      139      140      144
     290     11      139      140      145
     291      5      139      140      186
     292     11      139      141      146
     293     11      139      141      147
     294     11      139      142      148
     295     11      139      142      149
     296      5      139      142      151
     297      8      140      139      141
     298      8      140      139      142
     299      9      140      139      143
     300      6      140      186      183
     301      7      140      186      192
     302      7      140      186      193
     303      8      141      139      142
     304      9      141      139      143
     305      9      142      139      143
     306      5      142      151      150
     307      7      142      151      155
     308      7      142      151      156
     309     14      144      140      145
     310      7      144      140      186
     311      7      145      140      186
     312     14      146      141      147
     313     14      148      142      149
     314      7      148      142      151
     315      7      149      142      151
     316     11      150      151      155
     317     11      150      151      156
     318     11      150      152      157
     319     11      150      152      158
     320     11      150      153      159
     321     11      150      153      160
     322      8      151      150      152
     323      8      151      150      153
     324      9      151      150      154
     325      8      152      150      153
     326      9      152      150      154
     327      9      153      150      154
     328     14      155      151      156
     329     14      157      152      158
     330     14      159      153      160
     331     11      161      162      166
     332     11      161      162      167
     333      5      161      162      200
     334     11      161      163      168
     335     11      161      163      169
     336     11      161      164      170
     337     11      161      164      171
     338      5      161      164      210
     339      8      162      161      163
     340      8      162      161      164
     341      9      162      161      165
     342      6      162      200      196
     343      7      162      200      207
     344      7      162      200      208
     345      8      163      161      164
     346      9      163      161      165
     347      9      164      161      165
     348      6      164      210      209
     349      7      164      210      214
     350      7      164      210      215
     351     14      166      162      167
     352      7      166      162      200
     353      7      167      162      200
     354     14      168      163      169
     355     14      170      164      171
     356      7      170      164      210
     357      7      171      164      210
     358     11      172      173      177
     359     11      172      173      178
     360      5      172      173      213
     361     11      172      174      179
     362     11      172      174      180
     363     11      172      175      181
     364     11      172      175      182
     365      8      173      172      174
     366      8      173      172      175
     367      9      173      172      176
     368      6      173      213      209
     369      7      173      213      220
     370      7      173      213      221
     371      8      174      172      175
     372      9      174      172      176
     373      9      175      172      176
     374     14      177      173      178
     375      7      177      173      213
     376      7      178      173      213
     377     14      179      174      180
     378     14      181      175      182
     379     12      183      184      188
     380     12      183      184      189
     381     12      183      185      190
     382     12      183      185      191
     383     12      183      186      192
     384     12      183      186      193
     385     12      183      187      194
     386     12      183      187      195
     387      6      183      187      197
     388     10      184      183      185
     389     10      184      183      186
     390     10      184      183      187
     391     10      185      183      186
     392     10      185      183      187
     393     10      186      183      187
     394      6      187      197      196
     395      7      187      197      201
     396      7      187      197      202
     397     14      188      184      189
     398     14      190      185      191
     399     14      192      186      193
     400     14      194      187      195
     401      7      194      187      197
     402      7      195      187      197
     403     12      196      197      201
     404     12      196      197      202
     405     12      196      198      203
     406     12      196      198      204
     407     12      196      199      205
     408     12      196      199      206
     409     12      196      200      207
     410     12      196      200      208
     411     10      197      196      198
     412     10      197      196      199
     413     10      197      196      200
     414     10      198      196      199
     415     10      198      196      200
     416     10      199      196      200
     417     14      201      197      202
     418     14      203      198      204
     419     14      205      199      206
     420     14      207      200      208
     421     12      209      210      214
     422     12      209      210      215
     423     12      209      211      216
     424     12      209      211      217
     425     12      209      212      218
     426     12      209      212      219
     427     12      209      213      220
     428     12      209      213      221
     429     10      210      209      211
     430     10      210      209      212
     431     10      210      209      213
     432     10      211      209      212
     433     10      211      209      213
     434     10      212      209      213
     435     14      214      210      215
     436     14      216      211      217
     437     14      218      212      219
     438     14      220      213      221

Dihedrals

       1      1        1        2       92       93
       2      4        1        2       92       94
       3      4        1        2       92       95
       4      9        2       92       93       96
       5      9        2       92       93       97
       6      6        2       92       93       98
       7     20        3        1        2        6
       8     20        3        1        2        7
       9      5        3        1        2       92
      10     20        4        1        2        6
      11     20        4        1        2        7
      12      5        4        1        2       92
      13     20        5        1        2        6
      14     20        5        1        2        7
      15      5        5        1        2       92
      16      9        6        2       92       93
      17     21        6        2       92       94
      18     21        6        2       92       95
      19      9        7        2       92       93
      20     21        7        2       92       94
      21     21        7        2       92       95
      22      2        8        9      130      128
      23      4        8        9      130      135
      24      4        8        9      130      136
      25     10        9      130      128      129
      26     10        9      130      128      131
      27     11        9      130      128      132
      28     20       10        8        9       13
      29     20       10        8        9       14
      30      5       10        8        9      130
      31     20       11        8        9       13
      32     20       11        8        9       14
      33      5       11        8        9      130
      34     20       12        8        9       13
      35     20       12        8        9       14
      36      5       12        8        9      130
      37     17       13        9      130      128
      38     21       13        9      130      135
      39     21       13        9      130      136
      40     17       14        9      130      128
      41     21       14        9      130      135
      42     21       14        9      130      136
      43      1       15       16      111      110
      44      4       15       16      111      114
      45      4       15       16      111      115
      46      6       16      111      110      105
      47      9       16      111      110      112
      48      9       16      111      110      113
      49     20       17       15       16       20
      50     20       17       15       16       21
      51      5       17       15       16      111
      52     20       18       15       16       20
      53     20       18       15       16       21
      54      5       18       15       16      111
      55     20       19       15       16       20
      56     20       19       15       16       21
      57      5       19       15       16      111
      58      9       20       16      111      110
      59     21       20       16      111      114
      60     21       20       16      111      115
      61      9       21       16      111      110
      62     21       21       16      111      114
      63     21       21       16      111      115
      64      1       22       23      117      116
      65      4       22       23      117      120
      66      4       22       23      117      121
      67      9       23      117      116      118
      68      9       23      117      116      119
      69      6       23      117      116      141
      70     20       24       22       23       27
      71     20       24       22       23       28
      72      5       24       22       23      117
      73     20       25       22       23       27
      74     20       25       22       23       28
      75      5       25       22       23      117
      76     20       26       22       23       27
      77     20       26       22       23       28
      78      5       26       22       23      117
      79      9       27       23      117      116
      80     21       27       23      117      120
      81     21       27       23      117      121
      82      9       28       23      117      116
      83     21       28       23      117      120
      84     21       28       23      117      121
      85      2       29       30      152      150
      86      4       29       30      152      157
      87      4       29       30      152      158
      88     10       30      152      150      151
      89     10       30      152      150      153
      90     11       30      152      150      154
      91     20       31       29       30       34
      92     20       31       29       30       35
      93      5       31       29       30      152
      94     20       32       29       30       34
      95     20       32       29       30       35
      96      5       32       29       30      152
      97     20       33       29       30       34
      98     20       33       29       30       35
      99      5       33       29       30      152
     100     17       34       30      152      150
     101     21       34       30      152      157
     102     21       34       30      152      158
     103     17       35       30      152      150
     104     21       35       30      152      157
     105     21       35       30      152      158
     106      2       36       37      153      150
     107      4       36       37      153      159
     108      4       36       37      153      160
     109     10       37      153      150      151
     110     10       37      153      150      152
     111     11       37      153      150      154
     112     20       38       36       37       41
     113     20       38       36       37       42
     114      5       38       36       37      153
     115     20       39       36       37       41
     116     20       39       36       37       42
     117      5       39       36       37      153
     118     20       40       36       37       41
     119     20       40       36       37       42
     120      5       40       36       37      153
     121     17       41       37      153      150
     122     21       41       37      153      159
     123     21       41       37      153      160
     124     17       42       37      153      150
     125     21       42       37      153      159
     126     21       42       37      153      160
     127      3       43       44      198      196
     128      4       43       44      198      203
     129      4       43       44      198      204
     130     12       44      198      196      197
     131     12       44      198      196      199
     132     12       44      198      196      200
     133     20       45       43       44       48
     134     20       45       43       44       49
     135      5       45       43       44      198
     136     20       46       43       44       48
     137     20       46       43       44       49
     138      5       46       43       44      198
     139     20       47       43       44       48
     140     20       47       43       44       49
     141      5       47       43       44      198
     142     19       48       44      198      196
     143     21       48       44      198      203
     144     21       48       44      198      204
     145     19       49       44      198      196
     146     21       49       44      198      203
     147     21       49       44      198      204
     148      3       50       51      199      196
     149      4       50       51      199      205
     150      4       50       51      199      206
     151     12       51      199      196      197
     152     12       51      199      196      198
     153     12       51      199      196      200
     154     20       52       50       51       55
     155     20       52       50       51       56
     156      5       52       50       51      199
     157     20       53       50       51       55
     158     20       53       50       51       56
     159      5       53       50       51      199
     160     20       54       50       51       55
     161     20       54       50       51       56
     162      5       54       50       51      199
     163     19       55       51      199      196
     164     21       55       51      199      205
     165     21       55       51      199      206
     166     19       56       51      199      196
     167     21       56       51      199      205
     168     21       56       51      199      206
     169      2       57       58      163      161
     170      4       57       58      163      168
     171      4       57       58      163      169
     172     10       58      163      161      162
     173     10       58      163      161      164
     174     11       58      163      161      165
     175     20       59       57       58       62
     176     20       59       57       58       63
     177      5       59       57       58      163
     178     20       60       57       58       62
     179     20       60       57       58       63
     180      5       60       57       58      163
     181     20       61       57       58       62
     182     20       61       57       58       63
     183      5       61       57       58      163
     184     17       62       58      163      161
     185     21       62       58      163      168
     186     21       62       58      163      169
     187     17       63       58      163      161
     188     21       63       58      163      168
     189     21       63       58      163      169
     190      3       64       65      211      209
     191      4       64       65      211      216
     192      4       64       65      211      217
     193     12       65      211      209      210
     194     12       65      211      209      212
     195     12       65      211      209      213
     196     20       66       64       65       69
     197     20       66       64       65       70
     198      5       66       64       65      211
     199     20       67       64       65       69
     200     20       67       64       65       70
     201      5       67       64       65      211
     202     20       68       64       65       69
     203     20       68       64       65       70
     204      5       68       64       65      211
     205     19       69       65      211      209
     206     21       69       65      211      216
     207     21       69       65      211      217
     208     19       70       65      211      209
     209     21       70       65      211      216
     210     21       70       65      211      217
     211      1       71       72      123      122
     212      4       71       72      123      126
     213      4       71       72      123      127
     214      9       72      123      122      124
     215      9       72      123      122      125
     216      6       72      123      122      212
     217     20       73       71       72       76
     218     20       73       71       72       77
     219      5       73       71       72      123
     220     20       74       71       72       76
     221     20       74       71       72       77
     222      5       74       71       72      123
     223     20       75       71       72       76
     224     20       75       71       72       77
     225      5       75       71       72      123
     226      9       76       72      123      122
     227     21       76       72      123      126
     228     21       76       72      123      127
     229      9       77       72      123      122
     230     21       77       72      123      126
     231     21       77       72      123      127
     232      2       78       79      174      172
     233      4       78       79      174      179
     234      4       78       79      174      180
     235     10       79      174      172      173
     236     10       79      174      172      175
     237     11       79      174      172      176
     238     20       80       78       79       83
     239     20       80       78       79       84
     240      5       80       78       79      174
     241     20       81       78       79       83
     242     20       81       78       79       84
     243      5       81       78       79      174
     244     20       82       78       79       83
     245     20       82       78       79       84
     246      5       82       78       79      174
     247     17       83       79      174      172
     248     21       83       79      174      179
     249     21       83       79      174      180
     250     17       84       79      174      172
     251     21       84       79      174      179
     252     21       84       79      174      180
     253      2       85       86      175      172
     254      4       85       86      175      181
     255      4       85       86      175      182
     256     10       86      175      172      173
     257     10       86      175      172      174
     258     11       86      175      172      176
     259     20       87       85       86       90
     260     20       87       85       86       91
     261      5       87       85       86      175
     262     20       88       85       86       90
     263     20       88       85       86       91
     264      5       88       85       86      175
     265     20       89       85       86       90
     266     20       89       85       86       91
     267      5       89       85       86      175
     268     17       90       86      175      172
     269     21       90       86      175      181
     270     21       90       86      175      182
     271     17       91       86      175      172
     272     21       91       86      175      181
     273     21       91       86      175      182
     274      6       92       93       98       99
     275      9       92       93       98      100
     276      9       92       93       98      101
     277      9       93       98       99      102
     278      9       93       98       99      103
     279      6       93       98       99      129
     280     21       94       92       93       96
     281     21       94       92       93       97
     282      9       94       92       93       98
     283     21       95       92       93       96
     284     21       95       92       93       97
     285      9       95       92       93       98
     286      9       96       93       98       99
     287     21       96       93       98      100
     288     21       96       93       98      101
     289      9       97       93       98       99
     290     21       97       93       98      100
     291     21       97       93       98      101
     292      7       98       99      129      128
     293      9       98       99      129      133
     294      9       98       99      129      134
     295     10       99      129      128      130
     296     10       99      129      128      131
     297     11       99      129      128      132
     298     21      100       98       99      102
     299     21      100       98       99      103
     300      9      100       98       99      129
     301     21      101       98       99      102
     302     21      101       98       99      103
     303      9      101       98       99      129
     304     17      102       99      129      128
     305     21      102       99      129      133
     306     21      102       99      129      134
     307     17      103       99      129      128
     308     21      103       99      129      133
     309     21      103       99      129      134
     310      6      104      105      110      111
     311      9      104      105      110      112
     312      9      104      105      110      113
     313     12      104      185      183      184
     314     12      104      185      183      186
     315     12      104      185      183      187
     316      8      105      104      185      183
     317      9      105      104      185      190
     318      9      105      104      185      191
     319      9      105      110      111      114
     320      9      105      110      111      115
     321     21      106      104      105      108
     322     21      106      104      105      109
     323      9      106      104      105      110
     324     19      106      104      185      183
     325     21      106      104      185      190
     326     21      106      104      185      191
     327     21      107      104      105      108
     328     21      107      104      105      109
     329      9      107      104      105      110
     330     19      107      104      185      183
     331     21      107      104      185      190
     332     21      107      104      185      191
     333      9      108      105      104      185
     334      9      108      105      110      111
     335     21      108      105      110      112
     336     21      108      105      110      113
     337      9      109      105      104      185
     338      9      109      105      110      111
     339     21      109      105      110      112
     340     21      109      105      110      113
     341      6      110      105      104      185
     342     21      112      110      111      114
     343     21      112      110      111      115
     344     21      113      110      111      114
     345     21      113      110      111      115
     346     10      116      141      139      140
     347     10      116      141      139      142
     348     11      116      141      139      143
     349      7      117      116      141      139
     350      9      117      116      141      146
     351      9      117      116      141      147
     352     21      118      116      117      120
     353     21      118      116      117      121
     354     17      118      116      141      139
     355     21      118      116      141      146
     356     21      118      116      141      147
     357     21      119      116      117      120
     358     21      119      116      117      121
     359     17      119      116      141      139
     360     21      119      116      141      146
     361     21      119      116      141      147
     362      9      120      117      116      141
     363      9      121      117      116      141
     364     12      122      212      209      210
     365     12      122      212      209      211
     366     12      122      212      209      213
     367      8      123      122      212      209
     368      9      123      122      212      218
     369      9      123      122      212      219
     370     21      124      122      123      126
     371     21      124      122      123      127
     372     19      124      122      212      209
     373     21      124      122      212      218
     374     21      124      122      212      219
     375     21      125      122      123      126
     376     21      125      122      123      127
     377     19      125      122      212      209
     378     21      125      122      212      218
     379     21      125      122      212      219
     380      9      126      123      122      212
     381      9      127      123      122      212
     382     16      128      131      184      183
     383     17      128      131      184      188
     384     17      128      131      184      189
     385     13      129      128      130      135
     386     13      129      128      130      136
     387     13      129      128      131      137
     388     13      129      128      131      138
     389     10      129      128      131      184
     390     13      130      128      129      133
     391     13      130      128      129      134
     392     13      130      128      131      137
     393     13      130      128      131      138
     394     10      130      128      131      184
     395     13      131      128      129      133
     396     13      131      128      129      134
     397     13      131      128      130      135
     398     13      131      128      130      136
     399     12      131      184      183      185
     400     12      131      184      183      186
     401     12      131      184      183      187
     402     22      132      128      129      133
     403     22      132      128      129      134
     404     22      132      128      130      135
     405     22      132      128      130      136
     406     22      132      128      131      137
     407     22      132      128      131      138
     408     11      132      128      131      184
     409     19      137      131      184      183
     410     21      137      131      184      188
     411     21      137      131      184      189
     412     19      138      131      184      183
     413     21      138      131      184      188
     414     21      138      131      184      189
     415     16      139      140      186      183
     416     17      139      140      186      192
     417     17      139      140      186      193
     418     15      139      142      151      150
     419     17      139      142      151      155
     420     17      139      142      151      156
     421     13      140      139      141      146
     422     13      140      139      141      147
     423     13      140      139      142      148
     424     13      140      139      142      149
     425     10      140      139      142      151
     426     12      140      186      183      184
     427     12      140      186      183      185
     428     12      140      186      183      187
     429     13      141      139      140      144
     430     13      141      139      140      145
     431     10      141      139      140      186
     432     13      141      139      142      148
     433     13      141      139      142      149
     434     10      141      139      142      151
     435     13      142      139      140      144
     436     13      142      139      140      145
     437     10      142      139      140      186
     438     13      142      139      141      146
     439     13      142      139      141      147
     440     10      142      151      150      152
     441     10      142      151      150      153
     442     11      142      151      150      154
     443     22      143      139      140      144
     444     22      143      139      140      145
     445     11      143      139      140      186
     446     22      143      139      141      146
     447     22      143      139      141      147
     448     22      143      139      142      148
     449     22      143      139      142      149
     450     11      143      139      142      151
     451     19      144      140      186      183
     452     21      144      140      186      192
     453     21      144      140      186      193
     454     19      145      140      186      183
     455     21      145      140      186      192
     456     21      145      140      186      193
     457     17      148      142      151      150
     458     21      148      142      151      155
     459     21      148      142      151      156
     460     17      149      142      151      150
     461     21      149      142      151      155
     462     21      149      142      151      156
     463     13      151      150      152      157
     464     13      151      150      152      158
     465     13      151      150      153      159
     466     13      151      150      153      160
     467     13      152      150      151      155
     468     13      152      150      151      156
     469     13      152      150      153      159
     470     13      152      150      153      160
     471     13      153      150      151      155
     472     13      153      150      151      156
     473     13      153      150      152      157
     474     13      153      150      152      158
     475     22      154      150      151      155
     476     22      154      150      151      156
     477     22      154      150      152      157
     478     22      154      150      152      158
     479     22      154      150      153      159
     480     22      154      150      153      160
     481     16      161      162      200      196
     482     17      161      162      200      207
     483     17      161      162      200      208
     484     16      161      164      210      209
     485     17      161      164      210      214
     486     17      161      164      210      215
     487     13      162      161      163      168
     488     13      162      161      163      169
     489     13      162      161      164      170
     490     13      162      161      164      171
     491     10      162      161      164      210
     492     12      162      200      196      197
     493     12      162      200      196      198
     494     12      162      200      196      199
     495     13      163      161      162      166
     496     13      163      161      162      167
     497     10      163      161      162      200
     498     13      163      161      164      170
     499     13      163      161      164      171
     500     10      163      161      164      210
     501     13      164      161      162      166
     502     13      164      161      162      167
     503     10      164      161      162      200
     504     13      164      161      163      168
     505     13      164      161      163      169
     506     12      164      210      209      211
     507     12      164      210      209      212
     508     12      164      210      209      213
     509     22      165      161      162      166
     510     22      165      161      162      167
     511     11      165      161      162      200
     512     22      165      161      163      168
     513     22      165      161      163      169
     514     22      165      161      164      170
     515     22      165      161      164      171
     516     11      165      161      164      210
     517     19      166      162      200      196
     518     21      166      162      200      207
     519     21      166      162      200      208
     520     19      167      162      200      196
     521     21      167      162      200      207
     522     21      167      162      200      208
     523     19      170      164      210      209
     524     21      170      164      210      214
     525     21      170      164      210      215
     526     19      171      164      210      209
     527     21      171      164      210      214
     528     21      171      164      210      215
     529     16      172      173      213      209
     530     17      172      173      213      220
     531     17      172      173      213      221
     532     13      173      172      174      179
     533     13      173      172      174      180
     534     13      173      172      175      181
     535     13      173      172      175      182
     536     12      173      213      209      210
     537     12      173      213      209      211
     538     12      173      213      209      212
     539     13      174      172      173      177
     540     13      174      172      173      178
     541     10      174      172      173      213
     542     13      174      172      175      181
     543     13      174      172      175      182
     544     13      175      172      173      177
     545     13      175      172      173      178
     546     10      175      172      173      213
     547     13      175      172      174      179
     548     13      175      172      174      180
     549     22      176      172      173      177
     550     22      176      172      173      178
     551     11      176      172      173      213
     552     22      176      172      174      179
     553     22      176      172      174      180
     554     22      176      172      175      181
     555     22      176      172      175      182
     556     19      177      173      213      209
     557     21      177      173      213      220
     558     21      177      173      213      221
     559     19      178      173      213      209
     560     21      178      173      213      220
     561     21      178      173      213      221
     562     18      183      187      197      196
     563     19      183      187      197      201
     564     19      183      187      197      202
     565     14      184      183      185      190
     566     14      184      183      185      191
     567     14      184      183      186      192
     568     14      184      183      186      193
     569     14      184      183      187      194
     570     14      184      183      187      195
     571     12      184      183      187      197
     572     14      185      183      184      188
     573     14      185      183      184      189
     574     14      185      183      186      192
     575     14      185      183      186      193
     576     14      185      183      187      194
     577     14      185      183      187      195
     578     12      185      183      187      197
     579     14      186      183      184      188
     580     14      186      183      184      189
     581     14      186      183      185      190
     582     14      186      183      185      191
     583     14      186      183      187      194
     584     14      186      183      187      195
     585     12      186      183      187      197
     586     14      187      183      184      188
     587     14      187      183      184      189
     588     14      187      183      185      190
     589     14      187      183      185      191
     590     14      187      183      186      192
     591     14      187      183      186      193
     592     12      187      197      196      198
     593     12      187      197      196      199
     594     12      187      197      196      200
     595     19      194      187      197      196
     596     21      194      187      197      201
     597     21      194      187      197      202
     598     19      195      187      197      196
     599     21      195      187      197      201
     600     21      195      187      197      202
     601     14      197      196      198      203
     602     14      197      196      198      204
     603     14      197      196      199      205
     604     14      197      196      199      206
     605     14      197      196      200      207
     606     14      197      196      200      208
     607     14      198      196      197      201
     608     14      198      196      197      202
     609     14      198      196      199      205
     610     14      198      196      199      206
     611     14      198      196      200      207
     612     14      198      196      200      208
     613     14      199      196      197      201
     614     14      199      196      197      202
     615     14      199      196      198      203
     616     14      199      196      198      204
     617     14      199      196      200      207
     618     14      199      196      200      208
     619     14      200      196      197      201
     620     14      200      196      197      202
     621     14      200      196      198      203
     622     14      200      196      198      204
     623     14      200      196      199      205
     624     14      200      196      199      206
     625     14      210      209      211      216
     626     14      210      209      211      217
     627     14      210      209      212      218
     628     14      210      209      212      219
     629     14      210      209      213      220
     630     14      210      209      213      221
     631     14      211      209      210      214
     632     14      211      209      210      215
     633     14      211      209      212      218
     634     14      211      209      212      219
     635     14      211      209      213      220
     636     14      211      209      213      221
     637     14      212      209      210      214
     638     14      212      209      210      215
     639     14      212      209      211      216
     640     14      212      209      211      217
     641     14      212      209      213      220
     642     14      212      209      213      221
     643     14      213      209      210      214
     644     14      213      209      210      215
     645     14      213      209      211      216
     646     14      213      209      211      217
     647     14      213      209      212      218
     648     14      213      209      212      219

Impropers


