LAMMPS data file generated by clean-room 1-hop pipeline

     180 atoms
     195 bonds
     330 angles
     507 dihedrals
      90 impropers

       7 atom types
      11 bond types
      20 angle types
      29 dihedral types
       4 improper types

  -29.478900    30.412100 xlo xhi
  -35.176400    31.254100 ylo yhi
  -34.653600    30.198500 zlo zhi

Masses

       1    12.011000
       2    12.011000
       3    12.011000
       4    12.011000
       5    12.011000
       6     1.008000
       7     1.008000

Pair Coeffs

       1     0.070000     3.550000
       2     0.070000     3.550000
       3     0.070000     3.550000
       4     0.066000     3.500000
       5     0.066000     3.500000
       6     0.030000     2.420000
       7     0.030000     2.500000

Bond Coeffs

       1   469.000000     1.400000
       2   317.000000     1.510000
       3   469.000000     1.400000
       4   469.000000     1.400000
       5   367.000000     1.080000
       6   385.000000     1.460000
       7   268.000000     1.529000
       8   268.000000     1.529000
       9   340.000000     1.090000
      10   268.000000     1.529000
      11   340.000000     1.090000

Angle Coeffs

       1    63.000000   120.000000
       2    35.000000   120.000000
       3    63.000000   114.000000
       4    63.000000   114.000000
       5    35.000000   109.500000
       6    63.000000   120.000000
       7    70.000000   120.000000
       8    63.000000   120.000000
       9    35.000000   120.000000
      10    63.000000   120.000000
      11    63.000000   120.000000
      12    35.000000   120.000000
      13    37.500000   110.700000
      14    58.350000   112.700000
      15    37.500000   110.700000
      16    37.500000   110.700000
      17    58.350000   112.700000
      18    37.500000   110.700000
      19    33.000000   107.800000
      20    33.000000   107.800000

Dihedral Coeffs

       1     0.000000     7.250000     0.000000     0.000000
       2     0.000000     7.250000     0.000000     0.000000
       3     0.000000     0.000000     0.000000     0.000000
       4     0.000000     0.000000     0.462000     0.000000
       5     0.000000     0.000000     0.000000     0.000000
       6     0.000000     0.000000     0.462000     0.000000
       7     0.000000     7.250000     0.000000     0.000000
       8     0.000000     7.250000     0.000000     0.000000
       9    -0.250000     0.000000     0.000000     0.000000
      10    -0.250000     0.000000     0.000000     0.000000
      11     0.000000     0.000000     0.000000     0.000000
      12     0.000000     7.250000     0.000000     0.000000
      13     0.000000     7.250000     0.000000     0.000000
      14     0.000000     7.250000     0.000000     0.000000
      15     0.000000     7.250000     0.000000     0.000000
      16     0.000000     1.650000     0.000000    -0.050000
      17     0.000000     7.250000     0.000000     0.000000
      18     0.000000     7.250000     0.000000     0.000000
      19     0.000000     7.250000     0.000000     0.000000
      20     0.000000     7.250000     0.000000     0.000000
      21     0.850000    -0.200000     0.200000     0.000000
      22     0.000000     0.000000     0.300000     0.000000
      23     0.000000     0.000000     0.300000     0.000000
      24     0.850000    -0.200000     0.200000     0.000000
      25     0.000000     0.000000     0.300000     0.000000
      26     0.000000     7.250000     0.000000     0.000000
      27     0.000000     0.000000     0.300000     0.000000
      28     0.000000     0.000000     0.300000     0.000000
      29     0.000000     0.000000     0.300000     0.000000

Improper Coeffs

       1     2.500000   -1    2
       2     2.500000   -1    2
       3     2.500000   -1    2
       4     2.500000   -1    2

Atoms

       1    1      5  -0.18960192    -7.232900     0.996000     9.206600
       2    1      5  -0.18960192    -6.507100     1.955400     8.246000
       3    1      7   0.10160767    -8.197800     0.619900     8.729800
       4    1      7   0.10160767    -7.461500     1.512500    10.198500
       5    1      7   0.10160767    -6.217600     1.366000     7.316300
       6    1      7   0.10160767    -5.558300     2.335400     8.750400
       7    1      5  -0.18960192    -6.260800    -0.183800     9.397000
       8    1      4  -0.14120450    -6.021000    -0.754900     7.986200
       9    1      7   0.10160767    -6.702100    -0.979500    10.084600
      10    1      7   0.10160767    -5.281500     0.203800     9.828600
      11    1      7   0.10160767    -7.002400    -1.168100     7.576000
      12    1      7   0.10160767    -5.673000     0.096100     7.314400
      13    1      4  -0.14120450     7.094600   -14.258600     1.524800
      14    1      4  -0.14120450     8.578400   -13.840700     1.581800
      15    1      7   0.10160767     6.826100   -14.538100     0.450300
      16    1      7   0.10160767     6.961000   -15.176400     2.186500
      17    1      7   0.10160767     8.843400   -13.504500     2.638900
      18    1      7   0.10160767     9.212700   -14.744700     1.308300
      19    1      4  -0.14120450     6.620800     4.721800   -13.853500
      20    1      4  -0.14120450     6.614000     6.114100   -13.196100
      21    1      7   0.10160767     7.433000     4.713600   -14.653600
      22    1      7   0.10160767     5.612300     4.531100   -14.348500
      23    1      7   0.10160767     6.546000     6.891000   -14.030200
      24    1      7   0.10160767     7.587200     6.271600   -12.626200
      25    1      5  -0.18960192    -7.345700     3.154400     7.767300
      26    1      4  -0.14120450    -6.405000     3.881000     6.790000
      27    1      7   0.10160767    -8.268700     2.774700     7.213600
      28    1      7   0.10160767    -7.653500     3.833000     8.628600
      29    1      7   0.10160767    -5.500300     4.276900     7.360900
      30    1      7   0.10160767    -6.045100     3.108800     6.033700
      31    1      1  -0.08872742    -4.935300    -1.845500     7.926400
      32    1      2  -0.14871506    -5.333500    -3.330400     7.824300
      33    1      2  -0.14871506    -4.261100    -4.394600     7.522500
      34    1      3  -0.04045242    -2.794300    -3.973400     7.314600
      35    1      2  -0.14871506    -2.384700    -2.501000     7.495900
      36    1      2  -0.14871506    -3.456400    -1.436500     7.795500
      37    1      6   0.16666012    -6.424700    -3.636500     7.941300
      38    1      6   0.16666012    -4.558200    -5.493200     7.425700
      39    1      6   0.16666012    -1.291800    -2.194700     7.379600
      40    1      6   0.16666012    -3.157900    -0.340300     7.890500
      41    1      3  -0.04045242    -1.748200    -5.014600     6.874300
      42    1      2  -0.14871506    -2.174700    -6.472500     6.629500
      43    1      2  -0.14871506    -1.155400    -7.492400     6.088900
      44    1      3  -0.04045242     0.292900    -7.056000     5.798400
      45    1      2  -0.14871506     0.734200    -5.610100     6.093100
      46    1      2  -0.14871506    -0.287000    -4.588300     6.631500
      47    1      6   0.16666012    -3.250300    -6.794000     6.831000
      48    1      6   0.16666012    -1.475500    -8.569600     5.891000
      49    1      6   0.16666012     1.811000    -5.291900     5.900500
      50    1      6   0.16666012     0.032500    -3.514100     6.834800
      51    1      3  -0.04045242     1.286400    -8.067000     5.193200
      52    1      2  -0.14871506     0.816800    -9.499400     4.879000
      53    1      2  -0.14871506     1.789500   -10.506500     4.239400
      54    1      3  -0.04045242     3.234400   -10.086100     3.915200
      55    1      2  -0.14871506     3.710200    -8.656600     4.240600
      56    1      2  -0.14871506     2.735700    -7.646300     4.881300
      57    1      6   0.16666012    -0.253700    -9.810000     5.114700
      58    1      6   0.16666012     1.438400   -11.566000     4.003200
      59    1      6   0.16666012     4.782200    -8.345900     4.006100
      60    1      6   0.16666012     3.085600    -6.591000     5.117400
      61    1      3  -0.04045242     4.196900   -11.103500     3.271200
      62    1      2  -0.14871506     3.701800   -12.528400     2.965900
      63    1      2  -0.14871506     4.662400   -13.565300     2.355000
      64    1      1  -0.08872742     6.120500   -13.179400     2.041900
      65    1      2  -0.14871506     6.612500   -11.747600     2.332000
      66    1      2  -0.14871506     5.648700   -10.708200     2.940100
      67    1      6   0.16666012     2.624000   -12.819200     3.200000
      68    1      6   0.16666012     4.296900   -14.623900     2.143900
      69    1      6   0.16666012     7.691500   -11.461800     2.110200
      70    1      6   0.16666012     6.013700    -9.647500     3.154500
      71    1      1  -0.08872742     8.898300   -12.724200     0.568800
      72    1      2  -0.14871506     8.742900   -12.991200    -0.940600
      73    1      2  -0.14871506     9.057400   -11.876700    -1.957500
      74    1      3  -0.04045242     9.515000   -10.491500    -1.463500
      75    1      2  -0.14871506     9.724500   -10.243100     0.041700
      76    1      2  -0.14871506     9.420800   -11.360700     1.057700
      77    1      6   0.16666012     8.390000   -14.010800    -1.304200
      78    1      6   0.16666012     8.932600   -12.070600    -3.071500
      79    1      6   0.16666012    10.090900    -9.225300     0.405900
      80    1      6   0.16666012     9.569100   -11.174300     2.170900
      81    1      3  -0.04045242     9.716300    -9.340900    -2.469100
      82    1      2  -0.14871506     9.503500    -9.584800    -3.974400
      83    1      2  -0.14871506     9.590200    -8.407700    -4.966000
      84    1      3  -0.04045242     9.881900    -6.985000    -4.449900
      85    1      2  -0.14871506    10.164900    -6.754600    -2.953500
      86    1      2  -0.14871506    10.084300    -7.933200    -1.963800
      87    1      6   0.16666012     9.262500   -10.633600    -4.354200
      88    1      6   0.16666012     9.415000    -8.584200    -6.076500
      89    1      6   0.16666012    10.412100    -5.707900    -2.575700
      90    1      6   0.16666012    10.274000    -7.759100    -0.852300
      91    1      3  -0.04045242     9.830600    -5.789000    -5.421900
      92    1      2  -0.14871506     9.487300    -6.022200    -6.904300
      93    1      2  -0.14871506     9.272000    -4.820600    -7.843000
      94    1      3  -0.04045242     9.400600    -3.384700    -7.301400
      95    1      2  -0.14871506     9.843900    -3.151600    -5.844400
      96    1      2  -0.14871506    10.061200    -4.355200    -4.904300
      97    1      6   0.16666012     9.363900    -7.085000    -7.300500
      98    1      6   0.16666012     8.990600    -4.993700    -8.935400
      99    1      6   0.16666012     9.988000    -2.088600    -5.454300
     100    1      6   0.16666012    10.365300    -4.184100    -3.818200
     101    1      3  -0.04045242     9.042800    -2.194700    -8.214700
     102    1      2  -0.14871506     8.570900    -2.463800    -9.654800
     103    1      2  -0.14871506     8.150900    -1.292200   -10.561100
     104    1      3  -0.04045242     8.204500     0.152200   -10.032400
     105    1      2  -0.14871506     8.690800     0.426900    -8.595300
     106    1      2  -0.14871506     9.113300    -0.747500    -7.687100
     107    1      6   0.16666012     8.523500    -3.533600   -10.046900
     108    1      6   0.16666012     7.795700    -1.495900   -11.623900
     109    1      6   0.16666012     8.734400     1.497300    -8.203400
     110    1      6   0.16666012     9.467800    -0.546400    -6.622500
     111    1      3  -0.04045242     7.769100     1.308500   -10.955100
     112    1      2  -0.14871506     7.301000     0.989800   -12.386400
     113    1      2  -0.14871506     6.889800     2.127800   -13.336400
     114    1      1  -0.08872742     6.953100     3.590000   -12.861800
     115    1      2  -0.14871506     7.382300     3.911700   -11.416700
     116    1      2  -0.14871506     7.798900     2.770000   -10.464200
     117    1      6   0.16666012     7.266800    -0.093100   -12.744900
     118    1      6   0.16666012     6.551400     1.887900   -14.398300
     119    1      6   0.16666012     7.405900     4.993300   -11.056700
     120    1      6   0.16666012     8.133000     3.007200    -9.401400
     121    1      1  -0.08872742     5.404500     6.348500   -12.269000
     122    1      2  -0.14871506     4.129500     5.491100   -12.406400
     123    1      2  -0.14871506     2.873100     5.842900   -11.581900
     124    1      3  -0.04045242     2.903800     7.037600   -10.609400
     125    1      2  -0.14871506     4.215200     7.810700   -10.385400
     126    1      2  -0.14871506     5.467200     7.461300   -11.208400
     127    1      6   0.16666012     4.106700     4.618200   -13.136700
     128    1      6   0.16666012     1.917500     5.230700   -11.704500
     129    1      6   0.16666012     4.254100     8.655500    -9.620300
     130    1      6   0.16666012     6.434600     8.046800   -11.052400
     131    1      3  -0.04045242     1.633800     7.480400    -9.859100
     132    1      2  -0.14871506     0.295000     6.741800   -10.058000
     133    1      2  -0.14871506    -0.958700     7.200600    -9.282500
     134    1      3  -0.04045242    -0.864800     8.391000    -8.306900
     135    1      2  -0.14871506     0.462300     9.151100    -8.146500
     136    1      2  -0.14871506     1.711500     8.691900    -8.914800
     137    1      6   0.16666012     0.232900     5.856400   -10.772300
     138    1      6   0.16666012    -1.947500     6.650100    -9.417600
     139    1      6   0.16666012     0.524000    10.044400    -7.440300
     140    1      6   0.16666012     2.698400     9.247000    -8.782100
     141    1      3  -0.04045242    -2.063900     8.797600    -7.430700
     142    1      2  -0.14871506    -3.392800     8.020600    -7.496700
     143    1      2  -0.14871506    -4.508200     8.322500    -6.473500
     144    1      3  -0.04045242    -4.283400     9.394000    -5.388300
     145    1      2  -0.14871506    -3.008500    10.253400    -5.408800
     146    1      2  -0.14871506    -1.898300     9.954900    -6.429800
     147    1      6   0.16666012    -3.538000     7.202800    -8.275400
     148    1      6   0.16666012    -5.478500     7.725800    -6.494400
     149    1      6   0.16666012    -2.869000    11.083900    -4.640500
     150    1      6   0.16666012    -0.937300    10.566200    -6.421500
     151    1      3  -0.04045242    -5.268300     9.543300    -4.214800
     152    1      2  -0.14871506    -6.513800     8.643400    -4.117100
     153    1      2  -0.14871506    -7.322700     8.599600    -2.805700
     154    1      3  -0.04045242    -6.866100     9.440000    -1.598100
     155    1      2  -0.14871506    -5.735500    10.470900    -1.761900
     156    1      2  -0.14871506    -4.938800    10.525900    -3.076300
     157    1      6   0.16666012    -6.807600     7.974800    -4.992400
     158    1      6   0.16666012    -8.216200     7.898600    -2.708600
     159    1      6   0.16666012    -5.452700    11.150000    -0.892800
     160    1      6   0.16666012    -4.066200    11.254100    -3.186500
     161    1      3  -0.04045242    -7.422800     9.136600    -0.196700
     162    1      2  -0.14871506    -8.490400     8.043000    -0.013000
     163    1      2  -0.14871506    -8.739400     7.452500     1.386400
     164    1      3  -0.04045242    -7.906100     7.950600     2.581200
     165    1      2  -0.14871506    -7.028300     9.206600     2.434100
     166    1      2  -0.14871506    -6.791100     9.807700     1.036700
     167    1      6   0.16666012    -9.042000     7.624400    -0.918500
     168    1      6   0.16666012    -9.478900     6.596400     1.522500
     169    1      6   0.16666012    -6.497500     9.644900     3.344500
     170    1      6   0.16666012    -6.088400    10.695500     0.908200
     171    1      3  -0.04045242    -7.813400     7.093300     3.854500
     172    1      2  -0.14871506    -8.575000     5.757800     3.929600
     173    1      2  -0.14871506    -8.185500     4.716800     4.994500
     174    1      1  -0.08872742    -7.045200     5.023700     5.981700
     175    1      2  -0.14871506    -6.439200     6.438900     6.039300
     176    1      2  -0.14871506    -6.827000     7.478900     4.971900
     177    1      6   0.16666012    -9.375700     5.512800     3.156600
     178    1      6   0.16666012    -8.699400     3.698100     5.012100
     179    1      6   0.16666012    -5.660600     6.694100     6.828600
     180    1      6   0.16666012    -6.333000     8.506800     4.968100

Bonds

       1     10        1        2
       2     11        1        3
       3     11        1        4
       4     10        1        7
       5     11        2        5
       6     11        2        6
       7     10        2       25
       8      8        7        8
       9     11        7        9
      10     11        7       10
      11      9        8       11
      12      9        8       12
      13      2        8       31
      14      7       13       14
      15      9       13       15
      16      9       13       16
      17      2       13       64
      18      9       14       17
      19      9       14       18
      20      2       14       71
      21      7       19       20
      22      9       19       21
      23      9       19       22
      24      2       19      114
      25      9       20       23
      26      9       20       24
      27      2       20      121
      28      8       25       26
      29     11       25       27
      30     11       25       28
      31      9       26       29
      32      9       26       30
      33      2       26      174
      34      1       31       32
      35      3       32       33
      36      5       32       37
      37      4       33       34
      38      5       33       38
      39      4       34       35
      40      6       34       41
      41      3       35       36
      42      5       35       39
      43      1       36       31
      44      5       36       40
      45      4       41       42
      46      3       42       43
      47      5       42       47
      48      4       43       44
      49      5       43       48
      50      4       44       45
      51      6       44       51
      52      3       45       46
      53      5       45       49
      54      4       46       41
      55      5       46       50
      56      4       51       52
      57      3       52       53
      58      5       52       57
      59      4       53       54
      60      5       53       58
      61      4       54       55
      62      6       54       61
      63      3       55       56
      64      5       55       59
      65      4       56       51
      66      5       56       60
      67      4       61       62
      68      3       62       63
      69      5       62       67
      70      1       63       64
      71      5       63       68
      72      1       64       65
      73      3       65       66
      74      5       65       69
      75      4       66       61
      76      5       66       70
      77      1       71       72
      78      3       72       73
      79      5       72       77
      80      4       73       74
      81      5       73       78
      82      4       74       75
      83      6       74       81
      84      3       75       76
      85      5       75       79
      86      1       76       71
      87      5       76       80
      88      4       81       82
      89      3       82       83
      90      5       82       87
      91      4       83       84
      92      5       83       88
      93      4       84       85
      94      6       84       91
      95      3       85       86
      96      5       85       89
      97      4       86       81
      98      5       86       90
      99      4       91       92
     100      3       92       93
     101      5       92       97
     102      4       93       94
     103      5       93       98
     104      4       94       95
     105      6       94      101
     106      3       95       96
     107      5       95       99
     108      4       96       91
     109      5       96      100
     110      4      101      102
     111      3      102      103
     112      5      102      107
     113      4      103      104
     114      5      103      108
     115      4      104      105
     116      6      104      111
     117      3      105      106
     118      5      105      109
     119      4      106      101
     120      5      106      110
     121      4      111      112
     122      3      112      113
     123      5      112      117
     124      1      113      114
     125      5      113      118
     126      1      114      115
     127      3      115      116
     128      5      115      119
     129      4      116      111
     130      5      116      120
     131      1      121      122
     132      3      122      123
     133      5      122      127
     134      4      123      124
     135      5      123      128
     136      4      124      125
     137      6      124      131
     138      3      125      126
     139      5      125      129
     140      1      126      121
     141      5      126      130
     142      4      131      132
     143      3      132      133
     144      5      132      137
     145      4      133      134
     146      5      133      138
     147      4      134      135
     148      6      134      141
     149      3      135      136
     150      5      135      139
     151      4      136      131
     152      5      136      140
     153      4      141      142
     154      3      142      143
     155      5      142      147
     156      4      143      144
     157      5      143      148
     158      4      144      145
     159      6      144      151
     160      3      145      146
     161      5      145      149
     162      4      146      141
     163      5      146      150
     164      4      151      152
     165      3      152      153
     166      5      152      157
     167      4      153      154
     168      5      153      158
     169      4      154      155
     170      6      154      161
     171      3      155      156
     172      5      155      159
     173      4      156      151
     174      5      156      160
     175      4      161      162
     176      3      162      163
     177      5      162      167
     178      4      163      164
     179      5      163      168
     180      4      164      165
     181      6      164      171
     182      3      165      166
     183      5      165      169
     184      4      166      161
     185      5      166      170
     186      4      171      172
     187      3      172      173
     188      5      172      177
     189      1      173      174
     190      5      173      178
     191      1      174      175
     192      3      175      176
     193      5      175      179
     194      4      176      171
     195      5      176      180

Angles

       1     18        1        2        5
       2     18        1        2        6
       3     17        1        2       25
       4     14        1        7        8
       5     18        1        7        9
       6     18        1        7       10
       7     18        2        1        3
       8     18        2        1        4
       9     17        2        1        7
      10     14        2       25       26
      11     18        2       25       27
      12     18        2       25       28
      13     20        3        1        4
      14     18        3        1        7
      15     18        4        1        7
      16     20        5        2        6
      17     18        5        2       25
      18     18        6        2       25
      19     16        7        8       11
      20     16        7        8       12
      21      4        7        8       31
      22     15        8        7        9
      23     15        8        7       10
      24      7        8       31       32
      25      7        8       31       36
      26     20        9        7       10
      27     19       11        8       12
      28      5       11        8       31
      29      5       12        8       31
      30     13       13       14       17
      31     13       13       14       18
      32      3       13       14       71
      33      7       13       64       63
      34      7       13       64       65
      35     13       14       13       15
      36     13       14       13       16
      37      3       14       13       64
      38      7       14       71       72
      39      7       14       71       76
      40     19       15       13       16
      41      5       15       13       64
      42      5       16       13       64
      43     19       17       14       18
      44      5       17       14       71
      45      5       18       14       71
      46     13       19       20       23
      47     13       19       20       24
      48      3       19       20      121
      49      7       19      114      113
      50      7       19      114      115
      51     13       20       19       21
      52     13       20       19       22
      53      3       20       19      114
      54      7       20      121      122
      55      7       20      121      126
      56     19       21       19       22
      57      5       21       19      114
      58      5       22       19      114
      59     19       23       20       24
      60      5       23       20      121
      61      5       24       20      121
      62     16       25       26       29
      63     16       25       26       30
      64      4       25       26      174
      65     15       26       25       27
      66     15       26       25       28
      67      7       26      174      173
      68      7       26      174      175
      69     20       27       25       28
      70     19       29       26       30
      71      5       29       26      174
      72      5       30       26      174
      73      1       31       32       33
      74      2       31       32       37
      75      1       31       36       35
      76      2       31       36       40
      77      6       32       31       36
      78      8       32       33       34
      79      9       32       33       38
      80      9       33       32       37
      81     10       33       34       35
      82     11       33       34       41
      83     12       34       33       38
      84      8       34       35       36
      85     12       34       35       39
      86     11       34       41       42
      87     11       34       41       46
      88     11       35       34       41
      89      9       35       36       40
      90      9       36       35       39
      91      8       41       42       43
      92     12       41       42       47
      93      8       41       46       45
      94     12       41       46       50
      95     10       42       41       46
      96      8       42       43       44
      97      9       42       43       48
      98      9       43       42       47
      99     10       43       44       45
     100     11       43       44       51
     101     12       44       43       48
     102      8       44       45       46
     103     12       44       45       49
     104     11       44       51       52
     105     11       44       51       56
     106     11       45       44       51
     107      9       45       46       50
     108      9       46       45       49
     109      8       51       52       53
     110     12       51       52       57
     111      8       51       56       55
     112     12       51       56       60
     113     10       52       51       56
     114      8       52       53       54
     115      9       52       53       58
     116      9       53       52       57
     117     10       53       54       55
     118     11       53       54       61
     119     12       54       53       58
     120      8       54       55       56
     121     12       54       55       59
     122     11       54       61       62
     123     11       54       61       66
     124     11       55       54       61
     125      9       55       56       60
     126      9       56       55       59
     127      8       61       62       63
     128     12       61       62       67
     129      8       61       66       65
     130     12       61       66       70
     131     10       62       61       66
     132      1       62       63       64
     133      9       62       63       68
     134      9       63       62       67
     135      6       63       64       65
     136      2       64       63       68
     137      1       64       65       66
     138      2       64       65       69
     139      9       65       66       70
     140      9       66       65       69
     141      1       71       72       73
     142      2       71       72       77
     143      1       71       76       75
     144      2       71       76       80
     145      6       72       71       76
     146      8       72       73       74
     147      9       72       73       78
     148      9       73       72       77
     149     10       73       74       75
     150     11       73       74       81
     151     12       74       73       78
     152      8       74       75       76
     153     12       74       75       79
     154     11       74       81       82
     155     11       74       81       86
     156     11       75       74       81
     157      9       75       76       80
     158      9       76       75       79
     159      8       81       82       83
     160     12       81       82       87
     161      8       81       86       85
     162     12       81       86       90
     163     10       82       81       86
     164      8       82       83       84
     165      9       82       83       88
     166      9       83       82       87
     167     10       83       84       85
     168     11       83       84       91
     169     12       84       83       88
     170      8       84       85       86
     171     12       84       85       89
     172     11       84       91       92
     173     11       84       91       96
     174     11       85       84       91
     175      9       85       86       90
     176      9       86       85       89
     177      8       91       92       93
     178     12       91       92       97
     179      8       91       96       95
     180     12       91       96      100
     181     10       92       91       96
     182      8       92       93       94
     183      9       92       93       98
     184      9       93       92       97
     185     10       93       94       95
     186     11       93       94      101
     187     12       94       93       98
     188      8       94       95       96
     189     12       94       95       99
     190     11       94      101      102
     191     11       94      101      106
     192     11       95       94      101
     193      9       95       96      100
     194      9       96       95       99
     195      8      101      102      103
     196     12      101      102      107
     197      8      101      106      105
     198     12      101      106      110
     199     10      102      101      106
     200      8      102      103      104
     201      9      102      103      108
     202      9      103      102      107
     203     10      103      104      105
     204     11      103      104      111
     205     12      104      103      108
     206      8      104      105      106
     207     12      104      105      109
     208     11      104      111      112
     209     11      104      111      116
     210     11      105      104      111
     211      9      105      106      110
     212      9      106      105      109
     213      8      111      112      113
     214     12      111      112      117
     215      8      111      116      115
     216     12      111      116      120
     217     10      112      111      116
     218      1      112      113      114
     219      9      112      113      118
     220      9      113      112      117
     221      6      113      114      115
     222      2      114      113      118
     223      1      114      115      116
     224      2      114      115      119
     225      9      115      116      120
     226      9      116      115      119
     227      1      121      122      123
     228      2      121      122      127
     229      1      121      126      125
     230      2      121      126      130
     231      6      122      121      126
     232      8      122      123      124
     233      9      122      123      128
     234      9      123      122      127
     235     10      123      124      125
     236     11      123      124      131
     237     12      124      123      128
     238      8      124      125      126
     239     12      124      125      129
     240     11      124      131      132
     241     11      124      131      136
     242     11      125      124      131
     243      9      125      126      130
     244      9      126      125      129
     245      8      131      132      133
     246     12      131      132      137
     247      8      131      136      135
     248     12      131      136      140
     249     10      132      131      136
     250      8      132      133      134
     251      9      132      133      138
     252      9      133      132      137
     253     10      133      134      135
     254     11      133      134      141
     255     12      134      133      138
     256      8      134      135      136
     257     12      134      135      139
     258     11      134      141      142
     259     11      134      141      146
     260     11      135      134      141
     261      9      135      136      140
     262      9      136      135      139
     263      8      141      142      143
     264     12      141      142      147
     265      8      141      146      145
     266     12      141      146      150
     267     10      142      141      146
     268      8      142      143      144
     269      9      142      143      148
     270      9      143      142      147
     271     10      143      144      145
     272     11      143      144      151
     273     12      144      143      148
     274      8      144      145      146
     275     12      144      145      149
     276     11      144      151      152
     277     11      144      151      156
     278     11      145      144      151
     279      9      145      146      150
     280      9      146      145      149
     281      8      151      152      153
     282     12      151      152      157
     283      8      151      156      155
     284     12      151      156      160
     285     10      152      151      156
     286      8      152      153      154
     287      9      152      153      158
     288      9      153      152      157
     289     10      153      154      155
     290     11      153      154      161
     291     12      154      153      158
     292      8      154      155      156
     293     12      154      155      159
     294     11      154      161      162
     295     11      154      161      166
     296     11      155      154      161
     297      9      155      156      160
     298      9      156      155      159
     299      8      161      162      163
     300     12      161      162      167
     301      8      161      166      165
     302     12      161      166      170
     303     10      162      161      166
     304      8      162      163      164
     305      9      162      163      168
     306      9      163      162      167
     307     10      163      164      165
     308     11      163      164      171
     309     12      164      163      168
     310      8      164      165      166
     311     12      164      165      169
     312     11      164      171      172
     313     11      164      171      176
     314     11      165      164      171
     315      9      165      166      170
     316      9      166      165      169
     317      8      171      172      173
     318     12      171      172      177
     319      8      171      176      175
     320     12      171      176      180
     321     10      172      171      176
     322      1      172      173      174
     323      9      172      173      178
     324      9      173      172      177
     325      6      173      174      175
     326      2      174      173      178
     327      1      174      175      176
     328      2      174      175      179
     329      9      175      176      180
     330      9      176      175      179

Dihedrals

       1     21        1        2       25       26
       2     25        1        2       25       27
       3     25        1        2       25       28
       4     23        1        7        8       11
       5     23        1        7        8       12
       6      5        1        7        8       31
       7     21        2        1        7        8
       8     25        2        1        7        9
       9     25        2        1        7       10
      10     23        2       25       26       29
      11     23        2       25       26       30
      12      5        2       25       26      174
      13     29        3        1        2        5
      14     29        3        1        2        6
      15     25        3        1        2       25
      16     22        3        1        7        8
      17     29        3        1        7        9
      18     29        3        1        7       10
      19     29        4        1        2        5
      20     29        4        1        2        6
      21     25        4        1        2       25
      22     22        4        1        7        8
      23     29        4        1        7        9
      24     29        4        1        7       10
      25     25        5        2        1        7
      26     22        5        2       25       26
      27     29        5        2       25       27
      28     29        5        2       25       28
      29     25        6        2        1        7
      30     22        6        2       25       26
      31     29        6        2       25       27
      32     29        6        2       25       28
      33     24        7        1        2       25
      34     10        7        8       31       32
      35     10        7        8       31       36
      36     12        8       31       32       33
      37     20        8       31       32       37
      38     12        8       31       36       35
      39     20        8       31       36       40
      40     28        9        7        8       11
      41     28        9        7        8       12
      42      6        9        7        8       31
      43     28       10        7        8       11
      44     28       10        7        8       12
      45      6       10        7        8       31
      46     11       11        8       31       32
      47     11       11        8       31       36
      48     11       12        8       31       32
      49     11       12        8       31       36
      50      9       13       14       71       72
      51      9       13       14       71       76
      52     12       13       64       63       62
      53     20       13       64       63       68
      54     12       13       64       65       66
      55     20       13       64       65       69
      56      9       14       13       64       63
      57      9       14       13       64       65
      58     12       14       71       72       73
      59     20       14       71       72       77
      60     12       14       71       76       75
      61     20       14       71       76       80
      62     27       15       13       14       17
      63     27       15       13       14       18
      64      4       15       13       14       71
      65     11       15       13       64       63
      66     11       15       13       64       65
      67     27       16       13       14       17
      68     27       16       13       14       18
      69      4       16       13       14       71
      70     11       16       13       64       63
      71     11       16       13       64       65
      72      4       17       14       13       64
      73     11       17       14       71       72
      74     11       17       14       71       76
      75      4       18       14       13       64
      76     11       18       14       71       72
      77     11       18       14       71       76
      78      9       19       20      121      122
      79      9       19       20      121      126
      80     12       19      114      113      112
      81     20       19      114      113      118
      82     12       19      114      115      116
      83     20       19      114      115      119
      84      9       20       19      114      113
      85      9       20       19      114      115
      86     12       20      121      122      123
      87     20       20      121      122      127
      88     12       20      121      126      125
      89     20       20      121      126      130
      90     27       21       19       20       23
      91     27       21       19       20       24
      92      4       21       19       20      121
      93     11       21       19      114      113
      94     11       21       19      114      115
      95     27       22       19       20       23
      96     27       22       19       20       24
      97      4       22       19       20      121
      98     11       22       19      114      113
      99     11       22       19      114      115
     100      4       23       20       19      114
     101     11       23       20      121      122
     102     11       23       20      121      126
     103      4       24       20       19      114
     104     11       24       20      121      122
     105     11       24       20      121      126
     106     10       25       26      174      173
     107     10       25       26      174      175
     108     12       26      174      173      172
     109     20       26      174      173      178
     110     12       26      174      175      176
     111     20       26      174      175      179
     112     28       27       25       26       29
     113     28       27       25       26       30
     114      6       27       25       26      174
     115     28       28       25       26       29
     116     28       28       25       26       30
     117      6       28       25       26      174
     118     11       29       26      174      173
     119     11       29       26      174      175
     120     11       30       26      174      173
     121     11       30       26      174      175
     122      1       31       32       33       34
     123      2       31       32       33       38
     124      1       31       36       35       34
     125      2       31       36       35       39
     126      7       32       31       36       35
     127      8       32       31       36       40
     128     13       32       33       34       35
     129     14       32       33       34       41
     130      7       33       32       31       36
     131     13       33       34       35       36
     132     15       33       34       35       39
     133     16       33       34       41       42
     134     16       33       34       41       46
     135     18       34       33       32       37
     136     18       34       35       36       40
     137     14       34       41       42       43
     138     19       34       41       42       47
     139     14       34       41       46       45
     140     19       34       41       46       50
     141     15       35       34       33       38
     142     16       35       34       41       42
     143     16       35       34       41       46
     144      8       36       31       32       37
     145     14       36       35       34       41
     146     26       37       32       33       38
     147     19       38       33       34       41
     148     19       39       35       34       41
     149     26       39       35       36       40
     150     17       41       42       43       44
     151     18       41       42       43       48
     152     17       41       46       45       44
     153     18       41       46       45       49
     154     13       42       41       46       45
     155     15       42       41       46       50
     156     13       42       43       44       45
     157     14       42       43       44       51
     158     13       43       42       41       46
     159     13       43       44       45       46
     160     15       43       44       45       49
     161     16       43       44       51       52
     162     16       43       44       51       56
     163     18       44       43       42       47
     164     18       44       45       46       50
     165     14       44       51       52       53
     166     19       44       51       52       57
     167     14       44       51       56       55
     168     19       44       51       56       60
     169     15       45       44       43       48
     170     16       45       44       51       52
     171     16       45       44       51       56
     172     15       46       41       42       47
     173     14       46       45       44       51
     174     26       47       42       43       48
     175     19       48       43       44       51
     176     19       49       45       44       51
     177     26       49       45       46       50
     178     17       51       52       53       54
     179     18       51       52       53       58
     180     17       51       56       55       54
     181     18       51       56       55       59
     182     13       52       51       56       55
     183     15       52       51       56       60
     184     13       52       53       54       55
     185     14       52       53       54       61
     186     13       53       52       51       56
     187     13       53       54       55       56
     188     15       53       54       55       59
     189     16       53       54       61       62
     190     16       53       54       61       66
     191     18       54       53       52       57
     192     18       54       55       56       60
     193     14       54       61       62       63
     194     19       54       61       62       67
     195     14       54       61       66       65
     196     19       54       61       66       70
     197     15       55       54       53       58
     198     16       55       54       61       62
     199     16       55       54       61       66
     200     15       56       51       52       57
     201     14       56       55       54       61
     202     26       57       52       53       58
     203     19       58       53       54       61
     204     19       59       55       54       61
     205     26       59       55       56       60
     206      1       61       62       63       64
     207     18       61       62       63       68
     208      1       61       66       65       64
     209     18       61       66       65       69
     210     13       62       61       66       65
     211     15       62       61       66       70
     212      7       62       63       64       65
     213     13       63       62       61       66
     214      7       63       64       65       66
     215      8       63       64       65       69
     216      3       64       13       14       71
     217      2       64       63       62       67
     218      2       64       65       66       70
     219      8       65       64       63       68
     220     15       66       61       62       67
     221     26       67       62       63       68
     222     26       69       65       66       70
     223      1       71       72       73       74
     224      2       71       72       73       78
     225      1       71       76       75       74
     226      2       71       76       75       79
     227      7       72       71       76       75
     228      8       72       71       76       80
     229     13       72       73       74       75
     230     14       72       73       74       81
     231      7       73       72       71       76
     232     13       73       74       75       76
     233     15       73       74       75       79
     234     16       73       74       81       82
     235     16       73       74       81       86
     236     18       74       73       72       77
     237     18       74       75       76       80
     238     14       74       81       82       83
     239     19       74       81       82       87
     240     14       74       81       86       85
     241     19       74       81       86       90
     242     15       75       74       73       78
     243     16       75       74       81       82
     244     16       75       74       81       86
     245      8       76       71       72       77
     246     14       76       75       74       81
     247     26       77       72       73       78
     248     19       78       73       74       81
     249     19       79       75       74       81
     250     26       79       75       76       80
     251     17       81       82       83       84
     252     18       81       82       83       88
     253     17       81       86       85       84
     254     18       81       86       85       89
     255     13       82       81       86       85
     256     15       82       81       86       90
     257     13       82       83       84       85
     258     14       82       83       84       91
     259     13       83       82       81       86
     260     13       83       84       85       86
     261     15       83       84       85       89
     262     16       83       84       91       92
     263     16       83       84       91       96
     264     18       84       83       82       87
     265     18       84       85       86       90
     266     14       84       91       92       93
     267     19       84       91       92       97
     268     14       84       91       96       95
     269     19       84       91       96      100
     270     15       85       84       83       88
     271     16       85       84       91       92
     272     16       85       84       91       96
     273     15       86       81       82       87
     274     14       86       85       84       91
     275     26       87       82       83       88
     276     19       88       83       84       91
     277     19       89       85       84       91
     278     26       89       85       86       90
     279     17       91       92       93       94
     280     18       91       92       93       98
     281     17       91       96       95       94
     282     18       91       96       95       99
     283     13       92       91       96       95
     284     15       92       91       96      100
     285     13       92       93       94       95
     286     14       92       93       94      101
     287     13       93       92       91       96
     288     13       93       94       95       96
     289     15       93       94       95       99
     290     16       93       94      101      102
     291     16       93       94      101      106
     292     18       94       93       92       97
     293     18       94       95       96      100
     294     14       94      101      102      103
     295     19       94      101      102      107
     296     14       94      101      106      105
     297     19       94      101      106      110
     298     15       95       94       93       98
     299     16       95       94      101      102
     300     16       95       94      101      106
     301     15       96       91       92       97
     302     14       96       95       94      101
     303     26       97       92       93       98
     304     19       98       93       94      101
     305     19       99       95       94      101
     306     26       99       95       96      100
     307     17      101      102      103      104
     308     18      101      102      103      108
     309     17      101      106      105      104
     310     18      101      106      105      109
     311     13      102      101      106      105
     312     15      102      101      106      110
     313     13      102      103      104      105
     314     14      102      103      104      111
     315     13      103      102      101      106
     316     13      103      104      105      106
     317     15      103      104      105      109
     318     16      103      104      111      112
     319     16      103      104      111      116
     320     18      104      103      102      107
     321     18      104      105      106      110
     322     14      104      111      112      113
     323     19      104      111      112      117
     324     14      104      111      116      115
     325     19      104      111      116      120
     326     15      105      104      103      108
     327     16      105      104      111      112
     328     16      105      104      111      116
     329     15      106      101      102      107
     330     14      106      105      104      111
     331     26      107      102      103      108
     332     19      108      103      104      111
     333     19      109      105      104      111
     334     26      109      105      106      110
     335      1      111      112      113      114
     336     18      111      112      113      118
     337      1      111      116      115      114
     338     18      111      116      115      119
     339     13      112      111      116      115
     340     15      112      111      116      120
     341      7      112      113      114      115
     342     13      113      112      111      116
     343      7      113      114      115      116
     344      8      113      114      115      119
     345      3      114       19       20      121
     346      2      114      113      112      117
     347      2      114      115      116      120
     348      8      115      114      113      118
     349     15      116      111      112      117
     350     26      117      112      113      118
     351     26      119      115      116      120
     352      1      121      122      123      124
     353      2      121      122      123      128
     354      1      121      126      125      124
     355      2      121      126      125      129
     356      7      122      121      126      125
     357      8      122      121      126      130
     358     13      122      123      124      125
     359     14      122      123      124      131
     360      7      123      122      121      126
     361     13      123      124      125      126
     362     15      123      124      125      129
     363     16      123      124      131      132
     364     16      123      124      131      136
     365     18      124      123      122      127
     366     18      124      125      126      130
     367     14      124      131      132      133
     368     19      124      131      132      137
     369     14      124      131      136      135
     370     19      124      131      136      140
     371     15      125      124      123      128
     372     16      125      124      131      132
     373     16      125      124      131      136
     374      8      126      121      122      127
     375     14      126      125      124      131
     376     26      127      122      123      128
     377     19      128      123      124      131
     378     19      129      125      124      131
     379     26      129      125      126      130
     380     17      131      132      133      134
     381     18      131      132      133      138
     382     17      131      136      135      134
     383     18      131      136      135      139
     384     13      132      131      136      135
     385     15      132      131      136      140
     386     13      132      133      134      135
     387     14      132      133      134      141
     388     13      133      132      131      136
     389     13      133      134      135      136
     390     15      133      134      135      139
     391     16      133      134      141      142
     392     16      133      134      141      146
     393     18      134      133      132      137
     394     18      134      135      136      140
     395     14      134      141      142      143
     396     19      134      141      142      147
     397     14      134      141      146      145
     398     19      134      141      146      150
     399     15      135      134      133      138
     400     16      135      134      141      142
     401     16      135      134      141      146
     402     15      136      131      132      137
     403     14      136      135      134      141
     404     26      137      132      133      138
     405     19      138      133      134      141
     406     19      139      135      134      141
     407     26      139      135      136      140
     408     17      141      142      143      144
     409     18      141      142      143      148
     410     17      141      146      145      144
     411     18      141      146      145      149
     412     13      142      141      146      145
     413     15      142      141      146      150
     414     13      142      143      144      145
     415     14      142      143      144      151
     416     13      143      142      141      146
     417     13      143      144      145      146
     418     15      143      144      145      149
     419     16      143      144      151      152
     420     16      143      144      151      156
     421     18      144      143      142      147
     422     18      144      145      146      150
     423     14      144      151      152      153
     424     19      144      151      152      157
     425     14      144      151      156      155
     426     19      144      151      156      160
     427     15      145      144      143      148
     428     16      145      144      151      152
     429     16      145      144      151      156
     430     15      146      141      142      147
     431     14      146      145      144      151
     432     26      147      142      143      148
     433     19      148      143      144      151
     434     19      149      145      144      151
     435     26      149      145      146      150
     436     17      151      152      153      154
     437     18      151      152      153      158
     438     17      151      156      155      154
     439     18      151      156      155      159
     440     13      152      151      156      155
     441     15      152      151      156      160
     442     13      152      153      154      155
     443     14      152      153      154      161
     444     13      153      152      151      156
     445     13      153      154      155      156
     446     15      153      154      155      159
     447     16      153      154      161      162
     448     16      153      154      161      166
     449     18      154      153      152      157
     450     18      154      155      156      160
     451     14      154      161      162      163
     452     19      154      161      162      167
     453     14      154      161      166      165
     454     19      154      161      166      170
     455     15      155      154      153      158
     456     16      155      154      161      162
     457     16      155      154      161      166
     458     15      156      151      152      157
     459     14      156      155      154      161
     460     26      157      152      153      158
     461     19      158      153      154      161
     462     19      159      155      154      161
     463     26      159      155      156      160
     464     17      161      162      163      164
     465     18      161      162      163      168
     466     17      161      166      165      164
     467     18      161      166      165      169
     468     13      162      161      166      165
     469     15      162      161      166      170
     470     13      162      163      164      165
     471     14      162      163      164      171
     472     13      163      162      161      166
     473     13      163      164      165      166
     474     15      163      164      165      169
     475     16      163      164      171      172
     476     16      163      164      171      176
     477     18      164      163      162      167
     478     18      164      165      166      170
     479     14      164      171      172      173
     480     19      164      171      172      177
     481     14      164      171      176      175
     482     19      164      171      176      180
     483     15      165      164      163      168
     484     16      165      164      171      172
     485     16      165      164      171      176
     486     15      166      161      162      167
     487     14      166      165      164      171
     488     26      167      162      163      168
     489     19      168      163      164      171
     490     19      169      165      164      171
     491     26      169      165      166      170
     492      1      171      172      173      174
     493     18      171      172      173      178
     494      1      171      176      175      174
     495     18      171      176      175      179
     496     13      172      171      176      175
     497     15      172      171      176      180
     498      7      172      173      174      175
     499     13      173      172      171      176
     500      7      173      174      175      176
     501      8      173      174      175      179
     502      2      174      173      172      177
     503      2      174      175      176      180
     504      8      175      174      173      178
     505     15      176      171      172      177
     506     26      177      172      173      178
     507     26      179      175      176      180

Impropers

       1      1        8       31       32       36
       2      2       31       32       33       37
       3      3       32       33       34       38
       4      4       33       34       35       41
       5      3       34       35       36       39
       6      2       31       36       35       40
       7      4       34       41       42       46
       8      3       41       42       43       47
       9      3       42       43       44       48
      10      4       43       44       45       51
      11      3       44       45       46       49
      12      3       41       46       45       50
      13      4       44       51       52       56
      14      3       51       52       53       57
      15      3       52       53       54       58
      16      4       53       54       55       61
      17      3       54       55       56       59
      18      3       51       56       55       60
      19      4       54       61       62       66
      20      3       61       62       63       67
      21      2       62       63       64       68
      22      1       13       64       63       65
      23      2       64       65       66       69
      24      3       61       66       65       70
      25      1       14       71       72       76
      26      2       71       72       73       77
      27      3       72       73       74       78
      28      4       73       74       75       81
      29      3       74       75       76       79
      30      2       71       76       75       80
      31      4       74       81       82       86
      32      3       81       82       83       87
      33      3       82       83       84       88
      34      4       83       84       85       91
      35      3       84       85       86       89
      36      3       81       86       85       90
      37      4       84       91       92       96
      38      3       91       92       93       97
      39      3       92       93       94       98
      40      4       93       94       95      101
      41      3       94       95       96       99
      42      3       91       96       95      100
      43      4       94      101      102      106
      44      3      101      102      103      107
      45      3      102      103      104      108
      46      4      103      104      105      111
      47      3      104      105      106      109
      48      3      101      106      105      110
      49      4      104      111      112      116
      50      3      111      112      113      117
      51      2      112      113      114      118
      52      1       19      114      113      115
      53      2      114      115      116      119
      54      3      111      116      115      120
      55      1       20      121      122      126
      56      2      121      122      123      127
      57      3      122      123      124      128
      58      4      123      124      125      131
      59      3      124      125      126      129
      60      2      121      126      125      130
      61      4      124      131      132      136
      62      3      131      132      133      137
      63      3      132      133      134      138
      64      4      133      134      135      141
      65      3      134      135      136      139
      66      3      131      136      135      140
      67      4      134      141      142      146
      68      3      141      142      143      147
      69      3      142      143      144      148
      70      4      143      144      145      151
      71      3      144      145      146      149
      72      3      141      146      145      150
      73      4      144      151      152      156
      74      3      151      152      153      157
      75      3      152      153      154      158
      76      4      153      154      155      161
      77      3      154      155      156      159
      78      3      151      156      155      160
      79      4      154      161      162      166
      80      3      161      162      163      167
      81      3      162      163      164      168
      82      4      163      164      165      171
      83      3      164      165      166      169
      84      3      161      166      165      170
      85      4      164      171      172      176
      86      3      171      172      173      177
      87      2      172      173      174      178
      88      1       26      174      173      175
      89      2      174      175      176      179
      90      3      171      176      175      180

