LAMMPS data file generated by clean-room 1-hop pipeline

     266 atoms
     265 bonds
     528 angles
     783 dihedrals
       0 impropers

       5 atom types
       7 bond types
      14 angle types
      21 dihedral types
       0 improper types

  -37.073200    37.256200 xlo xhi
  -30.720200    29.846400 ylo yhi
  -24.446600    28.784900 zlo zhi

Masses

       1    12.011000
       2    12.011000
       3    12.011000
       4    12.011000
       5     1.008000

Pair Coeffs

       1     0.066000     3.500000
       2     0.066000     3.500000
       3     0.066000     3.500000
       4     0.066000     3.500000
       5     0.030000     2.500000

Bond Coeffs

       1   268.000000     1.529000
       2   340.000000     1.090000
       3   268.000000     1.529000
       4   268.000000     1.529000
       5   268.000000     1.529000
       6   340.000000     1.090000
       7   340.000000     1.090000

Angle Coeffs

       1    58.350000   112.700000
       2    37.500000   110.700000
       3    37.500000   110.700000
       4    58.350000   112.700000
       5    58.350000   112.700000
       6    58.350000   112.700000
       7    37.500000   110.700000
       8    58.350000   112.700000
       9    37.500000   110.700000
      10    58.350000   112.700000
      11    37.500000   110.700000
      12    37.500000   110.700000
      13    33.000000   107.800000
      14    33.000000   107.800000

Dihedral Coeffs

       1     0.850000    -0.200000     0.200000     0.000000
       2     0.850000    -0.200000     0.200000     0.000000
       3     0.850000    -0.200000     0.200000     0.000000
       4     0.000000     0.000000     0.300000     0.000000
       5     0.000000     0.000000     0.300000     0.000000
       6     0.850000    -0.200000     0.200000     0.000000
       7     0.850000    -0.200000     0.200000     0.000000
       8     0.850000    -0.200000     0.200000     0.000000
       9     0.000000     0.000000     0.300000     0.000000
      10     0.850000    -0.200000     0.200000     0.000000
      11     0.000000     0.000000     0.300000     0.000000
      12     0.850000    -0.200000     0.200000     0.000000
      13     0.000000     0.000000     0.300000     0.000000
      14     0.000000     0.000000     0.300000     0.000000
      15     0.850000    -0.200000     0.200000     0.000000
      16     0.000000     0.000000     0.300000     0.000000
      17     0.850000    -0.200000     0.200000     0.000000
      18     0.000000     0.000000     0.300000     0.000000
      19     0.000000     0.000000     0.300000     0.000000
      20     0.000000     0.000000     0.300000     0.000000
      21     0.000000     0.000000     0.300000     0.000000

Improper Coeffs


Atoms

       1    1      1  -0.26492112    -6.530600    -9.788800    -2.325100
       2    1      2  -0.19426975    -7.142100    -8.557800    -3.017900
       3    1      5   0.09693984    -6.739700   -10.720200    -2.948100
       4    1      5   0.09693984    -5.404600    -9.642700    -2.222100
       5    1      5   0.09693984    -6.994000    -9.909900    -1.290700
       6    1      5   0.09693984    -8.269600    -8.692500    -3.119400
       7    1      5   0.09693984    -6.677400    -8.436000    -4.051700
       8    1      1  -0.26492112     0.657900    -0.528100     7.903500
       9    1      2  -0.19426975     0.281700     0.176700     6.587200
      10    1      5   0.09693984     0.101400    -1.520600     7.973900
      11    1      5   0.09693984     1.781500    -0.719200     7.924800
      12    1      5   0.09693984     0.367100     0.133800     8.784900
      13    1      5   0.09693984    -0.842000     0.367300     6.569500
      14    1      5   0.09693984     0.834700     1.170900     6.515800
      15    1      1  -0.26492112     5.166200     3.834600     3.642200
      16    1      2  -0.19426975     3.667400     4.011300     3.345900
      17    1      5   0.09693984     5.704400     3.567800     2.673700
      18    1      5   0.09693984     5.588800     4.814400     4.043800
      19    1      5   0.09693984     5.315800     3.007400     4.412000
      20    1      5   0.09693984     3.161500     4.350600     4.309500
      21    1      5   0.09693984     3.543300     4.832300     2.571000
      22    1      1  -0.26492112    13.009600     1.630100     1.541400
      23    1      2  -0.19426975    11.785800     1.082700     2.294000
      24    1      5   0.09693984    13.868200     0.885700     1.630700
      25    1      5   0.09693984    12.752500     1.761000     0.439500
      26    1      5   0.09693984    13.324500     2.630000     1.989500
      27    1      5   0.09693984    12.125000     0.876400     3.362600
      28    1      5   0.09693984    11.489100     0.092800     1.812700
      29    1      1  -0.26492112     9.175800     0.209600    -2.087100
      30    1      2  -0.19426975     8.999400     1.381100    -1.104000
      31    1      5   0.09693984     8.611600     0.434600    -3.051800
      32    1      5   0.09693984    10.284000     0.072600    -2.317000
      33    1      5   0.09693984     8.763200    -0.744300    -1.618700
      34    1      5   0.09693984     7.893700     1.528200    -0.878300
      35    1      5   0.09693984     9.419200     2.332100    -1.572700
      36    1      1  -0.26492112    15.220800     4.034400    -0.198700
      37    1      2  -0.19426975    14.441900     2.915600    -0.919400
      38    1      5   0.09693984    16.038100     3.565700     0.443100
      39    1      5   0.09693984    15.695900     4.723700    -0.972700
      40    1      5   0.09693984    14.531800     4.640500     0.472900
      41    1      5   0.09693984    13.960300     2.223500    -0.154600
      42    1      5   0.09693984    15.195300     2.318800    -1.532500
      43    1      1  -0.26492112    16.472500     8.781800    -1.072900
      44    1      2  -0.19426975    15.588700     7.718500    -1.751800
      45    1      5   0.09693984    16.992900     8.321500    -0.168800
      46    1      5   0.09693984    17.256200     9.153000    -1.812900
      47    1      5   0.09693984    15.824900     9.656500    -0.733900
      48    1      5   0.09693984    15.067800     8.173200    -2.658100
      49    1      5   0.09693984    16.246700     6.851000    -2.090200
      50    1      1  -0.26492112     4.164800     7.997400     1.284600
      51    1      2  -0.19426975     3.236800     6.873100     1.784700
      52    1      5   0.09693984     3.849800     8.308600     0.234100
      53    1      5   0.09693984     4.079300     8.891100     1.987000
      54    1      5   0.09693984     5.246900     7.649200     1.268100
      55    1      5   0.09693984     3.549600     6.543800     2.830600
      56    1      5   0.09693984     2.178300     7.293800     1.828100
      57    1      1  -0.26492112     6.586100     9.041600    -3.515300
      58    1      2  -0.19426975     5.578400     8.036500    -2.927500
      59    1      5   0.09693984     7.547700     8.496400    -3.793900
      60    1      5   0.09693984     6.140600     9.525200    -4.446600
      61    1      5   0.09693984     6.815100     9.846400    -2.741100
      62    1      5   0.09693984     4.617400     8.584100    -2.650900
      63    1      5   0.09693984     5.346900     7.230400    -3.699600
      64    1      1  -0.26492112    -4.310100    -3.498800     6.284200
      65    1      2  -0.19426975    -4.519600    -2.258600     5.396600
      66    1      5   0.09693984    -4.164100    -4.417400     5.624800
      67    1      5   0.09693984    -3.387000    -3.348200     6.936000
      68    1      5   0.09693984    -5.224700    -3.649700     6.947500
      69    1      5   0.09693984    -4.679000    -1.340500     6.049800
      70    1      5   0.09693984    -5.437100    -2.422500     4.745800
      71    1      1  -0.26492112    -3.291800    -0.122600     6.709200
      72    1      2  -0.19426975    -3.961400     0.677800     5.573500
      73    1      5   0.09693984    -3.252500    -1.231700     6.458100
      74    1      5   0.09693984    -2.227000     0.258200     6.851700
      75    1      5   0.09693984    -3.877900     0.028000     7.675200
      76    1      5   0.09693984    -5.047300     0.369700     5.412000
      77    1      5   0.09693984    -3.917700     1.775800     5.876700
      78    1      1  -0.26492112    -8.671500    -3.492800     5.299700
      79    1      2  -0.19426975    -8.746300    -2.114000     4.612800
      80    1      5   0.09693984    -9.696000    -3.762600     5.720300
      81    1      5   0.09693984    -8.341500    -4.295300     4.563200
      82    1      5   0.09693984    -7.915600    -3.442100     6.151600
      83    1      5   0.09693984    -9.038800    -1.362700     5.418700
      84    1      5   0.09693984    -9.526300    -2.099300     3.782500
      85    1      1  -0.26492112    -8.778900    -5.885900     2.728800
      86    1      2  -0.19426975    -8.632400    -4.356400     2.628400
      87    1      5   0.09693984    -9.875500    -6.171900     2.604400
      88    1      5   0.09693984    -8.160500    -6.382800     1.910100
      89    1      5   0.09693984    -8.408200    -6.234500     3.749000
      90    1      5   0.09693984    -9.260500    -3.865900     3.441500
      91    1      5   0.09693984    -9.001500    -4.001800     1.609800
      92    1      1  -0.26492112   -14.064600    -4.195300     2.875800
      93    1      2  -0.19426975   -12.535300    -4.047000     2.793400
      94    1      5   0.09693984   -14.321400    -5.262900     3.182100
      95    1      5   0.09693984   -14.486400    -3.465800     3.643600
      96    1      5   0.09693984   -14.514100    -3.993200     1.850000
      97    1      5   0.09693984   -12.104200    -4.358800     3.801500
      98    1      5   0.09693984   -12.156600    -4.767200     1.994700
      99    1      1  -0.26492112   -16.178700    -1.159800     1.634000
     100    1      2  -0.19426975   -14.929000    -2.054000     1.728800
     101    1      5   0.09693984   -16.389300    -0.917800     0.540000
     102    1      5   0.09693984   -17.073200    -1.706400     2.082100
     103    1      5   0.09693984   -15.997400    -0.192400     2.209200
     104    1      5   0.09693984   -14.720200    -2.291900     2.823100
     105    1      5   0.09693984   -15.120400    -3.018900     1.156200
     106    1      1  -0.26492112   -14.527900    -3.568500    -0.719200
     107    1      2  -0.19426975   -13.244400    -4.146300    -0.090200
     108    1      5   0.09693984   -15.328600    -4.378700    -0.762900
     109    1      5   0.09693984   -14.913400    -2.680900    -0.122300
     110    1      5   0.09693984   -14.292400    -3.215700    -1.777300
     111    1      5   0.09693984   -12.882200    -4.973600    -0.785700
     112    1      5   0.09693984   -13.436500    -4.584300     0.943500
     113    1      2  -0.19426975    -6.841900    -7.307300    -2.172700
     114    1      2  -0.19426975    -5.316300    -7.149900    -2.037500
     115    1      5   0.09693984    -7.276900    -6.387400    -2.686500
     116    1      5   0.09693984    -7.306500    -7.422000    -1.138100
     117    1      5   0.09693984    -4.856800    -7.049400    -3.075800
     118    1      5   0.09693984    -4.878700    -8.063600    -1.514400
     119    1      2  -0.19426975    -5.012300    -5.879100    -1.223900
     120    1      2  -0.19426975    -3.489100    -5.675800    -1.130100
     121    1      5   0.09693984    -5.472000    -4.983200    -1.758400
     122    1      5   0.09693984    -5.457900    -5.966500    -0.178200
     123    1      5   0.09693984    -3.060300    -5.616800    -2.184700
     124    1      5   0.09693984    -3.004300    -6.541200    -0.568200
     125    1      2  -0.19426975    -3.216000    -4.345300    -0.406600
     126    1      2  -0.19426975    -1.705900    -4.047300    -0.399200
     127    1      5   0.09693984    -3.742600    -3.512500    -0.980000
     128    1      5   0.09693984    -3.617600    -4.382200     0.659700
     129    1      5   0.09693984    -1.326300    -4.047600    -1.474100
     130    1      5   0.09693984    -1.141500    -4.830600     0.207200
     131    1      2  -0.19426975    -1.505400    -2.641900     0.194100
     132    1      2  -0.19426975    -0.024900    -2.241200     0.116300
     133    1      5   0.09693984    -2.124200    -1.907400    -0.419800
     134    1      5   0.09693984    -1.837200    -2.650800     1.280200
     135    1      5   0.09693984     0.332600    -2.475200    -0.940500
     136    1      5   0.09693984     0.575600    -2.869200     0.854400
     137    1      2  -0.19426975     0.237700     0.016500     4.098400
     138    1      2  -0.19426975     0.663200    -0.709900     5.386600
     139    1      5   0.09693984     0.780500     1.015700     4.014100
     140    1      5   0.09693984    -0.883500     0.201300     4.146000
     141    1      5   0.09693984     1.787900    -0.895600     5.377600
     142    1      5   0.09693984     0.110000    -1.704000     5.460200
     143    1      2  -0.19426975     6.012100     1.613800     2.042000
     144    1      2  -0.19426975     6.946000     2.248500     0.987500
     145    1      5   0.09693984     6.572700     0.663700     2.329400
     146    1      5   0.09693984     5.975000     2.260400     2.974600
     147    1      5   0.09693984     6.610600     3.264800     0.593500
     148    1      5   0.09693984     7.037400     1.495300     0.138400
     149    1      2  -0.19426975    13.721400     6.088000    -1.458400
     150    1      2  -0.19426975    14.533900     7.192700    -0.758500
     151    1      5   0.09693984    14.462200     5.297100    -1.812600
     152    1      5   0.09693984    13.164900     6.508100    -2.360200
     153    1      5   0.09693984    15.067300     6.745500     0.144400
     154    1      5   0.09693984    13.846900     8.037100    -0.419800
     155    1      2  -0.19426975     5.141600     6.406300    -1.077500
     156    1      2  -0.19426975     6.174100     7.385800    -1.664800
     157    1      5   0.09693984     4.907300     5.584600    -1.832300
     158    1      5   0.09693984     4.186900     6.981500    -0.836100
     159    1      5   0.09693984     6.404800     8.195700    -0.896300
     160    1      5   0.09693984     7.131900     6.827300    -1.929700
     161    1      2  -0.19426975    -9.177300    -1.767800     1.818700
     162    1      2  -0.19426975    -9.893700    -1.162300     0.596500
     163    1      5   0.09693984    -9.602300    -2.804800     2.008300
     164    1      5   0.09693984    -9.369100    -1.110400     2.730000
     165    1      5   0.09693984    -9.379700    -0.174300     0.353500
     166    1      5   0.09693984    -9.776500    -1.867100    -0.291900
     167    1      4  -0.05454259    -0.065800    -0.028400     1.667000
     168    1      2  -0.19426975     0.249200    -0.736400     0.329400
     169    1      2  -0.19426975     0.520500    -0.826600     2.843800
     170    1      2  -0.19426975     0.746900     1.287100     1.608300
     171    1      2  -0.19426975    -1.548700     0.240300     2.051700
     172    1      5   0.09693984    -0.267000    -0.150100    -0.500800
     173    1      5   0.09693984     1.374700    -0.633600     0.184300
     174    1      5   0.09693984     1.640300    -0.991700     2.710000
     175    1      5   0.09693984    -0.015300    -1.829900     2.924100
     176    1      5   0.09693984     0.442700     1.922100     0.711800
     177    1      5   0.09693984     0.587200     1.871600     2.574100
     178    1      5   0.09693984    -2.141800     0.773200     1.237000
     179    1      5   0.09693984    -1.485300     0.923400     2.962300
     180    1      4  -0.05454259     3.309400     1.967400     1.578100
     181    1      2  -0.19426975     2.231200     0.859900     1.527000
     182    1      2  -0.19426975     2.938000     2.735100     2.871700
     183    1      2  -0.19426975     4.589800     1.106200     1.706900
     184    1      2  -0.19426975     3.212700     2.750500     0.247800
     185    1      5   0.09693984     2.394000     0.240300     0.584400
     186    1      5   0.09693984     2.417400     0.194400     2.433400
     187    1      5   0.09693984     1.847200     3.041200     2.743800
     188    1      5   0.09693984     2.991700     1.978300     3.722600
     189    1      5   0.09693984     4.668400     0.448300     0.779300
     190    1      5   0.09693984     4.342800     0.426100     2.587700
     191    1      5   0.09693984     3.170900     1.963100    -0.575400
     192    1      5   0.09693984     2.233000     3.333800     0.236300
     193    1      4  -0.05454259     9.674000     2.280900     1.145800
     194    1      2  -0.19426975     8.266600     2.307600     1.788800
     195    1      2  -0.19426975    10.519200     1.963500     2.401500
     196    1      2  -0.19426975     9.776500     1.079500     0.190100
     197    1      2  -0.19426975    10.126300     3.523600     0.340400
     198    1      5   0.09693984     8.254900     1.326100     2.368600
     199    1      5   0.09693984     8.200200     3.154100     2.549600
     200    1      5   0.09693984    10.727100     2.927100     2.974000
     201    1      5   0.09693984     9.828200     1.322900     3.043400
     202    1      5   0.09693984     9.382900     0.136300     0.694600
     203    1      5   0.09693984    10.873600     0.934700    -0.085300
     204    1      5   0.09693984     9.379800     3.708700    -0.501100
     205    1      5   0.09693984    10.195100     4.445100     1.008100
     206    1      4  -0.05454259    -3.415000    -0.852900     3.556900
     207    1      2  -0.19426975    -2.244000    -1.042200     2.564300
     208    1      2  -0.19426975    -3.294500    -2.083600     4.478400
     209    1      2  -0.19426975    -3.159100     0.492500     4.272600
     210    1      2  -0.19426975    -4.887100    -0.862200     3.068800
     211    1      5   0.09693984    -2.553800    -1.750900     1.733800
     212    1      5   0.09693984    -1.436800    -1.534400     3.200900
     213    1      5   0.09693984    -3.250300    -3.013400     3.820300
     214    1      5   0.09693984    -2.331900    -2.007100     5.084500
     215    1      5   0.09693984    -2.059900     0.607800     4.543500
     216    1      5   0.09693984    -3.440300     1.311100     3.530800
     217    1      5   0.09693984    -5.090600    -0.104600     2.241600
     218    1      5   0.09693984    -5.498800    -0.572600     3.986500
     219    1      4  -0.05454259    -6.900800    -2.450500     2.776400
     220    1      2  -0.19426975    -5.361000    -2.288200     2.703800
     221    1      2  -0.19426975    -7.352300    -1.736400     4.073800
     222    1      2  -0.19426975    -7.148300    -3.974200     2.790600
     223    1      2  -0.19426975    -7.649000    -1.816900     1.581400
     224    1      5   0.09693984    -4.960800    -2.968400     3.525200
     225    1      5   0.09693984    -4.931900    -2.643000     1.708800
     226    1      5   0.09693984    -6.631400    -1.961200     4.925000
     227    1      5   0.09693984    -7.313100    -0.617900     3.857400
     228    1      5   0.09693984    -6.588300    -4.439400     1.913500
     229    1      5   0.09693984    -6.735300    -4.400600     3.764000
     230    1      5   0.09693984    -7.291900    -0.741500     1.456600
     231    1      5   0.09693984    -7.407800    -2.404600     0.635000
     232    1      4  -0.05454259   -12.355100    -2.014600     1.113400
     233    1      2  -0.19426975   -11.390700    -0.844000     0.818000
     234    1      2  -0.19426975   -11.983500    -2.636700     2.479800
     235    1      2  -0.19426975   -13.725800    -1.296800     1.138100
     236    1      2  -0.19426975   -12.160100    -3.053400    -0.013300
     237    1      5   0.09693984   -11.759900    -0.350000    -0.140700
     238    1      5   0.09693984   -11.478700    -0.090100     1.668600
     239    1      5   0.09693984   -12.259000    -1.903500     3.308000
     240    1      5   0.09693984   -10.853700    -2.770700     2.484200
     241    1      5   0.09693984   -13.968900    -0.960000     0.076400
     242    1      5   0.09693984   -13.603300    -0.370700     1.791300
     243    1      5   0.09693984   -11.145100    -3.539800     0.167700
     244    1      5   0.09693984   -12.140900    -2.526100    -1.023800
     245    1      3  -0.12801637    12.176900     4.180700    -1.231200
     246    1      2  -0.19426975    11.490200     3.174900    -0.286000
     247    1      2  -0.19426975    13.363600     3.444600    -1.888900
     248    1      2  -0.19426975    12.733000     5.408400    -0.489800
     249    1      5   0.09693984    11.470300     4.501000    -2.066300
     250    1      5   0.09693984    12.220600     2.991900     0.561400
     251    1      5   0.09693984    11.335300     2.212100    -0.876500
     252    1      5   0.09693984    12.935400     2.551200    -2.452800
     253    1      5   0.09693984    13.864600     4.145000    -2.635900
     254    1      5   0.09693984    11.903100     6.110300    -0.146400
     255    1      5   0.09693984    13.309600     5.043900     0.420500
     256    1      3  -0.12801637     4.561300     4.886800     0.789700
     257    1      2  -0.19426975     4.377400     3.683900    -0.147600
     258    1      2  -0.19426975     3.222000     5.650400     0.844200
     259    1      2  -0.19426975     5.677100     5.779900     0.222800
     260    1      5   0.09693984     4.860100     4.509200     1.818700
     261    1      5   0.09693984     4.156300     4.091300    -1.189300
     262    1      5   0.09693984     5.346400     3.084800    -0.183500
     263    1      5   0.09693984     2.935400     5.990000    -0.205600
     264    1      5   0.09693984     2.434600     4.920800     1.228900
     265    1      5   0.09693984     5.923200     6.602300     0.968600
     266    1      5   0.09693984     6.616700     5.163800     0.028200

Bonds

       1      1        1        2
       2      2        1        3
       3      2        1        4
       4      2        1        5
       5      6        2        6
       6      6        2        7
       7      3        2      113
       8      1        8        9
       9      2        8       10
      10      2        8       11
      11      2        8       12
      12      6        9       13
      13      6        9       14
      14      3        9      138
      15      1       15       16
      16      2       15       17
      17      2       15       18
      18      2       15       19
      19      6       16       20
      20      6       16       21
      21      3       16      182
      22      1       22       23
      23      2       22       24
      24      2       22       25
      25      2       22       26
      26      6       23       27
      27      6       23       28
      28      3       23      195
      29      1       29       30
      30      2       29       31
      31      2       29       32
      32      2       29       33
      33      6       30       34
      34      6       30       35
      35      3       30      196
      36      1       36       37
      37      2       36       38
      38      2       36       39
      39      2       36       40
      40      6       37       41
      41      6       37       42
      42      3       37      247
      43      1       43       44
      44      2       43       45
      45      2       43       46
      46      2       43       47
      47      6       44       48
      48      6       44       49
      49      3       44      150
      50      1       50       51
      51      2       50       52
      52      2       50       53
      53      2       50       54
      54      6       51       55
      55      6       51       56
      56      3       51      258
      57      1       57       58
      58      2       57       59
      59      2       57       60
      60      2       57       61
      61      6       58       62
      62      6       58       63
      63      3       58      156
      64      1       64       65
      65      2       64       66
      66      2       64       67
      67      2       64       68
      68      6       65       69
      69      6       65       70
      70      3       65      208
      71      1       71       72
      72      2       71       73
      73      2       71       74
      74      2       71       75
      75      6       72       76
      76      6       72       77
      77      3       72      209
      78      1       78       79
      79      2       78       80
      80      2       78       81
      81      2       78       82
      82      6       79       83
      83      6       79       84
      84      3       79      221
      85      1       85       86
      86      2       85       87
      87      2       85       88
      88      2       85       89
      89      6       86       90
      90      6       86       91
      91      3       86      222
      92      1       92       93
      93      2       92       94
      94      2       92       95
      95      2       92       96
      96      6       93       97
      97      6       93       98
      98      3       93      234
      99      1       99      100
     100      2       99      101
     101      2       99      102
     102      2       99      103
     103      6      100      104
     104      6      100      105
     105      3      100      235
     106      1      106      107
     107      2      106      108
     108      2      106      109
     109      2      106      110
     110      6      107      111
     111      6      107      112
     112      3      107      236
     113      3      113      114
     114      6      113      115
     115      6      113      116
     116      6      114      117
     117      6      114      118
     118      3      114      119
     119      3      119      120
     120      6      119      121
     121      6      119      122
     122      6      120      123
     123      6      120      124
     124      3      120      125
     125      3      125      126
     126      6      125      127
     127      6      125      128
     128      6      126      129
     129      6      126      130
     130      3      126      131
     131      3      131      132
     132      6      131      133
     133      6      131      134
     134      6      132      135
     135      6      132      136
     136      3      132      168
     137      3      137      138
     138      6      137      139
     139      6      137      140
     140      3      137      169
     141      6      138      141
     142      6      138      142
     143      3      143      144
     144      6      143      145
     145      6      143      146
     146      3      143      183
     147      6      144      147
     148      6      144      148
     149      3      144      194
     150      3      149      150
     151      6      149      151
     152      6      149      152
     153      3      149      248
     154      6      150      153
     155      6      150      154
     156      3      155      156
     157      6      155      157
     158      6      155      158
     159      3      155      259
     160      6      156      159
     161      6      156      160
     162      3      161      162
     163      6      161      163
     164      6      161      164
     165      3      161      223
     166      6      162      165
     167      6      162      166
     168      3      162      233
     169      5      167      168
     170      5      167      169
     171      5      167      170
     172      5      167      171
     173      6      168      172
     174      6      168      173
     175      6      169      174
     176      6      169      175
     177      6      170      176
     178      6      170      177
     179      3      170      181
     180      6      171      178
     181      6      171      179
     182      3      171      207
     183      5      180      181
     184      5      180      182
     185      5      180      183
     186      5      180      184
     187      6      181      185
     188      6      181      186
     189      6      182      187
     190      6      182      188
     191      6      183      189
     192      6      183      190
     193      6      184      191
     194      6      184      192
     195      3      184      257
     196      5      193      194
     197      5      193      195
     198      5      193      196
     199      5      193      197
     200      6      194      198
     201      6      194      199
     202      6      195      200
     203      6      195      201
     204      6      196      202
     205      6      196      203
     206      6      197      204
     207      6      197      205
     208      3      197      246
     209      5      206      207
     210      5      206      208
     211      5      206      209
     212      5      206      210
     213      6      207      211
     214      6      207      212
     215      6      208      213
     216      6      208      214
     217      6      209      215
     218      6      209      216
     219      6      210      217
     220      6      210      218
     221      3      210      220
     222      5      219      220
     223      5      219      221
     224      5      219      222
     225      5      219      223
     226      6      220      224
     227      6      220      225
     228      6      221      226
     229      6      221      227
     230      6      222      228
     231      6      222      229
     232      6      223      230
     233      6      223      231
     234      5      232      233
     235      5      232      234
     236      5      232      235
     237      5      232      236
     238      6      233      237
     239      6      233      238
     240      6      234      239
     241      6      234      240
     242      6      235      241
     243      6      235      242
     244      6      236      243
     245      6      236      244
     246      4      245      246
     247      4      245      247
     248      4      245      248
     249      7      245      249
     250      6      246      250
     251      6      246      251
     252      6      247      252
     253      6      247      253
     254      6      248      254
     255      6      248      255
     256      4      256      257
     257      4      256      258
     258      4      256      259
     259      7      256      260
     260      6      257      261
     261      6      257      262
     262      6      258      263
     263      6      258      264
     264      6      259      265
     265      6      259      266

Angles

       1      2        1        2        6
       2      2        1        2        7
       3      1        1        2      113
       4      3        2        1        3
       5      3        2        1        4
       6      3        2        1        5
       7      4        2      113      114
       8      7        2      113      115
       9      7        2      113      116
      10     13        3        1        4
      11     13        3        1        5
      12     13        4        1        5
      13     14        6        2        7
      14      7        6        2      113
      15      7        7        2      113
      16      2        8        9       13
      17      2        8        9       14
      18      1        8        9      138
      19      3        9        8       10
      20      3        9        8       11
      21      3        9        8       12
      22      4        9      138      137
      23      7        9      138      141
      24      7        9      138      142
      25     13       10        8       11
      26     13       10        8       12
      27     13       11        8       12
      28     14       13        9       14
      29      7       13        9      138
      30      7       14        9      138
      31      2       15       16       20
      32      2       15       16       21
      33      1       15       16      182
      34      3       16       15       17
      35      3       16       15       18
      36      3       16       15       19
      37      6       16      182      180
      38      7       16      182      187
      39      7       16      182      188
      40     13       17       15       18
      41     13       17       15       19
      42     13       18       15       19
      43     14       20       16       21
      44      7       20       16      182
      45      7       21       16      182
      46      2       22       23       27
      47      2       22       23       28
      48      1       22       23      195
      49      3       23       22       24
      50      3       23       22       25
      51      3       23       22       26
      52      6       23      195      193
      53      7       23      195      200
      54      7       23      195      201
      55     13       24       22       25
      56     13       24       22       26
      57     13       25       22       26
      58     14       27       23       28
      59      7       27       23      195
      60      7       28       23      195
      61      2       29       30       34
      62      2       29       30       35
      63      1       29       30      196
      64      3       30       29       31
      65      3       30       29       32
      66      3       30       29       33
      67      6       30      196      193
      68      7       30      196      202
      69      7       30      196      203
      70     13       31       29       32
      71     13       31       29       33
      72     13       32       29       33
      73     14       34       30       35
      74      7       34       30      196
      75      7       35       30      196
      76      2       36       37       41
      77      2       36       37       42
      78      1       36       37      247
      79      3       37       36       38
      80      3       37       36       39
      81      3       37       36       40
      82      5       37      247      245
      83      7       37      247      252
      84      7       37      247      253
      85     13       38       36       39
      86     13       38       36       40
      87     13       39       36       40
      88     14       41       37       42
      89      7       41       37      247
      90      7       42       37      247
      91      2       43       44       48
      92      2       43       44       49
      93      1       43       44      150
      94      3       44       43       45
      95      3       44       43       46
      96      3       44       43       47
      97      4       44      150      149
      98      7       44      150      153
      99      7       44      150      154
     100     13       45       43       46
     101     13       45       43       47
     102     13       46       43       47
     103     14       48       44       49
     104      7       48       44      150
     105      7       49       44      150
     106      2       50       51       55
     107      2       50       51       56
     108      1       50       51      258
     109      3       51       50       52
     110      3       51       50       53
     111      3       51       50       54
     112      5       51      258      256
     113      7       51      258      263
     114      7       51      258      264
     115     13       52       50       53
     116     13       52       50       54
     117     13       53       50       54
     118     14       55       51       56
     119      7       55       51      258
     120      7       56       51      258
     121      2       57       58       62
     122      2       57       58       63
     123      1       57       58      156
     124      3       58       57       59
     125      3       58       57       60
     126      3       58       57       61
     127      4       58      156      155
     128      7       58      156      159
     129      7       58      156      160
     130     13       59       57       60
     131     13       59       57       61
     132     13       60       57       61
     133     14       62       58       63
     134      7       62       58      156
     135      7       63       58      156
     136      2       64       65       69
     137      2       64       65       70
     138      1       64       65      208
     139      3       65       64       66
     140      3       65       64       67
     141      3       65       64       68
     142      6       65      208      206
     143      7       65      208      213
     144      7       65      208      214
     145     13       66       64       67
     146     13       66       64       68
     147     13       67       64       68
     148     14       69       65       70
     149      7       69       65      208
     150      7       70       65      208
     151      2       71       72       76
     152      2       71       72       77
     153      1       71       72      209
     154      3       72       71       73
     155      3       72       71       74
     156      3       72       71       75
     157      6       72      209      206
     158      7       72      209      215
     159      7       72      209      216
     160     13       73       71       74
     161     13       73       71       75
     162     13       74       71       75
     163     14       76       72       77
     164      7       76       72      209
     165      7       77       72      209
     166      2       78       79       83
     167      2       78       79       84
     168      1       78       79      221
     169      3       79       78       80
     170      3       79       78       81
     171      3       79       78       82
     172      6       79      221      219
     173      7       79      221      226
     174      7       79      221      227
     175     13       80       78       81
     176     13       80       78       82
     177     13       81       78       82
     178     14       83       79       84
     179      7       83       79      221
     180      7       84       79      221
     181      2       85       86       90
     182      2       85       86       91
     183      1       85       86      222
     184      3       86       85       87
     185      3       86       85       88
     186      3       86       85       89
     187      6       86      222      219
     188      7       86      222      228
     189      7       86      222      229
     190     13       87       85       88
     191     13       87       85       89
     192     13       88       85       89
     193     14       90       86       91
     194      7       90       86      222
     195      7       91       86      222
     196      2       92       93       97
     197      2       92       93       98
     198      1       92       93      234
     199      3       93       92       94
     200      3       93       92       95
     201      3       93       92       96
     202      6       93      234      232
     203      7       93      234      239
     204      7       93      234      240
     205     13       94       92       95
     206     13       94       92       96
     207     13       95       92       96
     208     14       97       93       98
     209      7       97       93      234
     210      7       98       93      234
     211      2       99      100      104
     212      2       99      100      105
     213      1       99      100      235
     214      3      100       99      101
     215      3      100       99      102
     216      3      100       99      103
     217      6      100      235      232
     218      7      100      235      241
     219      7      100      235      242
     220     13      101       99      102
     221     13      101       99      103
     222     13      102       99      103
     223     14      104      100      105
     224      7      104      100      235
     225      7      105      100      235
     226      2      106      107      111
     227      2      106      107      112
     228      1      106      107      236
     229      3      107      106      108
     230      3      107      106      109
     231      3      107      106      110
     232      6      107      236      232
     233      7      107      236      243
     234      7      107      236      244
     235     13      108      106      109
     236     13      108      106      110
     237     13      109      106      110
     238     14      111      107      112
     239      7      111      107      236
     240      7      112      107      236
     241      7      113      114      117
     242      7      113      114      118
     243      4      113      114      119
     244      7      114      113      115
     245      7      114      113      116
     246      4      114      119      120
     247      7      114      119      121
     248      7      114      119      122
     249     14      115      113      116
     250     14      117      114      118
     251      7      117      114      119
     252      7      118      114      119
     253      7      119      120      123
     254      7      119      120      124
     255      4      119      120      125
     256      7      120      119      121
     257      7      120      119      122
     258      4      120      125      126
     259      7      120      125      127
     260      7      120      125      128
     261     14      121      119      122
     262     14      123      120      124
     263      7      123      120      125
     264      7      124      120      125
     265      7      125      126      129
     266      7      125      126      130
     267      4      125      126      131
     268      7      126      125      127
     269      7      126      125      128
     270      4      126      131      132
     271      7      126      131      133
     272      7      126      131      134
     273     14      127      125      128
     274     14      129      126      130
     275      7      129      126      131
     276      7      130      126      131
     277      7      131      132      135
     278      7      131      132      136
     279      4      131      132      168
     280      7      132      131      133
     281      7      132      131      134
     282      6      132      168      167
     283      7      132      168      172
     284      7      132      168      173
     285     14      133      131      134
     286     14      135      132      136
     287      7      135      132      168
     288      7      136      132      168
     289      7      137      138      141
     290      7      137      138      142
     291      6      137      169      167
     292      7      137      169      174
     293      7      137      169      175
     294      7      138      137      139
     295      7      138      137      140
     296      4      138      137      169
     297     14      139      137      140
     298      7      139      137      169
     299      7      140      137      169
     300     14      141      138      142
     301      7      143      144      147
     302      7      143      144      148
     303      4      143      144      194
     304      6      143      183      180
     305      7      143      183      189
     306      7      143      183      190
     307      7      144      143      145
     308      7      144      143      146
     309      4      144      143      183
     310      6      144      194      193
     311      7      144      194      198
     312      7      144      194      199
     313     14      145      143      146
     314      7      145      143      183
     315      7      146      143      183
     316     14      147      144      148
     317      7      147      144      194
     318      7      148      144      194
     319      7      149      150      153
     320      7      149      150      154
     321      5      149      248      245
     322      7      149      248      254
     323      7      149      248      255
     324      7      150      149      151
     325      7      150      149      152
     326      4      150      149      248
     327     14      151      149      152
     328      7      151      149      248
     329      7      152      149      248
     330     14      153      150      154
     331      7      155      156      159
     332      7      155      156      160
     333      5      155      259      256
     334      7      155      259      265
     335      7      155      259      266
     336      7      156      155      157
     337      7      156      155      158
     338      4      156      155      259
     339     14      157      155      158
     340      7      157      155      259
     341      7      158      155      259
     342     14      159      156      160
     343      7      161      162      165
     344      7      161      162      166
     345      4      161      162      233
     346      6      161      223      219
     347      7      161      223      230
     348      7      161      223      231
     349      7      162      161      163
     350      7      162      161      164
     351      4      162      161      223
     352      6      162      233      232
     353      7      162      233      237
     354      7      162      233      238
     355     14      163      161      164
     356      7      163      161      223
     357      7      164      161      223
     358     14      165      162      166
     359      7      165      162      233
     360      7      166      162      233
     361     12      167      168      172
     362     12      167      168      173
     363     12      167      169      174
     364     12      167      169      175
     365     12      167      170      176
     366     12      167      170      177
     367      6      167      170      181
     368     12      167      171      178
     369     12      167      171      179
     370      6      167      171      207
     371     10      168      167      169
     372     10      168      167      170
     373     10      168      167      171
     374     10      169      167      170
     375     10      169      167      171
     376     10      170      167      171
     377      6      170      181      180
     378      7      170      181      185
     379      7      170      181      186
     380      6      171      207      206
     381      7      171      207      211
     382      7      171      207      212
     383     14      172      168      173
     384     14      174      169      175
     385     14      176      170      177
     386      7      176      170      181
     387      7      177      170      181
     388     14      178      171      179
     389      7      178      171      207
     390      7      179      171      207
     391     12      180      181      185
     392     12      180      181      186
     393     12      180      182      187
     394     12      180      182      188
     395     12      180      183      189
     396     12      180      183      190
     397     12      180      184      191
     398     12      180      184      192
     399      6      180      184      257
     400     10      181      180      182
     401     10      181      180      183
     402     10      181      180      184
     403     10      182      180      183
     404     10      182      180      184
     405     10      183      180      184
     406      5      184      257      256
     407      7      184      257      261
     408      7      184      257      262
     409     14      185      181      186
     410     14      187      182      188
     411     14      189      183      190
     412     14      191      184      192
     413      7      191      184      257
     414      7      192      184      257
     415     12      193      194      198
     416     12      193      194      199
     417     12      193      195      200
     418     12      193      195      201
     419     12      193      196      202
     420     12      193      196      203
     421     12      193      197      204
     422     12      193      197      205
     423      6      193      197      246
     424     10      194      193      195
     425     10      194      193      196
     426     10      194      193      197
     427     10      195      193      196
     428     10      195      193      197
     429     10      196      193      197
     430      5      197      246      245
     431      7      197      246      250
     432      7      197      246      251
     433     14      198      194      199
     434     14      200      195      201
     435     14      202      196      203
     436     14      204      197      205
     437      7      204      197      246
     438      7      205      197      246
     439     12      206      207      211
     440     12      206      207      212
     441     12      206      208      213
     442     12      206      208      214
     443     12      206      209      215
     444     12      206      209      216
     445     12      206      210      217
     446     12      206      210      218
     447      6      206      210      220
     448     10      207      206      208
     449     10      207      206      209
     450     10      207      206      210
     451     10      208      206      209
     452     10      208      206      210
     453     10      209      206      210
     454      6      210      220      219
     455      7      210      220      224
     456      7      210      220      225
     457     14      211      207      212
     458     14      213      208      214
     459     14      215      209      216
     460     14      217      210      218
     461      7      217      210      220
     462      7      218      210      220
     463     12      219      220      224
     464     12      219      220      225
     465     12      219      221      226
     466     12      219      221      227
     467     12      219      222      228
     468     12      219      222      229
     469     12      219      223      230
     470     12      219      223      231
     471     10      220      219      221
     472     10      220      219      222
     473     10      220      219      223
     474     10      221      219      222
     475     10      221      219      223
     476     10      222      219      223
     477     14      224      220      225
     478     14      226      221      227
     479     14      228      222      229
     480     14      230      223      231
     481     12      232      233      237
     482     12      232      233      238
     483     12      232      234      239
     484     12      232      234      240
     485     12      232      235      241
     486     12      232      235      242
     487     12      232      236      243
     488     12      232      236      244
     489     10      233      232      234
     490     10      233      232      235
     491     10      233      232      236
     492     10      234      232      235
     493     10      234      232      236
     494     10      235      232      236
     495     14      237      233      238
     496     14      239      234      240
     497     14      241      235      242
     498     14      243      236      244
     499     11      245      246      250
     500     11      245      246      251
     501     11      245      247      252
     502     11      245      247      253
     503     11      245      248      254
     504     11      245      248      255
     505      8      246      245      247
     506      8      246      245      248
     507      9      246      245      249
     508      8      247      245      248
     509      9      247      245      249
     510      9      248      245      249
     511     14      250      246      251
     512     14      252      247      253
     513     14      254      248      255
     514     11      256      257      261
     515     11      256      257      262
     516     11      256      258      263
     517     11      256      258      264
     518     11      256      259      265
     519     11      256      259      266
     520      8      257      256      258
     521      8      257      256      259
     522      9      257      256      260
     523      8      258      256      259
     524      9      258      256      260
     525      9      259      256      260
     526     14      261      257      262
     527     14      263      258      264
     528     14      265      259      266

Dihedrals

       1      1        1        2      113      114
       2      4        1        2      113      115
       3      4        1        2      113      116
       4      9        2      113      114      117
       5      9        2      113      114      118
       6      6        2      113      114      119
       7     19        3        1        2        6
       8     19        3        1        2        7
       9      5        3        1        2      113
      10     19        4        1        2        6
      11     19        4        1        2        7
      12      5        4        1        2      113
      13     19        5        1        2        6
      14     19        5        1        2        7
      15      5        5        1        2      113
      16      9        6        2      113      114
      17     20        6        2      113      115
      18     20        6        2      113      116
      19      9        7        2      113      114
      20     20        7        2      113      115
      21     20        7        2      113      116
      22      1        8        9      138      137
      23      4        8        9      138      141
      24      4        8        9      138      142
      25      9        9      138      137      139
      26      9        9      138      137      140
      27      6        9      138      137      169
      28     19       10        8        9       13
      29     19       10        8        9       14
      30      5       10        8        9      138
      31     19       11        8        9       13
      32     19       11        8        9       14
      33      5       11        8        9      138
      34     19       12        8        9       13
      35     19       12        8        9       14
      36      5       12        8        9      138
      37      9       13        9      138      137
      38     20       13        9      138      141
      39     20       13        9      138      142
      40      9       14        9      138      137
      41     20       14        9      138      141
      42     20       14        9      138      142
      43      3       15       16      182      180
      44      4       15       16      182      187
      45      4       15       16      182      188
      46     12       16      182      180      181
      47     12       16      182      180      183
      48     12       16      182      180      184
      49     19       17       15       16       20
      50     19       17       15       16       21
      51      5       17       15       16      182
      52     19       18       15       16       20
      53     19       18       15       16       21
      54      5       18       15       16      182
      55     19       19       15       16       20
      56     19       19       15       16       21
      57      5       19       15       16      182
      58     18       20       16      182      180
      59     20       20       16      182      187
      60     20       20       16      182      188
      61     18       21       16      182      180
      62     20       21       16      182      187
      63     20       21       16      182      188
      64      3       22       23      195      193
      65      4       22       23      195      200
      66      4       22       23      195      201
      67     12       23      195      193      194
      68     12       23      195      193      196
      69     12       23      195      193      197
      70     19       24       22       23       27
      71     19       24       22       23       28
      72      5       24       22       23      195
      73     19       25       22       23       27
      74     19       25       22       23       28
      75      5       25       22       23      195
      76     19       26       22       23       27
      77     19       26       22       23       28
      78      5       26       22       23      195
      79     18       27       23      195      193
      80     20       27       23      195      200
      81     20       27       23      195      201
      82     18       28       23      195      193
      83     20       28       23      195      200
      84     20       28       23      195      201
      85      3       29       30      196      193
      86      4       29       30      196      202
      87      4       29       30      196      203
      88     12       30      196      193      194
      89     12       30      196      193      195
      90     12       30      196      193      197
      91     19       31       29       30       34
      92     19       31       29       30       35
      93      5       31       29       30      196
      94     19       32       29       30       34
      95     19       32       29       30       35
      96      5       32       29       30      196
      97     19       33       29       30       34
      98     19       33       29       30       35
      99      5       33       29       30      196
     100     18       34       30      196      193
     101     20       34       30      196      202
     102     20       34       30      196      203
     103     18       35       30      196      193
     104     20       35       30      196      202
     105     20       35       30      196      203
     106      2       36       37      247      245
     107      4       36       37      247      252
     108      4       36       37      247      253
     109     10       37      247      245      246
     110     10       37      247      245      248
     111     11       37      247      245      249
     112     19       38       36       37       41
     113     19       38       36       37       42
     114      5       38       36       37      247
     115     19       39       36       37       41
     116     19       39       36       37       42
     117      5       39       36       37      247
     118     19       40       36       37       41
     119     19       40       36       37       42
     120      5       40       36       37      247
     121     16       41       37      247      245
     122     20       41       37      247      252
     123     20       41       37      247      253
     124     16       42       37      247      245
     125     20       42       37      247      252
     126     20       42       37      247      253
     127      1       43       44      150      149
     128      4       43       44      150      153
     129      4       43       44      150      154
     130      9       44      150      149      151
     131      9       44      150      149      152
     132      6       44      150      149      248
     133     19       45       43       44       48
     134     19       45       43       44       49
     135      5       45       43       44      150
     136     19       46       43       44       48
     137     19       46       43       44       49
     138      5       46       43       44      150
     139     19       47       43       44       48
     140     19       47       43       44       49
     141      5       47       43       44      150
     142      9       48       44      150      149
     143     20       48       44      150      153
     144     20       48       44      150      154
     145      9       49       44      150      149
     146     20       49       44      150      153
     147     20       49       44      150      154
     148      2       50       51      258      256
     149      4       50       51      258      263
     150      4       50       51      258      264
     151     10       51      258      256      257
     152     10       51      258      256      259
     153     11       51      258      256      260
     154     19       52       50       51       55
     155     19       52       50       51       56
     156      5       52       50       51      258
     157     19       53       50       51       55
     158     19       53       50       51       56
     159      5       53       50       51      258
     160     19       54       50       51       55
     161     19       54       50       51       56
     162      5       54       50       51      258
     163     16       55       51      258      256
     164     20       55       51      258      263
     165     20       55       51      258      264
     166     16       56       51      258      256
     167     20       56       51      258      263
     168     20       56       51      258      264
     169      1       57       58      156      155
     170      4       57       58      156      159
     171      4       57       58      156      160
     172      9       58      156      155      157
     173      9       58      156      155      158
     174      6       58      156      155      259
     175     19       59       57       58       62
     176     19       59       57       58       63
     177      5       59       57       58      156
     178     19       60       57       58       62
     179     19       60       57       58       63
     180      5       60       57       58      156
     181     19       61       57       58       62
     182     19       61       57       58       63
     183      5       61       57       58      156
     184      9       62       58      156      155
     185     20       62       58      156      159
     186     20       62       58      156      160
     187      9       63       58      156      155
     188     20       63       58      156      159
     189     20       63       58      156      160
     190      3       64       65      208      206
     191      4       64       65      208      213
     192      4       64       65      208      214
     193     12       65      208      206      207
     194     12       65      208      206      209
     195     12       65      208      206      210
     196     19       66       64       65       69
     197     19       66       64       65       70
     198      5       66       64       65      208
     199     19       67       64       65       69
     200     19       67       64       65       70
     201      5       67       64       65      208
     202     19       68       64       65       69
     203     19       68       64       65       70
     204      5       68       64       65      208
     205     18       69       65      208      206
     206     20       69       65      208      213
     207     20       69       65      208      214
     208     18       70       65      208      206
     209     20       70       65      208      213
     210     20       70       65      208      214
     211      3       71       72      209      206
     212      4       71       72      209      215
     213      4       71       72      209      216
     214     12       72      209      206      207
     215     12       72      209      206      208
     216     12       72      209      206      210
     217     19       73       71       72       76
     218     19       73       71       72       77
     219      5       73       71       72      209
     220     19       74       71       72       76
     221     19       74       71       72       77
     222      5       74       71       72      209
     223     19       75       71       72       76
     224     19       75       71       72       77
     225      5       75       71       72      209
     226     18       76       72      209      206
     227     20       76       72      209      215
     228     20       76       72      209      216
     229     18       77       72      209      206
     230     20       77       72      209      215
     231     20       77       72      209      216
     232      3       78       79      221      219
     233      4       78       79      221      226
     234      4       78       79      221      227
     235     12       79      221      219      220
     236     12       79      221      219      222
     237     12       79      221      219      223
     238     19       80       78       79       83
     239     19       80       78       79       84
     240      5       80       78       79      221
     241     19       81       78       79       83
     242     19       81       78       79       84
     243      5       81       78       79      221
     244     19       82       78       79       83
     245     19       82       78       79       84
     246      5       82       78       79      221
     247     18       83       79      221      219
     248     20       83       79      221      226
     249     20       83       79      221      227
     250     18       84       79      221      219
     251     20       84       79      221      226
     252     20       84       79      221      227
     253      3       85       86      222      219
     254      4       85       86      222      228
     255      4       85       86      222      229
     256     12       86      222      219      220
     257     12       86      222      219      221
     258     12       86      222      219      223
     259     19       87       85       86       90
     260     19       87       85       86       91
     261      5       87       85       86      222
     262     19       88       85       86       90
     263     19       88       85       86       91
     264      5       88       85       86      222
     265     19       89       85       86       90
     266     19       89       85       86       91
     267      5       89       85       86      222
     268     18       90       86      222      219
     269     20       90       86      222      228
     270     20       90       86      222      229
     271     18       91       86      222      219
     272     20       91       86      222      228
     273     20       91       86      222      229
     274      3       92       93      234      232
     275      4       92       93      234      239
     276      4       92       93      234      240
     277     12       93      234      232      233
     278     12       93      234      232      235
     279     12       93      234      232      236
     280     19       94       92       93       97
     281     19       94       92       93       98
     282      5       94       92       93      234
     283     19       95       92       93       97
     284     19       95       92       93       98
     285      5       95       92       93      234
     286     19       96       92       93       97
     287     19       96       92       93       98
     288      5       96       92       93      234
     289     18       97       93      234      232
     290     20       97       93      234      239
     291     20       97       93      234      240
     292     18       98       93      234      232
     293     20       98       93      234      239
     294     20       98       93      234      240
     295      3       99      100      235      232
     296      4       99      100      235      241
     297      4       99      100      235      242
     298     12      100      235      232      233
     299     12      100      235      232      234
     300     12      100      235      232      236
     301     19      101       99      100      104
     302     19      101       99      100      105
     303      5      101       99      100      235
     304     19      102       99      100      104
     305     19      102       99      100      105
     306      5      102       99      100      235
     307     19      103       99      100      104
     308     19      103       99      100      105
     309      5      103       99      100      235
     310     18      104      100      235      232
     311     20      104      100      235      241
     312     20      104      100      235      242
     313     18      105      100      235      232
     314     20      105      100      235      241
     315     20      105      100      235      242
     316      3      106      107      236      232
     317      4      106      107      236      243
     318      4      106      107      236      244
     319     12      107      236      232      233
     320     12      107      236      232      234
     321     12      107      236      232      235
     322     19      108      106      107      111
     323     19      108      106      107      112
     324      5      108      106      107      236
     325     19      109      106      107      111
     326     19      109      106      107      112
     327      5      109      106      107      236
     328     19      110      106      107      111
     329     19      110      106      107      112
     330      5      110      106      107      236
     331     18      111      107      236      232
     332     20      111      107      236      243
     333     20      111      107      236      244
     334     18      112      107      236      232
     335     20      112      107      236      243
     336     20      112      107      236      244
     337      6      113      114      119      120
     338      9      113      114      119      121
     339      9      113      114      119      122
     340      9      114      119      120      123
     341      9      114      119      120      124
     342      6      114      119      120      125
     343     20      115      113      114      117
     344     20      115      113      114      118
     345      9      115      113      114      119
     346     20      116      113      114      117
     347     20      116      113      114      118
     348      9      116      113      114      119
     349      9      117      114      119      120
     350     20      117      114      119      121
     351     20      117      114      119      122
     352      9      118      114      119      120
     353     20      118      114      119      121
     354     20      118      114      119      122
     355      6      119      120      125      126
     356      9      119      120      125      127
     357      9      119      120      125      128
     358      9      120      125      126      129
     359      9      120      125      126      130
     360      6      120      125      126      131
     361     20      121      119      120      123
     362     20      121      119      120      124
     363      9      121      119      120      125
     364     20      122      119      120      123
     365     20      122      119      120      124
     366      9      122      119      120      125
     367      9      123      120      125      126
     368     20      123      120      125      127
     369     20      123      120      125      128
     370      9      124      120      125      126
     371     20      124      120      125      127
     372     20      124      120      125      128
     373      6      125      126      131      132
     374      9      125      126      131      133
     375      9      125      126      131      134
     376      9      126      131      132      135
     377      9      126      131      132      136
     378      6      126      131      132      168
     379     20      127      125      126      129
     380     20      127      125      126      130
     381      9      127      125      126      131
     382     20      128      125      126      129
     383     20      128      125      126      130
     384      9      128      125      126      131
     385      9      129      126      131      132
     386     20      129      126      131      133
     387     20      129      126      131      134
     388      9      130      126      131      132
     389     20      130      126      131      133
     390     20      130      126      131      134
     391      8      131      132      168      167
     392      9      131      132      168      172
     393      9      131      132      168      173
     394     12      132      168      167      169
     395     12      132      168      167      170
     396     12      132      168      167      171
     397     20      133      131      132      135
     398     20      133      131      132      136
     399      9      133      131      132      168
     400     20      134      131      132      135
     401     20      134      131      132      136
     402      9      134      131      132      168
     403     18      135      132      168      167
     404     20      135      132      168      172
     405     20      135      132      168      173
     406     18      136      132      168      167
     407     20      136      132      168      172
     408     20      136      132      168      173
     409     12      137      169      167      168
     410     12      137      169      167      170
     411     12      137      169      167      171
     412      8      138      137      169      167
     413      9      138      137      169      174
     414      9      138      137      169      175
     415     20      139      137      138      141
     416     20      139      137      138      142
     417     18      139      137      169      167
     418     20      139      137      169      174
     419     20      139      137      169      175
     420     20      140      137      138      141
     421     20      140      137      138      142
     422     18      140      137      169      167
     423     20      140      137      169      174
     424     20      140      137      169      175
     425      9      141      138      137      169
     426      9      142      138      137      169
     427      8      143      144      194      193
     428      9      143      144      194      198
     429      9      143      144      194      199
     430     12      143      183      180      181
     431     12      143      183      180      182
     432     12      143      183      180      184
     433      8      144      143      183      180
     434      9      144      143      183      189
     435      9      144      143      183      190
     436     12      144      194      193      195
     437     12      144      194      193      196
     438     12      144      194      193      197
     439     20      145      143      144      147
     440     20      145      143      144      148
     441      9      145      143      144      194
     442     18      145      143      183      180
     443     20      145      143      183      189
     444     20      145      143      183      190
     445     20      146      143      144      147
     446     20      146      143      144      148
     447      9      146      143      144      194
     448     18      146      143      183      180
     449     20      146      143      183      189
     450     20      146      143      183      190
     451      9      147      144      143      183
     452     18      147      144      194      193
     453     20      147      144      194      198
     454     20      147      144      194      199
     455      9      148      144      143      183
     456     18      148      144      194      193
     457     20      148      144      194      198
     458     20      148      144      194      199
     459     10      149      248      245      246
     460     10      149      248      245      247
     461     11      149      248      245      249
     462      7      150      149      248      245
     463      9      150      149      248      254
     464      9      150      149      248      255
     465     20      151      149      150      153
     466     20      151      149      150      154
     467     16      151      149      248      245
     468     20      151      149      248      254
     469     20      151      149      248      255
     470     20      152      149      150      153
     471     20      152      149      150      154
     472     16      152      149      248      245
     473     20      152      149      248      254
     474     20      152      149      248      255
     475      9      153      150      149      248
     476      9      154      150      149      248
     477     10      155      259      256      257
     478     10      155      259      256      258
     479     11      155      259      256      260
     480      7      156      155      259      256
     481      9      156      155      259      265
     482      9      156      155      259      266
     483     20      157      155      156      159
     484     20      157      155      156      160
     485     16      157      155      259      256
     486     20      157      155      259      265
     487     20      157      155      259      266
     488     20      158      155      156      159
     489     20      158      155      156      160
     490     16      158      155      259      256
     491     20      158      155      259      265
     492     20      158      155      259      266
     493      9      159      156      155      259
     494      9      160      156      155      259
     495      8      161      162      233      232
     496      9      161      162      233      237
     497      9      161      162      233      238
     498     12      161      223      219      220
     499     12      161      223      219      221
     500     12      161      223      219      222
     501      8      162      161      223      219
     502      9      162      161      223      230
     503      9      162      161      223      231
     504     12      162      233      232      234
     505     12      162      233      232      235
     506     12      162      233      232      236
     507     20      163      161      162      165
     508     20      163      161      162      166
     509      9      163      161      162      233
     510     18      163      161      223      219
     511     20      163      161      223      230
     512     20      163      161      223      231
     513     20      164      161      162      165
     514     20      164      161      162      166
     515      9      164      161      162      233
     516     18      164      161      223      219
     517     20      164      161      223      230
     518     20      164      161      223      231
     519      9      165      162      161      223
     520     18      165      162      233      232
     521     20      165      162      233      237
     522     20      165      162      233      238
     523      9      166      162      161      223
     524     18      166      162      233      232
     525     20      166      162      233      237
     526     20      166      162      233      238
     527     17      167      170      181      180
     528     18      167      170      181      185
     529     18      167      170      181      186
     530     17      167      171      207      206
     531     18      167      171      207      211
     532     18      167      171      207      212
     533     14      168      167      169      174
     534     14      168      167      169      175
     535     14      168      167      170      176
     536     14      168      167      170      177
     537     12      168      167      170      181
     538     14      168      167      171      178
     539     14      168      167      171      179
     540     12      168      167      171      207
     541     14      169      167      168      172
     542     14      169      167      168      173
     543     14      169      167      170      176
     544     14      169      167      170      177
     545     12      169      167      170      181
     546     14      169      167      171      178
     547     14      169      167      171      179
     548     12      169      167      171      207
     549     14      170      167      168      172
     550     14      170      167      168      173
     551     14      170      167      169      174
     552     14      170      167      169      175
     553     14      170      167      171      178
     554     14      170      167      171      179
     555     12      170      167      171      207
     556     12      170      181      180      182
     557     12      170      181      180      183
     558     12      170      181      180      184
     559     14      171      167      168      172
     560     14      171      167      168      173
     561     14      171      167      169      174
     562     14      171      167      169      175
     563     14      171      167      170      176
     564     14      171      167      170      177
     565     12      171      167      170      181
     566     12      171      207      206      208
     567     12      171      207      206      209
     568     12      171      207      206      210
     569     18      176      170      181      180
     570     20      176      170      181      185
     571     20      176      170      181      186
     572     18      177      170      181      180
     573     20      177      170      181      185
     574     20      177      170      181      186
     575     18      178      171      207      206
     576     20      178      171      207      211
     577     20      178      171      207      212
     578     18      179      171      207      206
     579     20      179      171      207      211
     580     20      179      171      207      212
     581     15      180      184      257      256
     582     18      180      184      257      261
     583     18      180      184      257      262
     584     14      181      180      182      187
     585     14      181      180      182      188
     586     14      181      180      183      189
     587     14      181      180      183      190
     588     14      181      180      184      191
     589     14      181      180      184      192
     590     12      181      180      184      257
     591     14      182      180      181      185
     592     14      182      180      181      186
     593     14      182      180      183      189
     594     14      182      180      183      190
     595     14      182      180      184      191
     596     14      182      180      184      192
     597     12      182      180      184      257
     598      6      183      143      144      194
     599     14      183      180      181      185
     600     14      183      180      181      186
     601     14      183      180      182      187
     602     14      183      180      182      188
     603     14      183      180      184      191
     604     14      183      180      184      192
     605     12      183      180      184      257
     606     14      184      180      181      185
     607     14      184      180      181      186
     608     14      184      180      182      187
     609     14      184      180      182      188
     610     14      184      180      183      189
     611     14      184      180      183      190
     612     10      184      257      256      258
     613     10      184      257      256      259
     614     11      184      257      256      260
     615     16      191      184      257      256
     616     20      191      184      257      261
     617     20      191      184      257      262
     618     16      192      184      257      256
     619     20      192      184      257      261
     620     20      192      184      257      262
     621     15      193      197      246      245
     622     18      193      197      246      250
     623     18      193      197      246      251
     624     14      194      193      195      200
     625     14      194      193      195      201
     626     14      194      193      196      202
     627     14      194      193      196      203
     628     14      194      193      197      204
     629     14      194      193      197      205
     630     12      194      193      197      246
     631     14      195      193      194      198
     632     14      195      193      194      199
     633     14      195      193      196      202
     634     14      195      193      196      203
     635     14      195      193      197      204
     636     14      195      193      197      205
     637     12      195      193      197      246
     638     14      196      193      194      198
     639     14      196      193      194      199
     640     14      196      193      195      200
     641     14      196      193      195      201
     642     14      196      193      197      204
     643     14      196      193      197      205
     644     12      196      193      197      246
     645     14      197      193      194      198
     646     14      197      193      194      199
     647     14      197      193      195      200
     648     14      197      193      195      201
     649     14      197      193      196      202
     650     14      197      193      196      203
     651     10      197      246      245      247
     652     10      197      246      245      248
     653     11      197      246      245      249
     654     16      204      197      246      245
     655     20      204      197      246      250
     656     20      204      197      246      251
     657     16      205      197      246      245
     658     20      205      197      246      250
     659     20      205      197      246      251
     660     17      206      210      220      219
     661     18      206      210      220      224
     662     18      206      210      220      225
     663     14      207      206      208      213
     664     14      207      206      208      214
     665     14      207      206      209      215
     666     14      207      206      209      216
     667     14      207      206      210      217
     668     14      207      206      210      218
     669     12      207      206      210      220
     670     14      208      206      207      211
     671     14      208      206      207      212
     672     14      208      206      209      215
     673     14      208      206      209      216
     674     14      208      206      210      217
     675     14      208      206      210      218
     676     12      208      206      210      220
     677     14      209      206      207      211
     678     14      209      206      207      212
     679     14      209      206      208      213
     680     14      209      206      208      214
     681     14      209      206      210      217
     682     14      209      206      210      218
     683     12      209      206      210      220
     684     14      210      206      207      211
     685     14      210      206      207      212
     686     14      210      206      208      213
     687     14      210      206      208      214
     688     14      210      206      209      215
     689     14      210      206      209      216
     690     12      210      220      219      221
     691     12      210      220      219      222
     692     12      210      220      219      223
     693     18      217      210      220      219
     694     20      217      210      220      224
     695     20      217      210      220      225
     696     18      218      210      220      219
     697     20      218      210      220      224
     698     20      218      210      220      225
     699     14      220      219      221      226
     700     14      220      219      221      227
     701     14      220      219      222      228
     702     14      220      219      222      229
     703     14      220      219      223      230
     704     14      220      219      223      231
     705     14      221      219      220      224
     706     14      221      219      220      225
     707     14      221      219      222      228
     708     14      221      219      222      229
     709     14      221      219      223      230
     710     14      221      219      223      231
     711     14      222      219      220      224
     712     14      222      219      220      225
     713     14      222      219      221      226
     714     14      222      219      221      227
     715     14      222      219      223      230
     716     14      222      219      223      231
     717      6      223      161      162      233
     718     14      223      219      220      224
     719     14      223      219      220      225
     720     14      223      219      221      226
     721     14      223      219      221      227
     722     14      223      219      222      228
     723     14      223      219      222      229
     724     14      233      232      234      239
     725     14      233      232      234      240
     726     14      233      232      235      241
     727     14      233      232      235      242
     728     14      233      232      236      243
     729     14      233      232      236      244
     730     14      234      232      233      237
     731     14      234      232      233      238
     732     14      234      232      235      241
     733     14      234      232      235      242
     734     14      234      232      236      243
     735     14      234      232      236      244
     736     14      235      232      233      237
     737     14      235      232      233      238
     738     14      235      232      234      239
     739     14      235      232      234      240
     740     14      235      232      236      243
     741     14      235      232      236      244
     742     14      236      232      233      237
     743     14      236      232      233      238
     744     14      236      232      234      239
     745     14      236      232      234      240
     746     14      236      232      235      241
     747     14      236      232      235      242
     748     13      246      245      247      252
     749     13      246      245      247      253
     750     13      246      245      248      254
     751     13      246      245      248      255
     752     13      247      245      246      250
     753     13      247      245      246      251
     754     13      247      245      248      254
     755     13      247      245      248      255
     756     13      248      245      246      250
     757     13      248      245      246      251
     758     13      248      245      247      252
     759     13      248      245      247      253
     760     21      249      245      246      250
     761     21      249      245      246      251
     762     21      249      245      247      252
     763     21      249      245      247      253
     764     21      249      245      248      254
     765     21      249      245      248      255
     766     13      257      256      258      263
     767     13      257      256      258      264
     768     13      257      256      259      265
     769     13      257      256      259      266
     770     13      258      256      257      261
     771     13      258      256      257      262
     772     13      258      256      259      265
     773     13      258      256      259      266
     774     13      259      256      257      261
     775     13      259      256      257      262
     776     13      259      256      258      263
     777     13      259      256      258      264
     778     21      260      256      257      261
     779     21      260      256      257      262
     780     21      260      256      258      263
     781     21      260      256      258      264
     782     21      260      256      259      265
     783     21      260      256      259      266

Impropers


