LAMMPS data file generated by clean-room 1-hop pipeline

     185 atoms
     184 bonds
     366 angles
     540 dihedrals
       0 impropers

       4 atom types
       5 bond types
      10 angle types
      11 dihedral types
       0 improper types

  -29.903300    37.158500 xlo xhi
  -29.136500    29.946100 ylo yhi
  -38.389100    33.724600 zlo zhi

Masses

       1    12.011000
       2    12.011000
       3    12.011000
       4     1.008000

Pair Coeffs

       1     0.066000     3.500000
       2     0.066000     3.500000
       3     0.066000     3.500000
       4     0.030000     2.500000

Bond Coeffs

       1   268.000000     1.529000
       2   340.000000     1.090000
       3   268.000000     1.529000
       4   268.000000     1.529000
       5   340.000000     1.090000

Angle Coeffs

       1    58.350000   112.700000
       2    37.500000   110.700000
       3    37.500000   110.700000
       4    58.350000   112.700000
       5    58.350000   112.700000
       6    37.500000   110.700000
       7    58.350000   112.700000
       8    37.500000   110.700000
       9    33.000000   107.800000
      10    33.000000   107.800000

Dihedral Coeffs

       1     0.850000    -0.200000     0.200000     0.000000
       2     0.000000     0.000000     0.300000     0.000000
       3     0.000000     0.000000     0.300000     0.000000
       4     0.850000    -0.200000     0.200000     0.000000
       5     0.850000    -0.200000     0.200000     0.000000
       6     0.000000     0.000000     0.300000     0.000000
       7     0.850000    -0.200000     0.200000     0.000000
       8     0.000000     0.000000     0.300000     0.000000
       9     0.000000     0.000000     0.300000     0.000000
      10     0.000000     0.000000     0.300000     0.000000
      11     0.000000     0.000000     0.300000     0.000000

Improper Coeffs


Atoms

       1    1      1  -0.26506819    -9.081200     8.954700     8.854300
       2    1      2  -0.19441682    -8.618100     9.133400     7.396700
       3    1      4   0.09679277    -8.199000     8.620800     9.494300
       4    1      4   0.09679277    -9.483200     9.946100     9.248500
       5    1      4   0.09679277    -9.903300     8.166100     8.898600
       6    1      4   0.09679277    -9.499400     9.469000     6.756000
       7    1      4   0.09679277    -7.796500     9.922500     7.354700
       8    1      1  -0.26506819    -6.994800    -8.252100    13.153500
       9    1      2  -0.19441682    -6.421100    -8.136600    11.728800
      10    1      4   0.09679277    -6.429800    -9.061000    13.724600
      11    1      4   0.09679277    -6.876700    -7.254200    13.692000
      12    1      4   0.09679277    -8.099700    -8.527200    13.098800
      13    1      4   0.09679277    -6.980700    -7.328200    11.152000
      14    1      4   0.09679277    -6.532800    -9.136500    11.192800
      15    1      1  -0.26506819    16.529400     7.954300    -0.865400
      16    1      2  -0.19441682    15.303000     7.576900    -0.014300
      17    1      4   0.09679277    16.181000     8.398600    -1.855800
      18    1      4   0.09679277    17.158500     8.721600    -0.304000
      19    1      4   0.09679277    17.153800     7.021600    -1.064700
      20    1      4   0.09679277    15.650700     7.130900     0.975500
      21    1      4   0.09679277    14.679200     8.509500     0.187600
      22    1      1  -0.26506819    -2.152600    -4.161700   -17.823000
      23    1      2  -0.19441682    -2.209500    -4.482100   -16.317600
      24    1      4   0.09679277    -1.749600    -5.065500   -18.389100
      25    1      4   0.09679277    -3.199400    -3.912200   -18.199000
      26    1      4   0.09679277    -1.464600    -3.268800   -17.993700
      27    1      4   0.09679277    -2.608800    -3.577100   -15.750900
      28    1      4   0.09679277    -2.894300    -5.376000   -16.140300
      29    1      2  -0.19441682    -8.071500     7.799600     6.854600
      30    1      2  -0.19441682    -7.612400     8.021300     5.402700
      31    1      4   0.09679277    -8.892600     7.009400     6.882300
      32    1      4   0.09679277    -7.188300     7.457800     7.489300
      33    1      4   0.09679277    -6.799500     8.820300     5.387600
      34    1      4   0.09679277    -8.499500     8.373700     4.779200
      35    1      2  -0.19441682    -7.053100     6.722900     4.793200
      36    1      2  -0.19441682    -6.619900     7.053200     3.354600
      37    1      4   0.09679277    -7.862900     5.920600     4.781500
      38    1      4   0.09679277    -6.156700     6.359300     5.396500
      39    1      4   0.09679277    -5.818600     7.863500     3.383100
      40    1      4   0.09679277    -7.523500     7.438800     2.776400
      41    1      2  -0.19441682    -6.061200     5.815400     2.631200
      42    1      2  -0.19441682    -4.814800     5.251000     3.338700
      43    1      4   0.09679277    -5.767800     6.124700     1.574000
      44    1      4   0.09679277    -6.862000     5.006000     2.575800
      45    1      4   0.09679277    -4.016400     6.060300     3.422100
      46    1      4   0.09679277    -5.085200     4.862300     4.375800
      47    1      2  -0.19441682    -4.303000     4.116600     2.434200
      48    1      2  -0.19441682    -3.027400     3.421800     2.944700
      49    1      4   0.09679277    -4.074300     4.564000     1.410900
      50    1      4   0.09679277    -5.123900     3.334100     2.319200
      51    1      4   0.09679277    -2.184300     4.178100     3.072900
      52    1      4   0.09679277    -3.225500     2.879600     3.927800
      53    1      2  -0.19441682    -2.680500     2.433100     1.818400
      54    1      2  -0.19441682    -1.428200     1.565400     2.041400
      55    1      4   0.09679277    -2.522400     3.039300     0.866000
      56    1      4   0.09679277    -3.568900     1.735300     1.665100
      57    1      4   0.09679277    -0.500100     2.212100     2.184000
      58    1      4   0.09679277    -1.571500     0.869900     2.933100
      59    1      2  -0.19441682    -1.336700     0.775400     0.724200
      60    1      2  -0.19441682    -0.189600    -0.242900     0.606000
      61    1      4   0.09679277    -1.224000     1.532000    -0.120900
      62    1      4   0.09679277    -2.316500     0.211000     0.579800
      63    1      4   0.09679277     0.822000     0.267800     0.721800
      64    1      4   0.09679277    -0.307400    -1.074300     1.376900
      65    1      2  -0.19441682     0.566000    -3.193200     1.027000
      66    1      2  -0.19441682     0.328800    -4.677600     1.366400
      67    1      4   0.09679277     1.621600    -2.872600     1.315100
      68    1      4   0.09679277    -0.207700    -2.518700     1.523200
      69    1      4   0.09679277    -0.693200    -4.980200     0.962300
      70    1      4   0.09679277     1.127500    -5.267500     0.806300
      71    1      2  -0.19441682     0.392700    -5.108700     2.843700
      72    1      2  -0.19441682    -0.773800    -4.595600     3.711100
      73    1      4   0.09679277     0.312100    -6.245800     2.844600
      74    1      4   0.09679277     1.392000    -4.811200     3.304800
      75    1      4   0.09679277    -1.763600    -4.854800     3.208400
      76    1      4   0.09679277    -0.705200    -3.470700     3.882900
      77    1      2  -0.19441682    -0.661400    -5.400500     5.020200
      78    1      2  -0.19441682    -1.792900    -5.169300     6.040600
      79    1      4   0.09679277    -0.683100    -6.504400     4.736500
      80    1      4   0.09679277     0.338200    -5.171100     5.517700
      81    1      4   0.09679277    -2.806700    -5.386900     5.567000
      82    1      4   0.09679277    -1.766900    -4.099900     6.435000
      83    1      2  -0.19441682    -1.512200    -6.187700     7.163400
      84    1      2  -0.19441682    -2.502600    -6.153300     8.343200
      85    1      4   0.09679277    -1.533100    -7.232700     6.708200
      86    1      4   0.09679277    -0.467700    -5.987800     7.573600
      87    1      4   0.09679277    -3.564200    -6.375700     7.992500
      88    1      4   0.09679277    -2.464800    -5.131400     8.847200
      89    1      2  -0.19441682    -2.015200    -7.247700     9.312800
      90    1      2  -0.19441682    -2.808700    -7.307000    10.631800
      91    1      4   0.09679277    -2.074100    -8.259900     8.791700
      92    1      4   0.09679277    -0.926900    -7.028300     9.571700
      93    1      4   0.09679277    -2.733300    -6.300800    11.162300
      94    1      4   0.09679277    -2.341800    -8.112200    11.290200
      95    1      2  -0.19441682    -4.292600    -7.660700    10.424200
      96    1      2  -0.19441682    -4.930500    -7.764600    11.822900
      97    1      4   0.09679277    -4.807300    -6.849800     9.810100
      98    1      4   0.09679277    -4.379900    -8.664500     9.890900
      99    1      4   0.09679277    -4.826200    -6.764800    12.360500
     100    1      4   0.09679277    -4.385200    -8.570800    12.416600
     101    1      2  -0.19441682     2.697300    -0.844400    -0.088500
     102    1      2  -0.19441682     4.077900    -0.357800    -0.572100
     103    1      4   0.09679277     2.786500    -1.633700     0.729600
     104    1      4   0.09679277     2.091800     0.045700     0.284000
     105    1      4   0.09679277     3.901300     0.333800    -1.460900
     106    1      4   0.09679277     4.690100    -1.254000    -0.920900
     107    1      2  -0.19441682     4.884400     0.445400     0.465100
     108    1      2  -0.19441682     6.155900     0.913100    -0.270300
     109    1      4   0.09679277     5.147500    -0.194200     1.371300
     110    1      4   0.09679277     4.278400     1.353800     0.792500
     111    1      4   0.09679277     5.836200     1.479800    -1.206300
     112    1      4   0.09679277     6.769500     0.003300    -0.579100
     113    1      2  -0.19441682     7.025100     1.859100     0.579300
     114    1      2  -0.19441682     8.224400     2.289700    -0.288700
     115    1      4   0.09679277     6.413400     2.776900     0.867300
     116    1      4   0.09679277     7.389200     1.329800     1.521000
     117    1      4   0.09679277     7.836100     2.776700    -1.243700
     118    1      4   0.09679277     8.841500     1.370600    -0.560700
     119    1      2  -0.19441682     9.112000     3.303400     0.457400
     120    1      2  -0.19441682    10.289300     3.703400    -0.453100
     121    1      4   0.09679277     8.495600     4.228100     0.711400
     122    1      4   0.09679277     9.509600     2.835900     1.418100
     123    1      4   0.09679277     9.887600     4.153200    -1.420600
     124    1      4   0.09679277    10.909300     2.778100    -0.695800
     125    1      2  -0.19441682    11.172800     4.740400     0.265400
     126    1      2  -0.19441682    12.364800     5.123300    -0.632100
     127    1      4   0.09679277    10.554200     5.669600     0.496700
     128    1      4   0.09679277    11.564000     4.293800     1.238500
     129    1      4   0.09679277    11.982700     5.568200    -1.609600
     130    1      4   0.09679277    12.985200     4.192800    -0.853700
     131    1      2  -0.19441682    13.233700     6.162200     0.101200
     132    1      2  -0.19441682    14.447800     6.541100    -0.767200
     133    1      4   0.09679277    12.610900     7.093200     0.313100
     134    1      4   0.09679277    13.601800     5.719700     1.085100
     135    1      4   0.09679277    14.089300     6.985900    -1.753800
     136    1      4   0.09679277    15.071300     5.609200    -0.973100
     137    1      2  -0.19441682     0.411000    -0.890000    -3.535400
     138    1      2  -0.19441682    -0.111500    -1.038700    -4.975200
     139    1      4   0.09679277     1.530600    -0.675900    -3.547900
     140    1      4   0.09679277    -0.132700    -0.020200    -3.037900
     141    1      4   0.09679277    -1.243900    -1.167900    -4.953400
     142    1      4   0.09679277     0.149700    -0.098200    -5.564200
     143    1      2  -0.19441682     0.503700    -2.270700    -5.662400
     144    1      2  -0.19441682    -0.017900    -2.301900    -7.110900
     145    1      4   0.09679277     0.187300    -3.213500    -5.104700
     146    1      4   0.09679277     1.640800    -2.190700    -5.669700
     147    1      4   0.09679277    -1.157700    -2.315100    -7.111300
     148    1      4   0.09679277     0.348700    -1.365300    -7.647600
     149    1      2  -0.19441682     0.495700    -3.548500    -7.852800
     150    1      2  -0.19441682     0.053800    -3.452100    -9.324900
     151    1      4   0.09679277     1.634500    -3.576400    -7.811500
     152    1      4   0.09679277     0.071500    -4.488600    -7.367200
     153    1      4   0.09679277    -1.081600    -3.378500    -9.396200
     154    1      4   0.09679277     0.522700    -2.516000    -9.776100
     155    1      2  -0.19441682     0.540000    -4.688100   -10.103400
     156    1      2  -0.19441682     0.253300    -4.486300   -11.603300
     157    1      4   0.09679277     1.665800    -4.800300    -9.963800
     158    1      4   0.09679277     0.014000    -5.622100    -9.715300
     159    1      4   0.09679277    -0.862600    -4.344600   -11.788500
     160    1      4   0.09679277     0.816700    -3.559300   -11.953600
     161    1      2  -0.19441682     0.760000    -5.710300   -12.387500
     162    1      2  -0.19441682     0.653300    -5.431700   -13.898000
     163    1      4   0.09679277     1.855900    -5.891700   -12.131100
     164    1      4   0.09679277     0.146900    -6.628700   -12.104100
     165    1      4   0.09679277     1.301700    -4.528100   -14.148600
     166    1      4   0.09679277     1.033100    -6.337100   -14.477100
     167    1      2  -0.19441682    -0.796400    -5.127600   -14.316500
     168    1      2  -0.19441682    -0.789600    -4.815400   -15.824800
     169    1      4   0.09679277    -1.463100    -6.027400   -14.103800
     170    1      4   0.09679277    -1.178300    -4.222000   -13.738800
     171    1      4   0.09679277    -0.108300    -3.921500   -16.015500
     172    1      4   0.09679277    -0.393900    -5.719400   -16.395600
     173    1      3  -0.05468966     0.588700    -1.887300    -1.281500
     174    1      2  -0.19441682    -0.374900    -0.778900    -0.824300
     175    1      2  -0.19441682     0.383100    -3.199800    -0.501800
     176    1      2  -0.19441682     2.050600    -1.406800    -1.366900
     177    1      2  -0.19441682     0.168500    -2.179500    -2.732000
     178    1      4   0.09679277    -1.433800    -1.192500    -0.907100
     179    1      4   0.09679277    -0.270100     0.100100    -1.542700
     180    1      4   0.09679277     1.098300    -3.970800    -0.941700
     181    1      4   0.09679277    -0.684900    -3.546700    -0.698200
     182    1      4   0.09679277     2.690600    -2.264200    -1.760100
     183    1      4   0.09679277     2.072000    -0.561400    -2.131500
     184    1      4   0.09679277    -0.936900    -2.457000    -2.752800
     185    1      4   0.09679277     0.789300    -3.028900    -3.171000

Bonds

       1      1        1        2
       2      2        1        3
       3      2        1        4
       4      2        1        5
       5      5        2        6
       6      5        2        7
       7      3        2       29
       8      1        8        9
       9      2        8       10
      10      2        8       11
      11      2        8       12
      12      5        9       13
      13      5        9       14
      14      3        9       96
      15      1       15       16
      16      2       15       17
      17      2       15       18
      18      2       15       19
      19      5       16       20
      20      5       16       21
      21      3       16      132
      22      1       22       23
      23      2       22       24
      24      2       22       25
      25      2       22       26
      26      5       23       27
      27      5       23       28
      28      3       23      168
      29      3       29       30
      30      5       29       31
      31      5       29       32
      32      5       30       33
      33      5       30       34
      34      3       30       35
      35      3       35       36
      36      5       35       37
      37      5       35       38
      38      5       36       39
      39      5       36       40
      40      3       36       41
      41      3       41       42
      42      5       41       43
      43      5       41       44
      44      5       42       45
      45      5       42       46
      46      3       42       47
      47      3       47       48
      48      5       47       49
      49      5       47       50
      50      5       48       51
      51      5       48       52
      52      3       48       53
      53      3       53       54
      54      5       53       55
      55      5       53       56
      56      5       54       57
      57      5       54       58
      58      3       54       59
      59      3       59       60
      60      5       59       61
      61      5       59       62
      62      5       60       63
      63      5       60       64
      64      3       60      174
      65      3       65       66
      66      5       65       67
      67      5       65       68
      68      3       65      175
      69      5       66       69
      70      5       66       70
      71      3       66       71
      72      3       71       72
      73      5       71       73
      74      5       71       74
      75      5       72       75
      76      5       72       76
      77      3       72       77
      78      3       77       78
      79      5       77       79
      80      5       77       80
      81      5       78       81
      82      5       78       82
      83      3       78       83
      84      3       83       84
      85      5       83       85
      86      5       83       86
      87      5       84       87
      88      5       84       88
      89      3       84       89
      90      3       89       90
      91      5       89       91
      92      5       89       92
      93      5       90       93
      94      5       90       94
      95      3       90       95
      96      3       95       96
      97      5       95       97
      98      5       95       98
      99      5       96       99
     100      5       96      100
     101      3      101      102
     102      5      101      103
     103      5      101      104
     104      3      101      176
     105      5      102      105
     106      5      102      106
     107      3      102      107
     108      3      107      108
     109      5      107      109
     110      5      107      110
     111      5      108      111
     112      5      108      112
     113      3      108      113
     114      3      113      114
     115      5      113      115
     116      5      113      116
     117      5      114      117
     118      5      114      118
     119      3      114      119
     120      3      119      120
     121      5      119      121
     122      5      119      122
     123      5      120      123
     124      5      120      124
     125      3      120      125
     126      3      125      126
     127      5      125      127
     128      5      125      128
     129      5      126      129
     130      5      126      130
     131      3      126      131
     132      3      131      132
     133      5      131      133
     134      5      131      134
     135      5      132      135
     136      5      132      136
     137      3      137      138
     138      5      137      139
     139      5      137      140
     140      3      137      177
     141      5      138      141
     142      5      138      142
     143      3      138      143
     144      3      143      144
     145      5      143      145
     146      5      143      146
     147      5      144      147
     148      5      144      148
     149      3      144      149
     150      3      149      150
     151      5      149      151
     152      5      149      152
     153      5      150      153
     154      5      150      154
     155      3      150      155
     156      3      155      156
     157      5      155      157
     158      5      155      158
     159      5      156      159
     160      5      156      160
     161      3      156      161
     162      3      161      162
     163      5      161      163
     164      5      161      164
     165      5      162      165
     166      5      162      166
     167      3      162      167
     168      3      167      168
     169      5      167      169
     170      5      167      170
     171      5      168      171
     172      5      168      172
     173      4      173      174
     174      4      173      175
     175      4      173      176
     176      4      173      177
     177      5      174      178
     178      5      174      179
     179      5      175      180
     180      5      175      181
     181      5      176      182
     182      5      176      183
     183      5      177      184
     184      5      177      185

Angles

       1      2        1        2        6
       2      2        1        2        7
       3      1        1        2       29
       4      3        2        1        3
       5      3        2        1        4
       6      3        2        1        5
       7      4        2       29       30
       8      6        2       29       31
       9      6        2       29       32
      10      9        3        1        4
      11      9        3        1        5
      12      9        4        1        5
      13     10        6        2        7
      14      6        6        2       29
      15      6        7        2       29
      16      2        8        9       13
      17      2        8        9       14
      18      1        8        9       96
      19      3        9        8       10
      20      3        9        8       11
      21      3        9        8       12
      22      4        9       96       95
      23      6        9       96       99
      24      6        9       96      100
      25      9       10        8       11
      26      9       10        8       12
      27      9       11        8       12
      28     10       13        9       14
      29      6       13        9       96
      30      6       14        9       96
      31      2       15       16       20
      32      2       15       16       21
      33      1       15       16      132
      34      3       16       15       17
      35      3       16       15       18
      36      3       16       15       19
      37      4       16      132      131
      38      6       16      132      135
      39      6       16      132      136
      40      9       17       15       18
      41      9       17       15       19
      42      9       18       15       19
      43     10       20       16       21
      44      6       20       16      132
      45      6       21       16      132
      46      2       22       23       27
      47      2       22       23       28
      48      1       22       23      168
      49      3       23       22       24
      50      3       23       22       25
      51      3       23       22       26
      52      4       23      168      167
      53      6       23      168      171
      54      6       23      168      172
      55      9       24       22       25
      56      9       24       22       26
      57      9       25       22       26
      58     10       27       23       28
      59      6       27       23      168
      60      6       28       23      168
      61      6       29       30       33
      62      6       29       30       34
      63      4       29       30       35
      64      6       30       29       31
      65      6       30       29       32
      66      4       30       35       36
      67      6       30       35       37
      68      6       30       35       38
      69     10       31       29       32
      70     10       33       30       34
      71      6       33       30       35
      72      6       34       30       35
      73      6       35       36       39
      74      6       35       36       40
      75      4       35       36       41
      76      6       36       35       37
      77      6       36       35       38
      78      4       36       41       42
      79      6       36       41       43
      80      6       36       41       44
      81     10       37       35       38
      82     10       39       36       40
      83      6       39       36       41
      84      6       40       36       41
      85      6       41       42       45
      86      6       41       42       46
      87      4       41       42       47
      88      6       42       41       43
      89      6       42       41       44
      90      4       42       47       48
      91      6       42       47       49
      92      6       42       47       50
      93     10       43       41       44
      94     10       45       42       46
      95      6       45       42       47
      96      6       46       42       47
      97      6       47       48       51
      98      6       47       48       52
      99      4       47       48       53
     100      6       48       47       49
     101      6       48       47       50
     102      4       48       53       54
     103      6       48       53       55
     104      6       48       53       56
     105     10       49       47       50
     106     10       51       48       52
     107      6       51       48       53
     108      6       52       48       53
     109      6       53       54       57
     110      6       53       54       58
     111      4       53       54       59
     112      6       54       53       55
     113      6       54       53       56
     114      4       54       59       60
     115      6       54       59       61
     116      6       54       59       62
     117     10       55       53       56
     118     10       57       54       58
     119      6       57       54       59
     120      6       58       54       59
     121      6       59       60       63
     122      6       59       60       64
     123      4       59       60      174
     124      6       60       59       61
     125      6       60       59       62
     126      5       60      174      173
     127      6       60      174      178
     128      6       60      174      179
     129     10       61       59       62
     130     10       63       60       64
     131      6       63       60      174
     132      6       64       60      174
     133      6       65       66       69
     134      6       65       66       70
     135      4       65       66       71
     136      5       65      175      173
     137      6       65      175      180
     138      6       65      175      181
     139      6       66       65       67
     140      6       66       65       68
     141      4       66       65      175
     142      4       66       71       72
     143      6       66       71       73
     144      6       66       71       74
     145     10       67       65       68
     146      6       67       65      175
     147      6       68       65      175
     148     10       69       66       70
     149      6       69       66       71
     150      6       70       66       71
     151      6       71       72       75
     152      6       71       72       76
     153      4       71       72       77
     154      6       72       71       73
     155      6       72       71       74
     156      4       72       77       78
     157      6       72       77       79
     158      6       72       77       80
     159     10       73       71       74
     160     10       75       72       76
     161      6       75       72       77
     162      6       76       72       77
     163      6       77       78       81
     164      6       77       78       82
     165      4       77       78       83
     166      6       78       77       79
     167      6       78       77       80
     168      4       78       83       84
     169      6       78       83       85
     170      6       78       83       86
     171     10       79       77       80
     172     10       81       78       82
     173      6       81       78       83
     174      6       82       78       83
     175      6       83       84       87
     176      6       83       84       88
     177      4       83       84       89
     178      6       84       83       85
     179      6       84       83       86
     180      4       84       89       90
     181      6       84       89       91
     182      6       84       89       92
     183     10       85       83       86
     184     10       87       84       88
     185      6       87       84       89
     186      6       88       84       89
     187      6       89       90       93
     188      6       89       90       94
     189      4       89       90       95
     190      6       90       89       91
     191      6       90       89       92
     192      4       90       95       96
     193      6       90       95       97
     194      6       90       95       98
     195     10       91       89       92
     196     10       93       90       94
     197      6       93       90       95
     198      6       94       90       95
     199      6       95       96       99
     200      6       95       96      100
     201      6       96       95       97
     202      6       96       95       98
     203     10       97       95       98
     204     10       99       96      100
     205      6      101      102      105
     206      6      101      102      106
     207      4      101      102      107
     208      5      101      176      173
     209      6      101      176      182
     210      6      101      176      183
     211      6      102      101      103
     212      6      102      101      104
     213      4      102      101      176
     214      4      102      107      108
     215      6      102      107      109
     216      6      102      107      110
     217     10      103      101      104
     218      6      103      101      176
     219      6      104      101      176
     220     10      105      102      106
     221      6      105      102      107
     222      6      106      102      107
     223      6      107      108      111
     224      6      107      108      112
     225      4      107      108      113
     226      6      108      107      109
     227      6      108      107      110
     228      4      108      113      114
     229      6      108      113      115
     230      6      108      113      116
     231     10      109      107      110
     232     10      111      108      112
     233      6      111      108      113
     234      6      112      108      113
     235      6      113      114      117
     236      6      113      114      118
     237      4      113      114      119
     238      6      114      113      115
     239      6      114      113      116
     240      4      114      119      120
     241      6      114      119      121
     242      6      114      119      122
     243     10      115      113      116
     244     10      117      114      118
     245      6      117      114      119
     246      6      118      114      119
     247      6      119      120      123
     248      6      119      120      124
     249      4      119      120      125
     250      6      120      119      121
     251      6      120      119      122
     252      4      120      125      126
     253      6      120      125      127
     254      6      120      125      128
     255     10      121      119      122
     256     10      123      120      124
     257      6      123      120      125
     258      6      124      120      125
     259      6      125      126      129
     260      6      125      126      130
     261      4      125      126      131
     262      6      126      125      127
     263      6      126      125      128
     264      4      126      131      132
     265      6      126      131      133
     266      6      126      131      134
     267     10      127      125      128
     268     10      129      126      130
     269      6      129      126      131
     270      6      130      126      131
     271      6      131      132      135
     272      6      131      132      136
     273      6      132      131      133
     274      6      132      131      134
     275     10      133      131      134
     276     10      135      132      136
     277      6      137      138      141
     278      6      137      138      142
     279      4      137      138      143
     280      5      137      177      173
     281      6      137      177      184
     282      6      137      177      185
     283      6      138      137      139
     284      6      138      137      140
     285      4      138      137      177
     286      4      138      143      144
     287      6      138      143      145
     288      6      138      143      146
     289     10      139      137      140
     290      6      139      137      177
     291      6      140      137      177
     292     10      141      138      142
     293      6      141      138      143
     294      6      142      138      143
     295      6      143      144      147
     296      6      143      144      148
     297      4      143      144      149
     298      6      144      143      145
     299      6      144      143      146
     300      4      144      149      150
     301      6      144      149      151
     302      6      144      149      152
     303     10      145      143      146
     304     10      147      144      148
     305      6      147      144      149
     306      6      148      144      149
     307      6      149      150      153
     308      6      149      150      154
     309      4      149      150      155
     310      6      150      149      151
     311      6      150      149      152
     312      4      150      155      156
     313      6      150      155      157
     314      6      150      155      158
     315     10      151      149      152
     316     10      153      150      154
     317      6      153      150      155
     318      6      154      150      155
     319      6      155      156      159
     320      6      155      156      160
     321      4      155      156      161
     322      6      156      155      157
     323      6      156      155      158
     324      4      156      161      162
     325      6      156      161      163
     326      6      156      161      164
     327     10      157      155      158
     328     10      159      156      160
     329      6      159      156      161
     330      6      160      156      161
     331      6      161      162      165
     332      6      161      162      166
     333      4      161      162      167
     334      6      162      161      163
     335      6      162      161      164
     336      4      162      167      168
     337      6      162      167      169
     338      6      162      167      170
     339     10      163      161      164
     340     10      165      162      166
     341      6      165      162      167
     342      6      166      162      167
     343      6      167      168      171
     344      6      167      168      172
     345      6      168      167      169
     346      6      168      167      170
     347     10      169      167      170
     348     10      171      168      172
     349      8      173      174      178
     350      8      173      174      179
     351      8      173      175      180
     352      8      173      175      181
     353      8      173      176      182
     354      8      173      176      183
     355      8      173      177      184
     356      8      173      177      185
     357      7      174      173      175
     358      7      174      173      176
     359      7      174      173      177
     360      7      175      173      176
     361      7      175      173      177
     362      7      176      173      177
     363     10      178      174      179
     364     10      180      175      181
     365     10      182      176      183
     366     10      184      177      185

Dihedrals

       1      1        1        2       29       30
       2      2        1        2       29       31
       3      2        1        2       29       32
       4      6        2       29       30       33
       5      6        2       29       30       34
       6      4        2       29       30       35
       7     10        3        1        2        6
       8     10        3        1        2        7
       9      3        3        1        2       29
      10     10        4        1        2        6
      11     10        4        1        2        7
      12      3        4        1        2       29
      13     10        5        1        2        6
      14     10        5        1        2        7
      15      3        5        1        2       29
      16      6        6        2       29       30
      17     11        6        2       29       31
      18     11        6        2       29       32
      19      6        7        2       29       30
      20     11        7        2       29       31
      21     11        7        2       29       32
      22      1        8        9       96       95
      23      2        8        9       96       99
      24      2        8        9       96      100
      25      4        9       96       95       90
      26      6        9       96       95       97
      27      6        9       96       95       98
      28     10       10        8        9       13
      29     10       10        8        9       14
      30      3       10        8        9       96
      31     10       11        8        9       13
      32     10       11        8        9       14
      33      3       11        8        9       96
      34     10       12        8        9       13
      35     10       12        8        9       14
      36      3       12        8        9       96
      37      6       13        9       96       95
      38     11       13        9       96       99
      39     11       13        9       96      100
      40      6       14        9       96       95
      41     11       14        9       96       99
      42     11       14        9       96      100
      43      1       15       16      132      131
      44      2       15       16      132      135
      45      2       15       16      132      136
      46      4       16      132      131      126
      47      6       16      132      131      133
      48      6       16      132      131      134
      49     10       17       15       16       20
      50     10       17       15       16       21
      51      3       17       15       16      132
      52     10       18       15       16       20
      53     10       18       15       16       21
      54      3       18       15       16      132
      55     10       19       15       16       20
      56     10       19       15       16       21
      57      3       19       15       16      132
      58      6       20       16      132      131
      59     11       20       16      132      135
      60     11       20       16      132      136
      61      6       21       16      132      131
      62     11       21       16      132      135
      63     11       21       16      132      136
      64      1       22       23      168      167
      65      2       22       23      168      171
      66      2       22       23      168      172
      67      4       23      168      167      162
      68      6       23      168      167      169
      69      6       23      168      167      170
      70     10       24       22       23       27
      71     10       24       22       23       28
      72      3       24       22       23      168
      73     10       25       22       23       27
      74     10       25       22       23       28
      75      3       25       22       23      168
      76     10       26       22       23       27
      77     10       26       22       23       28
      78      3       26       22       23      168
      79      6       27       23      168      167
      80     11       27       23      168      171
      81     11       27       23      168      172
      82      6       28       23      168      167
      83     11       28       23      168      171
      84     11       28       23      168      172
      85      4       29       30       35       36
      86      6       29       30       35       37
      87      6       29       30       35       38
      88      6       30       35       36       39
      89      6       30       35       36       40
      90      4       30       35       36       41
      91     11       31       29       30       33
      92     11       31       29       30       34
      93      6       31       29       30       35
      94     11       32       29       30       33
      95     11       32       29       30       34
      96      6       32       29       30       35
      97      6       33       30       35       36
      98     11       33       30       35       37
      99     11       33       30       35       38
     100      6       34       30       35       36
     101     11       34       30       35       37
     102     11       34       30       35       38
     103      4       35       36       41       42
     104      6       35       36       41       43
     105      6       35       36       41       44
     106      6       36       41       42       45
     107      6       36       41       42       46
     108      4       36       41       42       47
     109     11       37       35       36       39
     110     11       37       35       36       40
     111      6       37       35       36       41
     112     11       38       35       36       39
     113     11       38       35       36       40
     114      6       38       35       36       41
     115      6       39       36       41       42
     116     11       39       36       41       43
     117     11       39       36       41       44
     118      6       40       36       41       42
     119     11       40       36       41       43
     120     11       40       36       41       44
     121      4       41       42       47       48
     122      6       41       42       47       49
     123      6       41       42       47       50
     124      6       42       47       48       51
     125      6       42       47       48       52
     126      4       42       47       48       53
     127     11       43       41       42       45
     128     11       43       41       42       46
     129      6       43       41       42       47
     130     11       44       41       42       45
     131     11       44       41       42       46
     132      6       44       41       42       47
     133      6       45       42       47       48
     134     11       45       42       47       49
     135     11       45       42       47       50
     136      6       46       42       47       48
     137     11       46       42       47       49
     138     11       46       42       47       50
     139      4       47       48       53       54
     140      6       47       48       53       55
     141      6       47       48       53       56
     142      6       48       53       54       57
     143      6       48       53       54       58
     144      4       48       53       54       59
     145     11       49       47       48       51
     146     11       49       47       48       52
     147      6       49       47       48       53
     148     11       50       47       48       51
     149     11       50       47       48       52
     150      6       50       47       48       53
     151      6       51       48       53       54
     152     11       51       48       53       55
     153     11       51       48       53       56
     154      6       52       48       53       54
     155     11       52       48       53       55
     156     11       52       48       53       56
     157      4       53       54       59       60
     158      6       53       54       59       61
     159      6       53       54       59       62
     160      6       54       59       60       63
     161      6       54       59       60       64
     162      4       54       59       60      174
     163     11       55       53       54       57
     164     11       55       53       54       58
     165      6       55       53       54       59
     166     11       56       53       54       57
     167     11       56       53       54       58
     168      6       56       53       54       59
     169      6       57       54       59       60
     170     11       57       54       59       61
     171     11       57       54       59       62
     172      6       58       54       59       60
     173     11       58       54       59       61
     174     11       58       54       59       62
     175      5       59       60      174      173
     176      6       59       60      174      178
     177      6       59       60      174      179
     178      7       60      174      173      175
     179      7       60      174      173      176
     180      7       60      174      173      177
     181     11       61       59       60       63
     182     11       61       59       60       64
     183      6       61       59       60      174
     184     11       62       59       60       63
     185     11       62       59       60       64
     186      6       62       59       60      174
     187      9       63       60      174      173
     188     11       63       60      174      178
     189     11       63       60      174      179
     190      9       64       60      174      173
     191     11       64       60      174      178
     192     11       64       60      174      179
     193      4       65       66       71       72
     194      6       65       66       71       73
     195      6       65       66       71       74
     196      7       65      175      173      174
     197      7       65      175      173      176
     198      7       65      175      173      177
     199      5       66       65      175      173
     200      6       66       65      175      180
     201      6       66       65      175      181
     202      6       66       71       72       75
     203      6       66       71       72       76
     204      4       66       71       72       77
     205     11       67       65       66       69
     206     11       67       65       66       70
     207      6       67       65       66       71
     208      9       67       65      175      173
     209     11       67       65      175      180
     210     11       67       65      175      181
     211     11       68       65       66       69
     212     11       68       65       66       70
     213      6       68       65       66       71
     214      9       68       65      175      173
     215     11       68       65      175      180
     216     11       68       65      175      181
     217      6       69       66       65      175
     218      6       69       66       71       72
     219     11       69       66       71       73
     220     11       69       66       71       74
     221      6       70       66       65      175
     222      6       70       66       71       72
     223     11       70       66       71       73
     224     11       70       66       71       74
     225      4       71       66       65      175
     226      4       71       72       77       78
     227      6       71       72       77       79
     228      6       71       72       77       80
     229      6       72       77       78       81
     230      6       72       77       78       82
     231      4       72       77       78       83
     232     11       73       71       72       75
     233     11       73       71       72       76
     234      6       73       71       72       77
     235     11       74       71       72       75
     236     11       74       71       72       76
     237      6       74       71       72       77
     238      6       75       72       77       78
     239     11       75       72       77       79
     240     11       75       72       77       80
     241      6       76       72       77       78
     242     11       76       72       77       79
     243     11       76       72       77       80
     244      4       77       78       83       84
     245      6       77       78       83       85
     246      6       77       78       83       86
     247      6       78       83       84       87
     248      6       78       83       84       88
     249      4       78       83       84       89
     250     11       79       77       78       81
     251     11       79       77       78       82
     252      6       79       77       78       83
     253     11       80       77       78       81
     254     11       80       77       78       82
     255      6       80       77       78       83
     256      6       81       78       83       84
     257     11       81       78       83       85
     258     11       81       78       83       86
     259      6       82       78       83       84
     260     11       82       78       83       85
     261     11       82       78       83       86
     262      4       83       84       89       90
     263      6       83       84       89       91
     264      6       83       84       89       92
     265      6       84       89       90       93
     266      6       84       89       90       94
     267      4       84       89       90       95
     268     11       85       83       84       87
     269     11       85       83       84       88
     270      6       85       83       84       89
     271     11       86       83       84       87
     272     11       86       83       84       88
     273      6       86       83       84       89
     274      6       87       84       89       90
     275     11       87       84       89       91
     276     11       87       84       89       92
     277      6       88       84       89       90
     278     11       88       84       89       91
     279     11       88       84       89       92
     280      4       89       90       95       96
     281      6       89       90       95       97
     282      6       89       90       95       98
     283      6       90       95       96       99
     284      6       90       95       96      100
     285     11       91       89       90       93
     286     11       91       89       90       94
     287      6       91       89       90       95
     288     11       92       89       90       93
     289     11       92       89       90       94
     290      6       92       89       90       95
     291      6       93       90       95       96
     292     11       93       90       95       97
     293     11       93       90       95       98
     294      6       94       90       95       96
     295     11       94       90       95       97
     296     11       94       90       95       98
     297     11       97       95       96       99
     298     11       97       95       96      100
     299     11       98       95       96       99
     300     11       98       95       96      100
     301      4      101      102      107      108
     302      6      101      102      107      109
     303      6      101      102      107      110
     304      7      101      176      173      174
     305      7      101      176      173      175
     306      7      101      176      173      177
     307      5      102      101      176      173
     308      6      102      101      176      182
     309      6      102      101      176      183
     310      6      102      107      108      111
     311      6      102      107      108      112
     312      4      102      107      108      113
     313     11      103      101      102      105
     314     11      103      101      102      106
     315      6      103      101      102      107
     316      9      103      101      176      173
     317     11      103      101      176      182
     318     11      103      101      176      183
     319     11      104      101      102      105
     320     11      104      101      102      106
     321      6      104      101      102      107
     322      9      104      101      176      173
     323     11      104      101      176      182
     324     11      104      101      176      183
     325      6      105      102      101      176
     326      6      105      102      107      108
     327     11      105      102      107      109
     328     11      105      102      107      110
     329      6      106      102      101      176
     330      6      106      102      107      108
     331     11      106      102      107      109
     332     11      106      102      107      110
     333      4      107      102      101      176
     334      4      107      108      113      114
     335      6      107      108      113      115
     336      6      107      108      113      116
     337      6      108      113      114      117
     338      6      108      113      114      118
     339      4      108      113      114      119
     340     11      109      107      108      111
     341     11      109      107      108      112
     342      6      109      107      108      113
     343     11      110      107      108      111
     344     11      110      107      108      112
     345      6      110      107      108      113
     346      6      111      108      113      114
     347     11      111      108      113      115
     348     11      111      108      113      116
     349      6      112      108      113      114
     350     11      112      108      113      115
     351     11      112      108      113      116
     352      4      113      114      119      120
     353      6      113      114      119      121
     354      6      113      114      119      122
     355      6      114      119      120      123
     356      6      114      119      120      124
     357      4      114      119      120      125
     358     11      115      113      114      117
     359     11      115      113      114      118
     360      6      115      113      114      119
     361     11      116      113      114      117
     362     11      116      113      114      118
     363      6      116      113      114      119
     364      6      117      114      119      120
     365     11      117      114      119      121
     366     11      117      114      119      122
     367      6      118      114      119      120
     368     11      118      114      119      121
     369     11      118      114      119      122
     370      4      119      120      125      126
     371      6      119      120      125      127
     372      6      119      120      125      128
     373      6      120      125      126      129
     374      6      120      125      126      130
     375      4      120      125      126      131
     376     11      121      119      120      123
     377     11      121      119      120      124
     378      6      121      119      120      125
     379     11      122      119      120      123
     380     11      122      119      120      124
     381      6      122      119      120      125
     382      6      123      120      125      126
     383     11      123      120      125      127
     384     11      123      120      125      128
     385      6      124      120      125      126
     386     11      124      120      125      127
     387     11      124      120      125      128
     388      4      125      126      131      132
     389      6      125      126      131      133
     390      6      125      126      131      134
     391      6      126      131      132      135
     392      6      126      131      132      136
     393     11      127      125      126      129
     394     11      127      125      126      130
     395      6      127      125      126      131
     396     11      128      125      126      129
     397     11      128      125      126      130
     398      6      128      125      126      131
     399      6      129      126      131      132
     400     11      129      126      131      133
     401     11      129      126      131      134
     402      6      130      126      131      132
     403     11      130      126      131      133
     404     11      130      126      131      134
     405     11      133      131      132      135
     406     11      133      131      132      136
     407     11      134      131      132      135
     408     11      134      131      132      136
     409      4      137      138      143      144
     410      6      137      138      143      145
     411      6      137      138      143      146
     412      7      137      177      173      174
     413      7      137      177      173      175
     414      7      137      177      173      176
     415      5      138      137      177      173
     416      6      138      137      177      184
     417      6      138      137      177      185
     418      6      138      143      144      147
     419      6      138      143      144      148
     420      4      138      143      144      149
     421     11      139      137      138      141
     422     11      139      137      138      142
     423      6      139      137      138      143
     424      9      139      137      177      173
     425     11      139      137      177      184
     426     11      139      137      177      185
     427     11      140      137      138      141
     428     11      140      137      138      142
     429      6      140      137      138      143
     430      9      140      137      177      173
     431     11      140      137      177      184
     432     11      140      137      177      185
     433      6      141      138      137      177
     434      6      141      138      143      144
     435     11      141      138      143      145
     436     11      141      138      143      146
     437      6      142      138      137      177
     438      6      142      138      143      144
     439     11      142      138      143      145
     440     11      142      138      143      146
     441      4      143      138      137      177
     442      4      143      144      149      150
     443      6      143      144      149      151
     444      6      143      144      149      152
     445      6      144      149      150      153
     446      6      144      149      150      154
     447      4      144      149      150      155
     448     11      145      143      144      147
     449     11      145      143      144      148
     450      6      145      143      144      149
     451     11      146      143      144      147
     452     11      146      143      144      148
     453      6      146      143      144      149
     454      6      147      144      149      150
     455     11      147      144      149      151
     456     11      147      144      149      152
     457      6      148      144      149      150
     458     11      148      144      149      151
     459     11      148      144      149      152
     460      4      149      150      155      156
     461      6      149      150      155      157
     462      6      149      150      155      158
     463      6      150      155      156      159
     464      6      150      155      156      160
     465      4      150      155      156      161
     466     11      151      149      150      153
     467     11      151      149      150      154
     468      6      151      149      150      155
     469     11      152      149      150      153
     470     11      152      149      150      154
     471      6      152      149      150      155
     472      6      153      150      155      156
     473     11      153      150      155      157
     474     11      153      150      155      158
     475      6      154      150      155      156
     476     11      154      150      155      157
     477     11      154      150      155      158
     478      4      155      156      161      162
     479      6      155      156      161      163
     480      6      155      156      161      164
     481      6      156      161      162      165
     482      6      156      161      162      166
     483      4      156      161      162      167
     484     11      157      155      156      159
     485     11      157      155      156      160
     486      6      157      155      156      161
     487     11      158      155      156      159
     488     11      158      155      156      160
     489      6      158      155      156      161
     490      6      159      156      161      162
     491     11      159      156      161      163
     492     11      159      156      161      164
     493      6      160      156      161      162
     494     11      160      156      161      163
     495     11      160      156      161      164
     496      4      161      162      167      168
     497      6      161      162      167      169
     498      6      161      162      167      170
     499      6      162      167      168      171
     500      6      162      167      168      172
     501     11      163      161      162      165
     502     11      163      161      162      166
     503      6      163      161      162      167
     504     11      164      161      162      165
     505     11      164      161      162      166
     506      6      164      161      162      167
     507      6      165      162      167      168
     508     11      165      162      167      169
     509     11      165      162      167      170
     510      6      166      162      167      168
     511     11      166      162      167      169
     512     11      166      162      167      170
     513     11      169      167      168      171
     514     11      169      167      168      172
     515     11      170      167      168      171
     516     11      170      167      168      172
     517      8      174      173      175      180
     518      8      174      173      175      181
     519      8      174      173      176      182
     520      8      174      173      176      183
     521      8      174      173      177      184
     522      8      174      173      177      185
     523      8      175      173      174      178
     524      8      175      173      174      179
     525      8      175      173      176      182
     526      8      175      173      176      183
     527      8      175      173      177      184
     528      8      175      173      177      185
     529      8      176      173      174      178
     530      8      176      173      174      179
     531      8      176      173      175      180
     532      8      176      173      175      181
     533      8      176      173      177      184
     534      8      176      173      177      185
     535      8      177      173      174      178
     536      8      177      173      174      179
     537      8      177      173      175      180
     538      8      177      173      175      181
     539      8      177      173      176      182
     540      8      177      173      176      183

Impropers


