LAMMPS data file generated by clean-room 1-hop pipeline

     180 atoms
     186 bonds
     348 angles
     527 dihedrals
      36 impropers

       7 atom types
      10 bond types
      18 angle types
      25 dihedral types
       4 improper types

  -26.574600    39.247300 xlo xhi
  -29.878200    26.759000 ylo yhi
  -25.927500    36.592300 zlo zhi

Masses

       1    12.011000
       2    12.011000
       3    12.011000
       4    12.011000
       5    12.011000
       6     1.008000
       7     1.008000

Pair Coeffs

       1     0.070000     3.550000
       2     0.070000     3.550000
       3     0.070000     3.550000
       4     0.066000     3.500000
       5     0.066000     3.500000
       6     0.030000     2.420000
       7     0.030000     2.500000

Bond Coeffs

       1   469.000000     1.400000
       2   317.000000     1.510000
       3   469.000000     1.400000
       4   469.000000     1.400000
       5   367.000000     1.080000
       6   385.000000     1.460000
       7   268.000000     1.529000
       8   340.000000     1.090000
       9   268.000000     1.529000
      10   340.000000     1.090000

Angle Coeffs

       1    63.000000   120.000000
       2    35.000000   120.000000
       3    63.000000   114.000000
       4    35.000000   109.500000
       5    63.000000   120.000000
       6    70.000000   120.000000
       7    63.000000   120.000000
       8    35.000000   120.000000
       9    63.000000   120.000000
      10    63.000000   120.000000
      11    35.000000   120.000000
      12    58.350000   112.700000
      13    37.500000   110.700000
      14    37.500000   110.700000
      15    58.350000   112.700000
      16    37.500000   110.700000
      17    33.000000   107.800000
      18    33.000000   107.800000

Dihedral Coeffs

       1     0.000000     7.250000     0.000000     0.000000
       2     0.000000     7.250000     0.000000     0.000000
       3     0.000000     0.000000     0.000000     0.000000
       4     0.000000     0.000000     0.462000     0.000000
       5     0.000000     7.250000     0.000000     0.000000
       6     0.000000     7.250000     0.000000     0.000000
       7    -0.250000     0.000000     0.000000     0.000000
       8     0.000000     0.000000     0.000000     0.000000
       9     0.000000     7.250000     0.000000     0.000000
      10     0.000000     7.250000     0.000000     0.000000
      11     0.000000     7.250000     0.000000     0.000000
      12     0.000000     7.250000     0.000000     0.000000
      13     0.000000     1.650000     0.000000    -0.050000
      14     0.000000     7.250000     0.000000     0.000000
      15     0.000000     7.250000     0.000000     0.000000
      16     0.000000     7.250000     0.000000     0.000000
      17     0.000000     7.250000     0.000000     0.000000
      18     0.850000    -0.200000     0.200000     0.000000
      19     0.000000     0.000000     0.300000     0.000000
      20     0.000000     0.000000     0.300000     0.000000
      21     0.850000    -0.200000     0.200000     0.000000
      22     0.000000     0.000000     0.300000     0.000000
      23     0.000000     7.250000     0.000000     0.000000
      24     0.000000     0.000000     0.300000     0.000000
      25     0.000000     0.000000     0.300000     0.000000

Improper Coeffs

       1     2.500000   -1    2
       2     2.500000   -1    2
       3     2.500000   -1    2
       4     2.500000   -1    2

Atoms

       1    1      5  -0.19232433    11.300300     5.489200    -1.967900
       2    1      5  -0.19232433    12.806700     5.231100    -1.757800
       3    1      7   0.09888526    10.664100     4.791600    -1.329100
       4    1      7   0.09888526    11.064200     6.574900    -1.713100
       5    1      7   0.09888526    13.376000     5.919500    -2.466100
       6    1      7   0.09888526    13.043100     4.148900    -2.028000
       7    1      5  -0.19232433    11.052400     5.244700    -3.468900
       8    1      5  -0.19232433     9.636000     5.585400    -3.976000
       9    1      7   0.09888526    11.779600     5.912000    -4.039300
      10    1      7   0.09888526    11.286700     4.156100    -3.713000
      11    1      7   0.09888526     9.399200     6.676700    -3.747000
      12    1      7   0.09888526     9.646200     5.442500    -5.106900
      13    1      5  -0.19232433     8.511400     4.689300    -3.421500
      14    1      5  -0.19232433     7.246000     5.089900    -4.207700
      15    1      7   0.09888526     8.756000     3.597400    -3.640000
      16    1      7   0.09888526     8.376400     4.841900    -2.299600
      17    1      7   0.09888526     7.007400     6.186900    -4.009300
      18    1      7   0.09888526     7.480700     4.958700    -5.315600
      19    1      5  -0.19232433     6.002600     4.234300    -3.890100
      20    1      5  -0.19232433     4.901800     4.692000    -4.868000
      21    1      7   0.09888526     6.237700     3.134500    -4.076500
      22    1      7   0.09888526     5.674700     4.383300    -2.808500
      23    1      7   0.09888526     4.684900     5.797900    -4.695400
      24    1      7   0.09888526     5.299600     4.555100    -5.927500
      25    1      5  -0.19232433     3.585200     3.898000    -4.748200
      26    1      5  -0.19232433     2.913200     4.109200    -3.378600
      27    1      7   0.09888526     2.873200     4.280000    -5.552500
      28    1      7   0.09888526     3.779800     2.787800    -4.919300
      29    1      7   0.09888526     3.566900     3.684700    -2.546900
      30    1      7   0.09888526     2.763900     5.227100    -3.212500
      31    1      5  -0.19232433     1.530900     3.424500    -3.389100
      32    1      5  -0.19232433     0.791700     3.710800    -2.067000
      33    1      7   0.09888526     0.921000     3.863300    -4.246500
      34    1      7   0.09888526     1.646000     2.300900    -3.543400
      35    1      7   0.09888526     0.745600     4.841200    -1.927000
      36    1      7   0.09888526     1.354500     3.246300    -1.191100
      37    1      5  -0.19232433    -0.657800     3.185000    -2.119800
      38    1      5  -0.19232433    -1.386000     3.627300    -0.834500
      39    1      7   0.09888526    -1.174900     3.671000    -3.012100
      40    1      7   0.09888526    -0.686800     2.051000    -2.234300
      41    1      7   0.09888526    -1.251400     4.755700    -0.744200
      42    1      7   0.09888526    -0.932200     3.122500     0.081500
      43    1      5  -0.19232433    -2.901800     3.355600    -0.918500
      44    1      5  -0.19232433    -3.312400     1.869800    -0.942300
      45    1      7   0.09888526    -3.285900     3.852000    -1.870200
      46    1      7   0.09888526    -3.412000     3.840500    -0.021800
      47    1      7   0.09888526    -3.052700     1.362200     0.045300
      48    1      7   0.09888526    -2.796300     1.332700    -1.805400
      49    1      5  -0.19232433    -4.834400     1.885200    -1.183000
      50    1      5  -0.19232433    -5.508600     0.501000    -1.262700
      51    1      7   0.09888526    -4.996900     2.403800    -2.185000
      52    1      7   0.09888526    -5.349400     2.495100    -0.369200
      53    1      7   0.09888526    -6.574600     0.675200    -1.627600
      54    1      7   0.09888526    -4.963700    -0.153400    -2.020700
      55    1      5  -0.19232433    -5.632900    -0.226000     0.092000
      56    1      5  -0.19232433    -4.298700    -0.648700     0.734800
      57    1      7   0.09888526    -6.240200    -1.174700    -0.083200
      58    1      7   0.09888526    -6.199700     0.443700     0.820100
      59    1      7   0.09888526    -3.662000     0.264100     0.983400
      60    1      7   0.09888526    -3.733100    -1.331600     0.018200
      61    1      5  -0.19232433    -4.663800    -1.434400     2.011400
      62    1      5  -0.19232433    -3.413700    -2.001800     2.709300
      63    1      7   0.09888526    -5.337900    -2.305600     1.717800
      64    1      7   0.09888526    -5.227000    -0.752200     2.730600
      65    1      7   0.09888526    -2.730600    -1.147400     3.030100
      66    1      7   0.09888526    -2.856800    -2.679900     1.981500
      67    1      5  -0.19232433    -3.834100    -2.824700     3.944700
      68    1      5  -0.19232433    -2.569500    -3.409500     4.601900
      69    1      7   0.09888526    -4.522400    -3.674600     3.622600
      70    1      7   0.09888526    -4.378400    -2.153200     4.688100
      71    1      7   0.09888526    -1.884400    -2.550800     4.906700
      72    1      7   0.09888526    -2.030000    -4.068400     3.844000
      73    1      5  -0.19232433    -2.900500    -4.250800     5.851500
      74    1      5  -0.19232433    -1.561700    -4.757300     6.420800
      75    1      7   0.09888526    -3.566700    -5.131700     5.568800
      76    1      7   0.09888526    -3.428000    -3.601600     6.626100
      77    1      7   0.09888526    -0.908700    -3.853700     6.658700
      78    1      7   0.09888526    -1.040700    -5.395600     5.632900
      79    1      5  -0.19232433    -1.728700    -5.585800     7.709300
      80    1      5  -0.19232433    -0.310600    -5.966900     8.179200
      81    1      7   0.09888526    -2.346000    -6.521900     7.503400
      82    1      7   0.09888526    -2.240100    -4.953700     8.508400
      83    1      7   0.09888526     0.286400    -5.008800     8.338200
      84    1      7   0.09888526     0.195600    -6.592200     7.371500
      85    1      5  -0.19232433    -0.318000    -6.758000     9.501000
      86    1      5  -0.19232433     1.147700    -7.034100     9.892400
      87    1      7   0.09888526    -0.882300    -7.739400     9.366600
      88    1      7   0.09888526    -0.817800    -6.136500    10.315500
      89    1      7   0.09888526     1.696600    -6.041100    10.002300
      90    1      7   0.09888526     1.646600    -7.651000     9.073800
      91    1      5  -0.19232433     1.224500    -7.799800    11.226100
      92    1      5  -0.19232433     2.699800    -8.058100    11.595900
      93    1      7   0.09888526     0.682700    -8.796800    11.117000
      94    1      7   0.09888526     0.727400    -7.186700    12.048700
      95    1      7   0.09888526     3.253400    -7.069400    11.721200
      96    1      7   0.09888526     3.190200    -8.667700    10.766700
      97    1      5  -0.19232433     2.749600    -8.857700    12.911300
      98    1      5  -0.19232433     4.192500    -9.227800    13.308100
      99    1      7   0.09888526     2.160900    -9.822500    12.762900
     100    1      7   0.09888526     2.270000    -8.250600    13.748400
     101    1      7   0.09888526     4.675700    -9.824200    12.465000
     102    1      7   0.09888526     4.146100    -9.878200    14.243100
     103    1      5  -0.19232433     5.063400    -7.997800    13.631300
     104    1      4  -0.14392691     6.436800    -8.552100    14.060700
     105    1      7   0.09888526     5.167900    -7.326100    12.716200
     106    1      7   0.09888526     4.593600    -7.411900    14.489000
     107    1      7   0.09888526     6.882300    -9.134000    13.187600
     108    1      7   0.09888526     6.273800    -9.267800    14.932900
     109    1      4  -0.14392691    14.955100     4.626200     2.068300
     110    1      5  -0.19232433    15.497100     5.596600     1.004700
     111    1      7   0.09888526    13.835600     4.796900     2.199600
     112    1      7   0.09888526    15.135500     3.554600     1.724000
     113    1      7   0.09888526    15.286900     6.671800     1.319900
     114    1      7   0.09888526    16.622400     5.443700     0.905400
     115    1      5  -0.19232433    13.309000     5.517100    -0.329000
     116    1      5  -0.19232433    14.836200     5.307000    -0.356500
     117    1      7   0.09888526    12.819500     4.810700     0.420000
     118    1      7   0.09888526    13.079800     6.598100    -0.049000
     119    1      7   0.09888526    15.283400     6.010100    -1.134500
     120    1      7   0.09888526    15.057200     4.229500    -0.656200
     121    1      1  -0.09144983     7.442600    -7.471100    14.509200
     122    1      2  -0.15143747     8.935800    -7.827200    14.652400
     123    1      2  -0.15143747     9.944900    -6.758800    15.111600
     124    1      3  -0.04317483     9.469600    -5.326400    15.408100
     125    1      2  -0.15143747     7.979200    -4.963100    15.254600
     126    1      2  -0.15143747     6.967700    -6.033600    14.794000
     127    1      6   0.16393771     9.293400    -8.884900    14.422700
     128    1      6   0.16393771    11.047100    -7.026800    15.227100
     129    1      6   0.16393771     7.625000    -3.902900    15.478700
     130    1      6   0.16393771     5.866900    -5.763800    14.672200
     131    1      3  -0.04317483    10.501600    -4.260200    15.821200
     132    1      2  -0.15143747    11.991500    -4.641100    15.909100
     133    1      2  -0.15143747    13.052300    -3.550200    16.135800
     134    1      3  -0.04317483    12.620900    -2.081400    16.279900
     135    1      2  -0.15143747    11.123400    -1.718700    16.331600
     136    1      2  -0.15143747    10.061000    -2.810200    16.094200
     137    1      6   0.16393771    12.311500    -5.725600    15.763600
     138    1      6   0.16393771    14.159400    -3.822600    16.145700
     139    1      6   0.16393771    10.803600    -0.636100    16.491300
     140    1      6   0.16393771     8.953800    -2.538600    16.084700
     141    1      3  -0.04317483    13.685200    -0.971900    16.220100
     142    1      2  -0.15143747    15.158100    -1.337900    15.954000
     143    1      2  -0.15143747    16.146400    -0.246400    15.504400
     144    1      3  -0.04317483    15.654100     1.201800    15.340500
     145    1      2  -0.15143747    14.259700     1.600700    15.861900
     146    1      2  -0.15143747    13.263300     0.505800    16.287100
     147    1      6   0.16393771    15.498000    -2.424100    16.020500
     148    1      6   0.16393771    17.218100    -0.521400    15.228800
     149    1      6   0.16393771    13.939400     2.694800    15.859000
     150    1      6   0.16393771    12.200700     0.784200    16.592300
     151    1      3  -0.04317483    16.470800     2.195000    14.494900
     152    1      2  -0.15143747    17.718500     1.708000    13.733600
     153    1      2  -0.15143747    18.232700     2.515500    12.527300
     154    1      3  -0.04317483    17.501900     3.806700    12.114700
     155    1      2  -0.15143747    16.456100     4.430000    13.054900
     156    1      2  -0.15143747    15.928400     3.613900    14.247400
     157    1      6   0.16393771    18.199900     0.710000    14.001900
     158    1      6   0.16393771    19.094700     2.117900    11.895900
     159    1      6   0.16393771    16.006200     5.449700    12.814900
     160    1      6   0.16393771    15.080800     4.023100    14.890600
     161    1      3  -0.04317483    17.667100     4.365900    10.692500
     162    1      2  -0.15143747    18.532700     3.613800     9.666600
     163    1      2  -0.15143747    18.358100     3.907800     8.165100
     164    1      3  -0.04317483    17.336200     4.966800     7.708200
     165    1      2  -0.15143747    16.658300     5.877200     8.747900
     166    1      2  -0.15143747    16.829800     5.578800    10.247800
     167    1      6   0.16393771    19.247300     2.795000    10.011400
     168    1      6   0.16393771    18.939800     3.304000     7.392700
     169    1      6   0.16393771    15.984000     6.731100     8.407300
     170    1      6   0.16393771    16.285400     6.212800    11.023200
     171    1      3  -0.04317483    16.899200     5.034900     6.233500
     172    1      2  -0.15143747    17.475800     4.036000     5.213800
     173    1      2  -0.15143747    16.863900     3.938500     3.803100
     174    1      1  -0.09144983    15.683400     4.848100     3.408900
     175    1      2  -0.15143747    15.164100     5.903700     4.402400
     176    1      2  -0.15143747    15.777800     6.002800     5.812100
     177    1      6   0.16393771    18.321400     3.334800     5.519000
     178    1      6   0.16393771    17.264900     3.172400     3.060300
     179    1      6   0.16393771    14.306500     6.593200     4.104800
     180    1      6   0.16393771    15.367700     6.759000     6.560300

Bonds

       1      9        1        2
       2     10        1        3
       3     10        1        4
       4      9        1        7
       5     10        2        5
       6     10        2        6
       7      9        2      115
       8      9        7        8
       9     10        7        9
      10     10        7       10
      11     10        8       11
      12     10        8       12
      13      9        8       13
      14      9       13       14
      15     10       13       15
      16     10       13       16
      17     10       14       17
      18     10       14       18
      19      9       14       19
      20      9       19       20
      21     10       19       21
      22     10       19       22
      23     10       20       23
      24     10       20       24
      25      9       20       25
      26      9       25       26
      27     10       25       27
      28     10       25       28
      29     10       26       29
      30     10       26       30
      31      9       26       31
      32      9       31       32
      33     10       31       33
      34     10       31       34
      35     10       32       35
      36     10       32       36
      37      9       32       37
      38      9       37       38
      39     10       37       39
      40     10       37       40
      41     10       38       41
      42     10       38       42
      43      9       38       43
      44      9       43       44
      45     10       43       45
      46     10       43       46
      47     10       44       47
      48     10       44       48
      49      9       44       49
      50      9       49       50
      51     10       49       51
      52     10       49       52
      53     10       50       53
      54     10       50       54
      55      9       50       55
      56      9       55       56
      57     10       55       57
      58     10       55       58
      59     10       56       59
      60     10       56       60
      61      9       56       61
      62      9       61       62
      63     10       61       63
      64     10       61       64
      65     10       62       65
      66     10       62       66
      67      9       62       67
      68      9       67       68
      69     10       67       69
      70     10       67       70
      71     10       68       71
      72     10       68       72
      73      9       68       73
      74      9       73       74
      75     10       73       75
      76     10       73       76
      77     10       74       77
      78     10       74       78
      79      9       74       79
      80      9       79       80
      81     10       79       81
      82     10       79       82
      83     10       80       83
      84     10       80       84
      85      9       80       85
      86      9       85       86
      87     10       85       87
      88     10       85       88
      89     10       86       89
      90     10       86       90
      91      9       86       91
      92      9       91       92
      93     10       91       93
      94     10       91       94
      95     10       92       95
      96     10       92       96
      97      9       92       97
      98      9       97       98
      99     10       97       99
     100     10       97      100
     101     10       98      101
     102     10       98      102
     103      9       98      103
     104      7      103      104
     105     10      103      105
     106     10      103      106
     107      8      104      107
     108      8      104      108
     109      2      104      121
     110      7      109      110
     111      8      109      111
     112      8      109      112
     113      2      109      174
     114     10      110      113
     115     10      110      114
     116      9      110      116
     117      9      115      116
     118     10      115      117
     119     10      115      118
     120     10      116      119
     121     10      116      120
     122      1      121      122
     123      3      122      123
     124      5      122      127
     125      4      123      124
     126      5      123      128
     127      4      124      125
     128      6      124      131
     129      3      125      126
     130      5      125      129
     131      1      126      121
     132      5      126      130
     133      4      131      132
     134      3      132      133
     135      5      132      137
     136      4      133      134
     137      5      133      138
     138      4      134      135
     139      6      134      141
     140      3      135      136
     141      5      135      139
     142      4      136      131
     143      5      136      140
     144      4      141      142
     145      3      142      143
     146      5      142      147
     147      4      143      144
     148      5      143      148
     149      4      144      145
     150      6      144      151
     151      3      145      146
     152      5      145      149
     153      4      146      141
     154      5      146      150
     155      4      151      152
     156      3      152      153
     157      5      152      157
     158      4      153      154
     159      5      153      158
     160      4      154      155
     161      6      154      161
     162      3      155      156
     163      5      155      159
     164      4      156      151
     165      5      156      160
     166      4      161      162
     167      3      162      163
     168      5      162      167
     169      4      163      164
     170      5      163      168
     171      4      164      165
     172      6      164      171
     173      3      165      166
     174      5      165      169
     175      4      166      161
     176      5      166      170
     177      4      171      172
     178      3      172      173
     179      5      172      177
     180      1      173      174
     181      5      173      178
     182      1      174      175
     183      3      175      176
     184      5      175      179
     185      4      176      171
     186      5      176      180

Angles

       1     16        1        2        5
       2     16        1        2        6
       3     15        1        2      115
       4     15        1        7        8
       5     16        1        7        9
       6     16        1        7       10
       7     16        2        1        3
       8     16        2        1        4
       9     15        2        1        7
      10     15        2      115      116
      11     16        2      115      117
      12     16        2      115      118
      13     18        3        1        4
      14     16        3        1        7
      15     16        4        1        7
      16     18        5        2        6
      17     16        5        2      115
      18     16        6        2      115
      19     16        7        8       11
      20     16        7        8       12
      21     15        7        8       13
      22     16        8        7        9
      23     16        8        7       10
      24     15        8       13       14
      25     16        8       13       15
      26     16        8       13       16
      27     18        9        7       10
      28     18       11        8       12
      29     16       11        8       13
      30     16       12        8       13
      31     16       13       14       17
      32     16       13       14       18
      33     15       13       14       19
      34     16       14       13       15
      35     16       14       13       16
      36     15       14       19       20
      37     16       14       19       21
      38     16       14       19       22
      39     18       15       13       16
      40     18       17       14       18
      41     16       17       14       19
      42     16       18       14       19
      43     16       19       20       23
      44     16       19       20       24
      45     15       19       20       25
      46     16       20       19       21
      47     16       20       19       22
      48     15       20       25       26
      49     16       20       25       27
      50     16       20       25       28
      51     18       21       19       22
      52     18       23       20       24
      53     16       23       20       25
      54     16       24       20       25
      55     16       25       26       29
      56     16       25       26       30
      57     15       25       26       31
      58     16       26       25       27
      59     16       26       25       28
      60     15       26       31       32
      61     16       26       31       33
      62     16       26       31       34
      63     18       27       25       28
      64     18       29       26       30
      65     16       29       26       31
      66     16       30       26       31
      67     16       31       32       35
      68     16       31       32       36
      69     15       31       32       37
      70     16       32       31       33
      71     16       32       31       34
      72     15       32       37       38
      73     16       32       37       39
      74     16       32       37       40
      75     18       33       31       34
      76     18       35       32       36
      77     16       35       32       37
      78     16       36       32       37
      79     16       37       38       41
      80     16       37       38       42
      81     15       37       38       43
      82     16       38       37       39
      83     16       38       37       40
      84     15       38       43       44
      85     16       38       43       45
      86     16       38       43       46
      87     18       39       37       40
      88     18       41       38       42
      89     16       41       38       43
      90     16       42       38       43
      91     16       43       44       47
      92     16       43       44       48
      93     15       43       44       49
      94     16       44       43       45
      95     16       44       43       46
      96     15       44       49       50
      97     16       44       49       51
      98     16       44       49       52
      99     18       45       43       46
     100     18       47       44       48
     101     16       47       44       49
     102     16       48       44       49
     103     16       49       50       53
     104     16       49       50       54
     105     15       49       50       55
     106     16       50       49       51
     107     16       50       49       52
     108     15       50       55       56
     109     16       50       55       57
     110     16       50       55       58
     111     18       51       49       52
     112     18       53       50       54
     113     16       53       50       55
     114     16       54       50       55
     115     16       55       56       59
     116     16       55       56       60
     117     15       55       56       61
     118     16       56       55       57
     119     16       56       55       58
     120     15       56       61       62
     121     16       56       61       63
     122     16       56       61       64
     123     18       57       55       58
     124     18       59       56       60
     125     16       59       56       61
     126     16       60       56       61
     127     16       61       62       65
     128     16       61       62       66
     129     15       61       62       67
     130     16       62       61       63
     131     16       62       61       64
     132     15       62       67       68
     133     16       62       67       69
     134     16       62       67       70
     135     18       63       61       64
     136     18       65       62       66
     137     16       65       62       67
     138     16       66       62       67
     139     16       67       68       71
     140     16       67       68       72
     141     15       67       68       73
     142     16       68       67       69
     143     16       68       67       70
     144     15       68       73       74
     145     16       68       73       75
     146     16       68       73       76
     147     18       69       67       70
     148     18       71       68       72
     149     16       71       68       73
     150     16       72       68       73
     151     16       73       74       77
     152     16       73       74       78
     153     15       73       74       79
     154     16       74       73       75
     155     16       74       73       76
     156     15       74       79       80
     157     16       74       79       81
     158     16       74       79       82
     159     18       75       73       76
     160     18       77       74       78
     161     16       77       74       79
     162     16       78       74       79
     163     16       79       80       83
     164     16       79       80       84
     165     15       79       80       85
     166     16       80       79       81
     167     16       80       79       82
     168     15       80       85       86
     169     16       80       85       87
     170     16       80       85       88
     171     18       81       79       82
     172     18       83       80       84
     173     16       83       80       85
     174     16       84       80       85
     175     16       85       86       89
     176     16       85       86       90
     177     15       85       86       91
     178     16       86       85       87
     179     16       86       85       88
     180     15       86       91       92
     181     16       86       91       93
     182     16       86       91       94
     183     18       87       85       88
     184     18       89       86       90
     185     16       89       86       91
     186     16       90       86       91
     187     16       91       92       95
     188     16       91       92       96
     189     15       91       92       97
     190     16       92       91       93
     191     16       92       91       94
     192     15       92       97       98
     193     16       92       97       99
     194     16       92       97      100
     195     18       93       91       94
     196     18       95       92       96
     197     16       95       92       97
     198     16       96       92       97
     199     16       97       98      101
     200     16       97       98      102
     201     15       97       98      103
     202     16       98       97       99
     203     16       98       97      100
     204     12       98      103      104
     205     16       98      103      105
     206     16       98      103      106
     207     18       99       97      100
     208     18      101       98      102
     209     16      101       98      103
     210     16      102       98      103
     211     14      103      104      107
     212     14      103      104      108
     213      3      103      104      121
     214     13      104      103      105
     215     13      104      103      106
     216      6      104      121      122
     217      6      104      121      126
     218     18      105      103      106
     219     17      107      104      108
     220      4      107      104      121
     221      4      108      104      121
     222     13      109      110      113
     223     13      109      110      114
     224     12      109      110      116
     225      6      109      174      173
     226      6      109      174      175
     227     14      110      109      111
     228     14      110      109      112
     229      3      110      109      174
     230     15      110      116      115
     231     16      110      116      119
     232     16      110      116      120
     233     17      111      109      112
     234      4      111      109      174
     235      4      112      109      174
     236     18      113      110      114
     237     16      113      110      116
     238     16      114      110      116
     239     16      115      116      119
     240     16      115      116      120
     241     16      116      115      117
     242     16      116      115      118
     243     18      117      115      118
     244     18      119      116      120
     245      1      121      122      123
     246      2      121      122      127
     247      1      121      126      125
     248      2      121      126      130
     249      5      122      121      126
     250      7      122      123      124
     251      8      122      123      128
     252      8      123      122      127
     253      9      123      124      125
     254     10      123      124      131
     255     11      124      123      128
     256      7      124      125      126
     257     11      124      125      129
     258     10      124      131      132
     259     10      124      131      136
     260     10      125      124      131
     261      8      125      126      130
     262      8      126      125      129
     263      7      131      132      133
     264     11      131      132      137
     265      7      131      136      135
     266     11      131      136      140
     267      9      132      131      136
     268      7      132      133      134
     269      8      132      133      138
     270      8      133      132      137
     271      9      133      134      135
     272     10      133      134      141
     273     11      134      133      138
     274      7      134      135      136
     275     11      134      135      139
     276     10      134      141      142
     277     10      134      141      146
     278     10      135      134      141
     279      8      135      136      140
     280      8      136      135      139
     281      7      141      142      143
     282     11      141      142      147
     283      7      141      146      145
     284     11      141      146      150
     285      9      142      141      146
     286      7      142      143      144
     287      8      142      143      148
     288      8      143      142      147
     289      9      143      144      145
     290     10      143      144      151
     291     11      144      143      148
     292      7      144      145      146
     293     11      144      145      149
     294     10      144      151      152
     295     10      144      151      156
     296     10      145      144      151
     297      8      145      146      150
     298      8      146      145      149
     299      7      151      152      153
     300     11      151      152      157
     301      7      151      156      155
     302     11      151      156      160
     303      9      152      151      156
     304      7      152      153      154
     305      8      152      153      158
     306      8      153      152      157
     307      9      153      154      155
     308     10      153      154      161
     309     11      154      153      158
     310      7      154      155      156
     311     11      154      155      159
     312     10      154      161      162
     313     10      154      161      166
     314     10      155      154      161
     315      8      155      156      160
     316      8      156      155      159
     317      7      161      162      163
     318     11      161      162      167
     319      7      161      166      165
     320     11      161      166      170
     321      9      162      161      166
     322      7      162      163      164
     323      8      162      163      168
     324      8      163      162      167
     325      9      163      164      165
     326     10      163      164      171
     327     11      164      163      168
     328      7      164      165      166
     329     11      164      165      169
     330     10      164      171      172
     331     10      164      171      176
     332     10      165      164      171
     333      8      165      166      170
     334      8      166      165      169
     335      7      171      172      173
     336     11      171      172      177
     337      7      171      176      175
     338     11      171      176      180
     339      9      172      171      176
     340      1      172      173      174
     341      8      172      173      178
     342      8      173      172      177
     343      5      173      174      175
     344      2      174      173      178
     345      1      174      175      176
     346      2      174      175      179
     347      8      175      176      180
     348      8      176      175      179

Dihedrals

       1     21        1        2      115      116
       2     22        1        2      115      117
       3     22        1        2      115      118
       4     22        1        7        8       11
       5     22        1        7        8       12
       6     21        1        7        8       13
       7     21        2        1        7        8
       8     22        2        1        7        9
       9     22        2        1        7       10
      10     21        2      115      116      110
      11     22        2      115      116      119
      12     22        2      115      116      120
      13     25        3        1        2        5
      14     25        3        1        2        6
      15     22        3        1        2      115
      16     22        3        1        7        8
      17     25        3        1        7        9
      18     25        3        1        7       10
      19     25        4        1        2        5
      20     25        4        1        2        6
      21     22        4        1        2      115
      22     22        4        1        7        8
      23     25        4        1        7        9
      24     25        4        1        7       10
      25     22        5        2        1        7
      26     22        5        2      115      116
      27     25        5        2      115      117
      28     25        5        2      115      118
      29     22        6        2        1        7
      30     22        6        2      115      116
      31     25        6        2      115      117
      32     25        6        2      115      118
      33     21        7        1        2      115
      34     21        7        8       13       14
      35     22        7        8       13       15
      36     22        7        8       13       16
      37     22        8       13       14       17
      38     22        8       13       14       18
      39     21        8       13       14       19
      40     25        9        7        8       11
      41     25        9        7        8       12
      42     22        9        7        8       13
      43     25       10        7        8       11
      44     25       10        7        8       12
      45     22       10        7        8       13
      46     22       11        8       13       14
      47     25       11        8       13       15
      48     25       11        8       13       16
      49     22       12        8       13       14
      50     25       12        8       13       15
      51     25       12        8       13       16
      52     21       13       14       19       20
      53     22       13       14       19       21
      54     22       13       14       19       22
      55     22       14       19       20       23
      56     22       14       19       20       24
      57     21       14       19       20       25
      58     25       15       13       14       17
      59     25       15       13       14       18
      60     22       15       13       14       19
      61     25       16       13       14       17
      62     25       16       13       14       18
      63     22       16       13       14       19
      64     22       17       14       19       20
      65     25       17       14       19       21
      66     25       17       14       19       22
      67     22       18       14       19       20
      68     25       18       14       19       21
      69     25       18       14       19       22
      70     21       19       20       25       26
      71     22       19       20       25       27
      72     22       19       20       25       28
      73     22       20       25       26       29
      74     22       20       25       26       30
      75     21       20       25       26       31
      76     25       21       19       20       23
      77     25       21       19       20       24
      78     22       21       19       20       25
      79     25       22       19       20       23
      80     25       22       19       20       24
      81     22       22       19       20       25
      82     22       23       20       25       26
      83     25       23       20       25       27
      84     25       23       20       25       28
      85     22       24       20       25       26
      86     25       24       20       25       27
      87     25       24       20       25       28
      88     21       25       26       31       32
      89     22       25       26       31       33
      90     22       25       26       31       34
      91     22       26       31       32       35
      92     22       26       31       32       36
      93     21       26       31       32       37
      94     25       27       25       26       29
      95     25       27       25       26       30
      96     22       27       25       26       31
      97     25       28       25       26       29
      98     25       28       25       26       30
      99     22       28       25       26       31
     100     22       29       26       31       32
     101     25       29       26       31       33
     102     25       29       26       31       34
     103     22       30       26       31       32
     104     25       30       26       31       33
     105     25       30       26       31       34
     106     21       31       32       37       38
     107     22       31       32       37       39
     108     22       31       32       37       40
     109     22       32       37       38       41
     110     22       32       37       38       42
     111     21       32       37       38       43
     112     25       33       31       32       35
     113     25       33       31       32       36
     114     22       33       31       32       37
     115     25       34       31       32       35
     116     25       34       31       32       36
     117     22       34       31       32       37
     118     22       35       32       37       38
     119     25       35       32       37       39
     120     25       35       32       37       40
     121     22       36       32       37       38
     122     25       36       32       37       39
     123     25       36       32       37       40
     124     21       37       38       43       44
     125     22       37       38       43       45
     126     22       37       38       43       46
     127     22       38       43       44       47
     128     22       38       43       44       48
     129     21       38       43       44       49
     130     25       39       37       38       41
     131     25       39       37       38       42
     132     22       39       37       38       43
     133     25       40       37       38       41
     134     25       40       37       38       42
     135     22       40       37       38       43
     136     22       41       38       43       44
     137     25       41       38       43       45
     138     25       41       38       43       46
     139     22       42       38       43       44
     140     25       42       38       43       45
     141     25       42       38       43       46
     142     21       43       44       49       50
     143     22       43       44       49       51
     144     22       43       44       49       52
     145     22       44       49       50       53
     146     22       44       49       50       54
     147     21       44       49       50       55
     148     25       45       43       44       47
     149     25       45       43       44       48
     150     22       45       43       44       49
     151     25       46       43       44       47
     152     25       46       43       44       48
     153     22       46       43       44       49
     154     22       47       44       49       50
     155     25       47       44       49       51
     156     25       47       44       49       52
     157     22       48       44       49       50
     158     25       48       44       49       51
     159     25       48       44       49       52
     160     21       49       50       55       56
     161     22       49       50       55       57
     162     22       49       50       55       58
     163     22       50       55       56       59
     164     22       50       55       56       60
     165     21       50       55       56       61
     166     25       51       49       50       53
     167     25       51       49       50       54
     168     22       51       49       50       55
     169     25       52       49       50       53
     170     25       52       49       50       54
     171     22       52       49       50       55
     172     22       53       50       55       56
     173     25       53       50       55       57
     174     25       53       50       55       58
     175     22       54       50       55       56
     176     25       54       50       55       57
     177     25       54       50       55       58
     178     21       55       56       61       62
     179     22       55       56       61       63
     180     22       55       56       61       64
     181     22       56       61       62       65
     182     22       56       61       62       66
     183     21       56       61       62       67
     184     25       57       55       56       59
     185     25       57       55       56       60
     186     22       57       55       56       61
     187     25       58       55       56       59
     188     25       58       55       56       60
     189     22       58       55       56       61
     190     22       59       56       61       62
     191     25       59       56       61       63
     192     25       59       56       61       64
     193     22       60       56       61       62
     194     25       60       56       61       63
     195     25       60       56       61       64
     196     21       61       62       67       68
     197     22       61       62       67       69
     198     22       61       62       67       70
     199     22       62       67       68       71
     200     22       62       67       68       72
     201     21       62       67       68       73
     202     25       63       61       62       65
     203     25       63       61       62       66
     204     22       63       61       62       67
     205     25       64       61       62       65
     206     25       64       61       62       66
     207     22       64       61       62       67
     208     22       65       62       67       68
     209     25       65       62       67       69
     210     25       65       62       67       70
     211     22       66       62       67       68
     212     25       66       62       67       69
     213     25       66       62       67       70
     214     21       67       68       73       74
     215     22       67       68       73       75
     216     22       67       68       73       76
     217     22       68       73       74       77
     218     22       68       73       74       78
     219     21       68       73       74       79
     220     25       69       67       68       71
     221     25       69       67       68       72
     222     22       69       67       68       73
     223     25       70       67       68       71
     224     25       70       67       68       72
     225     22       70       67       68       73
     226     22       71       68       73       74
     227     25       71       68       73       75
     228     25       71       68       73       76
     229     22       72       68       73       74
     230     25       72       68       73       75
     231     25       72       68       73       76
     232     21       73       74       79       80
     233     22       73       74       79       81
     234     22       73       74       79       82
     235     22       74       79       80       83
     236     22       74       79       80       84
     237     21       74       79       80       85
     238     25       75       73       74       77
     239     25       75       73       74       78
     240     22       75       73       74       79
     241     25       76       73       74       77
     242     25       76       73       74       78
     243     22       76       73       74       79
     244     22       77       74       79       80
     245     25       77       74       79       81
     246     25       77       74       79       82
     247     22       78       74       79       80
     248     25       78       74       79       81
     249     25       78       74       79       82
     250     21       79       80       85       86
     251     22       79       80       85       87
     252     22       79       80       85       88
     253     22       80       85       86       89
     254     22       80       85       86       90
     255     21       80       85       86       91
     256     25       81       79       80       83
     257     25       81       79       80       84
     258     22       81       79       80       85
     259     25       82       79       80       83
     260     25       82       79       80       84
     261     22       82       79       80       85
     262     22       83       80       85       86
     263     25       83       80       85       87
     264     25       83       80       85       88
     265     22       84       80       85       86
     266     25       84       80       85       87
     267     25       84       80       85       88
     268     21       85       86       91       92
     269     22       85       86       91       93
     270     22       85       86       91       94
     271     22       86       91       92       95
     272     22       86       91       92       96
     273     21       86       91       92       97
     274     25       87       85       86       89
     275     25       87       85       86       90
     276     22       87       85       86       91
     277     25       88       85       86       89
     278     25       88       85       86       90
     279     22       88       85       86       91
     280     22       89       86       91       92
     281     25       89       86       91       93
     282     25       89       86       91       94
     283     22       90       86       91       92
     284     25       90       86       91       93
     285     25       90       86       91       94
     286     21       91       92       97       98
     287     22       91       92       97       99
     288     22       91       92       97      100
     289     22       92       97       98      101
     290     22       92       97       98      102
     291     21       92       97       98      103
     292     25       93       91       92       95
     293     25       93       91       92       96
     294     22       93       91       92       97
     295     25       94       91       92       95
     296     25       94       91       92       96
     297     22       94       91       92       97
     298     22       95       92       97       98
     299     25       95       92       97       99
     300     25       95       92       97      100
     301     22       96       92       97       98
     302     25       96       92       97       99
     303     25       96       92       97      100
     304     18       97       98      103      104
     305     22       97       98      103      105
     306     22       97       98      103      106
     307     20       98      103      104      107
     308     20       98      103      104      108
     309      3       98      103      104      121
     310     25       99       97       98      101
     311     25       99       97       98      102
     312     22       99       97       98      103
     313     25      100       97       98      101
     314     25      100       97       98      102
     315     22      100       97       98      103
     316     19      101       98      103      104
     317     25      101       98      103      105
     318     25      101       98      103      106
     319     19      102       98      103      104
     320     25      102       98      103      105
     321     25      102       98      103      106
     322      7      103      104      121      122
     323      7      103      104      121      126
     324      9      104      121      122      123
     325     17      104      121      122      127
     326      9      104      121      126      125
     327     17      104      121      126      130
     328     24      105      103      104      107
     329     24      105      103      104      108
     330      4      105      103      104      121
     331     24      106      103      104      107
     332     24      106      103      104      108
     333      4      106      103      104      121
     334      8      107      104      121      122
     335      8      107      104      121      126
     336      8      108      104      121      122
     337      8      108      104      121      126
     338     18      109      110      116      115
     339     19      109      110      116      119
     340     19      109      110      116      120
     341      9      109      174      173      172
     342     17      109      174      173      178
     343      9      109      174      175      176
     344     17      109      174      175      179
     345      7      110      109      174      173
     346      7      110      109      174      175
     347     22      110      116      115      117
     348     22      110      116      115      118
     349     24      111      109      110      113
     350     24      111      109      110      114
     351     20      111      109      110      116
     352      8      111      109      174      173
     353      8      111      109      174      175
     354     24      112      109      110      113
     355     24      112      109      110      114
     356     20      112      109      110      116
     357      8      112      109      174      173
     358      8      112      109      174      175
     359      4      113      110      109      174
     360     22      113      110      116      115
     361     25      113      110      116      119
     362     25      113      110      116      120
     363      4      114      110      109      174
     364     22      114      110      116      115
     365     25      114      110      116      119
     366     25      114      110      116      120
     367      3      116      110      109      174
     368     25      117      115      116      119
     369     25      117      115      116      120
     370     25      118      115      116      119
     371     25      118      115      116      120
     372      1      121      122      123      124
     373      2      121      122      123      128
     374      1      121      126      125      124
     375      2      121      126      125      129
     376      5      122      121      126      125
     377      6      122      121      126      130
     378     10      122      123      124      125
     379     11      122      123      124      131
     380      5      123      122      121      126
     381     10      123      124      125      126
     382     12      123      124      125      129
     383     13      123      124      131      132
     384     13      123      124      131      136
     385     15      124      123      122      127
     386     15      124      125      126      130
     387     11      124      131      132      133
     388     16      124      131      132      137
     389     11      124      131      136      135
     390     16      124      131      136      140
     391     12      125      124      123      128
     392     13      125      124      131      132
     393     13      125      124      131      136
     394      6      126      121      122      127
     395     11      126      125      124      131
     396     23      127      122      123      128
     397     16      128      123      124      131
     398     16      129      125      124      131
     399     23      129      125      126      130
     400     14      131      132      133      134
     401     15      131      132      133      138
     402     14      131      136      135      134
     403     15      131      136      135      139
     404     10      132      131      136      135
     405     12      132      131      136      140
     406     10      132      133      134      135
     407     11      132      133      134      141
     408     10      133      132      131      136
     409     10      133      134      135      136
     410     12      133      134      135      139
     411     13      133      134      141      142
     412     13      133      134      141      146
     413     15      134      133      132      137
     414     15      134      135      136      140
     415     11      134      141      142      143
     416     16      134      141      142      147
     417     11      134      141      146      145
     418     16      134      141      146      150
     419     12      135      134      133      138
     420     13      135      134      141      142
     421     13      135      134      141      146
     422     12      136      131      132      137
     423     11      136      135      134      141
     424     23      137      132      133      138
     425     16      138      133      134      141
     426     16      139      135      134      141
     427     23      139      135      136      140
     428     14      141      142      143      144
     429     15      141      142      143      148
     430     14      141      146      145      144
     431     15      141      146      145      149
     432     10      142      141      146      145
     433     12      142      141      146      150
     434     10      142      143      144      145
     435     11      142      143      144      151
     436     10      143      142      141      146
     437     10      143      144      145      146
     438     12      143      144      145      149
     439     13      143      144      151      152
     440     13      143      144      151      156
     441     15      144      143      142      147
     442     15      144      145      146      150
     443     11      144      151      152      153
     444     16      144      151      152      157
     445     11      144      151      156      155
     446     16      144      151      156      160
     447     12      145      144      143      148
     448     13      145      144      151      152
     449     13      145      144      151      156
     450     12      146      141      142      147
     451     11      146      145      144      151
     452     23      147      142      143      148
     453     16      148      143      144      151
     454     16      149      145      144      151
     455     23      149      145      146      150
     456     14      151      152      153      154
     457     15      151      152      153      158
     458     14      151      156      155      154
     459     15      151      156      155      159
     460     10      152      151      156      155
     461     12      152      151      156      160
     462     10      152      153      154      155
     463     11      152      153      154      161
     464     10      153      152      151      156
     465     10      153      154      155      156
     466     12      153      154      155      159
     467     13      153      154      161      162
     468     13      153      154      161      166
     469     15      154      153      152      157
     470     15      154      155      156      160
     471     11      154      161      162      163
     472     16      154      161      162      167
     473     11      154      161      166      165
     474     16      154      161      166      170
     475     12      155      154      153      158
     476     13      155      154      161      162
     477     13      155      154      161      166
     478     12      156      151      152      157
     479     11      156      155      154      161
     480     23      157      152      153      158
     481     16      158      153      154      161
     482     16      159      155      154      161
     483     23      159      155      156      160
     484     14      161      162      163      164
     485     15      161      162      163      168
     486     14      161      166      165      164
     487     15      161      166      165      169
     488     10      162      161      166      165
     489     12      162      161      166      170
     490     10      162      163      164      165
     491     11      162      163      164      171
     492     10      163      162      161      166
     493     10      163      164      165      166
     494     12      163      164      165      169
     495     13      163      164      171      172
     496     13      163      164      171      176
     497     15      164      163      162      167
     498     15      164      165      166      170
     499     11      164      171      172      173
     500     16      164      171      172      177
     501     11      164      171      176      175
     502     16      164      171      176      180
     503     12      165      164      163      168
     504     13      165      164      171      172
     505     13      165      164      171      176
     506     12      166      161      162      167
     507     11      166      165      164      171
     508     23      167      162      163      168
     509     16      168      163      164      171
     510     16      169      165      164      171
     511     23      169      165      166      170
     512      1      171      172      173      174
     513     15      171      172      173      178
     514      1      171      176      175      174
     515     15      171      176      175      179
     516     10      172      171      176      175
     517     12      172      171      176      180
     518      5      172      173      174      175
     519     10      173      172      171      176
     520      5      173      174      175      176
     521      6      173      174      175      179
     522      2      174      173      172      177
     523      2      174      175      176      180
     524      6      175      174      173      178
     525     12      176      171      172      177
     526     23      177      172      173      178
     527     23      179      175      176      180

Impropers

       1      1      104      121      122      126
       2      2      121      122      123      127
       3      3      122      123      124      128
       4      4      123      124      125      131
       5      3      124      125      126      129
       6      2      121      126      125      130
       7      4      124      131      132      136
       8      3      131      132      133      137
       9      3      132      133      134      138
      10      4      133      134      135      141
      11      3      134      135      136      139
      12      3      131      136      135      140
      13      4      134      141      142      146
      14      3      141      142      143      147
      15      3      142      143      144      148
      16      4      143      144      145      151
      17      3      144      145      146      149
      18      3      141      146      145      150
      19      4      144      151      152      156
      20      3      151      152      153      157
      21      3      152      153      154      158
      22      4      153      154      155      161
      23      3      154      155      156      159
      24      3      151      156      155      160
      25      4      154      161      162      166
      26      3      161      162      163      167
      27      3      162      163      164      168
      28      4      163      164      165      171
      29      3      164      165      166      169
      30      3      161      166      165      170
      31      4      164      171      172      176
      32      3      171      172      173      177
      33      2      172      173      174      178
      34      1      109      174      173      175
      35      2      174      175      176      179
      36      3      171      176      175      180

