LAMMPS data file generated by clean-room 1-hop pipeline

     176 atoms
     187 bonds
     330 angles
     505 dihedrals
      66 impropers

       7 atom types
      10 bond types
      18 angle types
      25 dihedral types
       4 improper types

  -30.293000    35.189000 xlo xhi
  -36.632000    25.554900 ylo yhi
  -36.742200    23.152500 zlo zhi

Masses

       1    12.011000
       2    12.011000
       3    12.011000
       4    12.011000
       5    12.011000
       6     1.008000
       7     1.008000

Pair Coeffs

       1     0.070000     3.550000
       2     0.070000     3.550000
       3     0.070000     3.550000
       4     0.066000     3.500000
       5     0.066000     3.500000
       6     0.030000     2.420000
       7     0.030000     2.500000

Bond Coeffs

       1   469.000000     1.400000
       2   317.000000     1.510000
       3   469.000000     1.400000
       4   469.000000     1.400000
       5   367.000000     1.080000
       6   385.000000     1.460000
       7   268.000000     1.529000
       8   340.000000     1.090000
       9   268.000000     1.529000
      10   340.000000     1.090000

Angle Coeffs

       1    63.000000   120.000000
       2    35.000000   120.000000
       3    63.000000   114.000000
       4    35.000000   109.500000
       5    63.000000   120.000000
       6    70.000000   120.000000
       7    63.000000   120.000000
       8    35.000000   120.000000
       9    63.000000   120.000000
      10    63.000000   120.000000
      11    35.000000   120.000000
      12    58.350000   112.700000
      13    37.500000   110.700000
      14    37.500000   110.700000
      15    58.350000   112.700000
      16    37.500000   110.700000
      17    33.000000   107.800000
      18    33.000000   107.800000

Dihedral Coeffs

       1     0.000000     7.250000     0.000000     0.000000
       2     0.000000     7.250000     0.000000     0.000000
       3     0.000000     0.000000     0.000000     0.000000
       4     0.000000     0.000000     0.462000     0.000000
       5     0.000000     7.250000     0.000000     0.000000
       6     0.000000     7.250000     0.000000     0.000000
       7    -0.250000     0.000000     0.000000     0.000000
       8     0.000000     0.000000     0.000000     0.000000
       9     0.000000     7.250000     0.000000     0.000000
      10     0.000000     7.250000     0.000000     0.000000
      11     0.000000     7.250000     0.000000     0.000000
      12     0.000000     7.250000     0.000000     0.000000
      13     0.000000     1.650000     0.000000    -0.050000
      14     0.000000     7.250000     0.000000     0.000000
      15     0.000000     7.250000     0.000000     0.000000
      16     0.000000     7.250000     0.000000     0.000000
      17     0.000000     7.250000     0.000000     0.000000
      18     0.850000    -0.200000     0.200000     0.000000
      19     0.000000     0.000000     0.300000     0.000000
      20     0.000000     0.000000     0.300000     0.000000
      21     0.850000    -0.200000     0.200000     0.000000
      22     0.000000     0.000000     0.300000     0.000000
      23     0.000000     7.250000     0.000000     0.000000
      24     0.000000     0.000000     0.300000     0.000000
      25     0.000000     0.000000     0.300000     0.000000

Improper Coeffs

       1     2.500000   -1    2
       2     2.500000   -1    2
       3     2.500000   -1    2
       4     2.500000   -1    2

Atoms

       1    1      3  -0.04158520     0.570800   -14.563900   -14.284600
       2    1      2  -0.14984784     1.820800   -15.202300   -13.652700
       3    1      2  -0.14984784     3.219400   -14.680900   -14.027900
       4    1      3  -0.04158520     3.361700   -13.519300   -15.028800
       5    1      2  -0.14984784     2.121400   -12.980400   -15.765500
       6    1      2  -0.14984784     0.722400   -13.507800   -15.395700
       7    1      6   0.16552734     1.708700   -16.029500   -12.876100
       8    1      6   0.16552734     4.145900   -15.123500   -13.532300
       9    1      6   0.16552734     2.234700   -12.162100   -16.551300
      10    1      6   0.16552734    -0.202600   -13.082300   -15.908500
      11    1      3  -0.04158520    -0.823500   -14.897000   -13.725800
      12    1      2  -0.14984784    -0.962500   -15.857500   -12.530400
      13    1      2  -0.14984784    -2.306200   -15.961700   -11.785500
      14    1      3  -0.04158520    -3.499700   -15.100800   -12.237900
      15    1      2  -0.14984784    -3.408800   -14.283600   -13.539200
      16    1      2  -0.14984784    -2.066100   -14.181600   -14.285700
      17    1      6   0.16552734    -0.059200   -16.450200   -12.166100
      18    1      6   0.16552734    -2.401000   -16.632000   -10.868300
      19    1      6   0.16552734    -4.318600   -13.710600   -13.918300
      20    1      6   0.16552734    -1.979500   -13.534400   -15.220300
      21    1      3  -0.04158520    -4.727000   -14.950900   -11.322700
      22    1      2  -0.14984784    -4.773300   -15.691800    -9.973800
      23    1      2  -0.14984784    -5.821200   -15.293800    -8.918700
      24    1      3  -0.04158520    -6.805600   -14.148100    -9.215800
      25    1      2  -0.14984784    -6.878400   -13.543800   -10.630100
      26    1      2  -0.14984784    -5.840000   -13.953100   -11.690800
      27    1      6   0.16552734    -3.999300   -16.494600    -9.736500
      28    1      6   0.16552734    -5.829000   -15.803900    -7.899200
      29    1      6   0.16552734    -7.663700   -12.754200   -10.874100
      30    1      6   0.16552734    -5.855800   -13.470100   -12.723400
      31    1      3  -0.04158520    -7.617900   -13.524000    -8.067800
      32    1      2  -0.14984784    -7.489200   -14.095700    -6.645000
      33    1      2  -0.14984784    -8.066500   -13.315400    -5.451300
      34    1      3  -0.04158520    -8.754800   -11.958700    -5.683000
      35    1      2  -0.14984784    -9.015600   -11.462800    -7.117700
      36    1      2  -0.14984784    -8.454400   -12.254400    -8.314700
      37    1      6   0.16552734    -6.927600   -15.072500    -6.471000
      38    1      6   0.16552734    -7.941700   -13.717600    -4.392000
      39    1      6   0.16552734    -9.586000   -10.491100    -7.291400
      40    1      6   0.16552734    -8.610500   -11.871400    -9.377000
      41    1      3  -0.04158520    -9.091900   -11.065200    -4.476600
      42    1      2  -0.14984784    -8.783200   -11.564600    -3.054600
      43    1      2  -0.14984784    -8.921200   -10.607600    -1.858400
      44    1      1  -0.08986020    -9.373600    -9.153600    -2.082800
      45    1      2  -0.14984784    -9.768200    -8.679400    -3.494900
      46    1      2  -0.14984784    -9.641400    -9.642400    -4.691700
      47    1      6   0.16552734    -8.418500   -12.632600    -2.892100
      48    1      6   0.16552734    -8.655000   -10.965500    -0.809300
      49    1      6   0.16552734   -10.123300    -7.608500    -3.658600
      50    1      6   0.16552734    -9.913300    -9.288900    -5.740800
      51    1      1  -0.08986020    11.754400     3.986100    -2.913200
      52    1      2  -0.14984784    12.337100     2.628800    -2.473800
      53    1      2  -0.14984784    13.140600     1.776900    -3.477000
      54    1      3  -0.04158520    13.331600     2.273900    -4.922800
      55    1      2  -0.14984784    12.846900     3.677300    -5.324100
      56    1      2  -0.14984784    12.056000     4.532300    -4.320100
      57    1      6   0.16552734    12.138800     2.236300    -1.421800
      58    1      6   0.16552734    13.546100     0.758100    -3.165600
      59    1      6   0.16552734    13.039000     4.066700    -6.378300
      60    1      6   0.16552734    11.659800     5.554900    -4.630800
      61    1      3  -0.04158520    13.900200     1.335200    -6.001300
      62    1      2  -0.14984784    14.361500    -0.087100    -5.633400
      63    1      2  -0.14984784    14.674900    -1.101800    -6.750000
      64    1      3  -0.04158520    14.495900    -0.695000    -8.225000
      65    1      2  -0.14984784    14.187400     0.767900    -8.587500
      66    1      2  -0.14984784    13.901800     1.788500    -7.472300
      67    1      6   0.16552734    14.429100    -0.401200    -4.539300
      68    1      6   0.16552734    14.980800    -2.167400    -6.484500
      69    1      6   0.16552734    14.124800     1.083800    -9.681200
      70    1      6   0.16552734    13.634400     2.864400    -7.737500
      71    1      3  -0.04158520    14.500600    -1.768900    -9.326700
      72    1      2  -0.14984784    14.804600    -3.234800    -8.970400
      73    1      2  -0.14984784    14.529800    -4.344500   -10.001300
      74    1      3  -0.04158520    13.923600    -3.984400   -11.370500
      75    1      2  -0.14984784    13.774300    -2.508500   -11.781400
      76    1      2  -0.14984784    14.079800    -1.396300   -10.760800
      77    1      6   0.16552734    15.189000    -3.502100    -7.930700
      78    1      6   0.16552734    14.718500    -5.435500    -9.730000
      79    1      6   0.16552734    13.394500    -2.240800   -12.822600
      80    1      6   0.16552734    13.934900    -0.302500   -11.047200
      81    1      3  -0.04158520    13.361700    -5.098800   -12.270700
      82    1      2  -0.14984784    13.503300    -6.568400   -11.837400
      83    1      2  -0.14984784    12.719000    -7.664700   -12.578700
      84    1      3  -0.04158520    11.782100    -7.285300   -13.739300
      85    1      2  -0.14984784    11.756000    -5.837900   -14.266500
      86    1      2  -0.14984784    12.557100    -4.742500   -13.535600
      87    1      6   0.16552734    14.154800    -6.838700   -10.941700
      88    1      6   0.16552734    12.793000    -8.749800   -12.237100
      89    1      6   0.16552734    11.113400    -5.570400   -15.169400
      90    1      6   0.16552734    12.510900    -3.662300   -13.897700
      91    1      3  -0.04158520    10.805500    -8.337000   -14.294700
      92    1      2  -0.14984784    10.813400    -9.758800   -13.706200
      93    1      2  -0.14984784     9.696200   -10.748700   -14.077000
      94    1      3  -0.04158520     8.572500   -10.314400   -15.033900
      95    1      2  -0.14984784     8.637700    -8.939400   -15.726000
      96    1      2  -0.14984784     9.759100    -7.947900   -15.356400
      97    1      6   0.16552734    11.621100   -10.062600   -12.961200
      98    1      6   0.16552734     9.675600   -11.787900   -13.608400
      99    1      6   0.16552734     7.838400    -8.642500   -16.482800
     100    1      6   0.16552734     9.791400    -6.915400   -15.838500
     101    1      3  -0.04158520     4.728800   -12.837500   -15.214400
     102    1      2  -0.14984784     5.946600   -13.348700   -14.424400
     103    1      2  -0.14984784     7.257300   -12.543000   -14.428800
     104    1      3  -0.04158520     7.345000   -11.224300   -15.217600
     105    1      2  -0.14984784     6.170300   -10.780600   -16.109800
     106    1      2  -0.14984784     4.859600   -11.591700   -16.111100
     107    1      6   0.16552734     5.865400   -14.303500   -13.806700
     108    1      6   0.16552734     8.149400   -12.900500   -13.815500
     109    1      6   0.16552734     6.256700    -9.833300   -16.738200
     110    1      6   0.16552734     3.974900   -11.247100   -16.742200
     111    1      4  -0.14233728    -9.276300    -8.147200    -0.922300
     112    1      5  -0.19073470    -8.680500    -6.828500    -1.448300
     113    1      7   0.10047489   -10.293000    -7.965100    -0.440000
     114    1      7   0.10047489    -8.561300    -8.582900    -0.148000
     115    1      7   0.10047489    -9.422700    -6.306500    -2.138500
     116    1      7   0.10047489    -7.725800    -7.061100    -2.024500
     117    1      5  -0.19073470    -8.296000    -5.940000    -0.251200
     118    1      5  -0.19073470    -7.630100    -4.646300    -0.754700
     119    1      7   0.10047489    -9.206700    -5.691200     0.386500
     120    1      7   0.10047489    -7.539700    -6.517600     0.377500
     121    1      7   0.10047489    -8.396300    -3.992500    -1.289100
     122    1      7   0.10047489    -6.791300    -4.916400    -1.476300
     123    1      5  -0.19073470    -7.001600    -3.909500     0.442200
     124    1      5  -0.19073470    -6.285800    -2.639000    -0.050800
     125    1      7   0.10047489    -7.789600    -3.640400     1.219600
     126    1      7   0.10047489    -6.228700    -4.605100     0.910900
     127    1      7   0.10047489    -7.047800    -1.877000    -0.422700
     128    1      7   0.10047489    -5.582400    -2.919400    -0.901700
     129    1      5  -0.19073470    -5.434000    -2.061800     1.094500
     130    1      5  -0.19073470    -4.673500    -0.822000     0.590300
     131    1      7   0.10047489    -6.080000    -1.789300     1.993000
     132    1      7   0.10047489    -4.676300    -2.857600     1.399000
     133    1      7   0.10047489    -5.398300     0.034500     0.390600
     134    1      7   0.10047489    -4.131600    -1.094000    -0.374700
     135    1      5  -0.19073470    -3.606400    -0.427400     1.627600
     136    1      5  -0.19073470    -2.790400     0.762500     1.091200
     137    1      7   0.10047489    -4.074800    -0.166400     2.633800
     138    1      7   0.10047489    -2.907500    -1.319400     1.754400
     139    1      7   0.10047489    -3.424400     1.709400     1.075800
     140    1      7   0.10047489    -2.446000     0.518100     0.033100
     141    1      5  -0.19073470    -1.530600     0.933500     1.958800
     142    1      5  -0.19073470    -0.649800     2.052000     1.373500
     143    1      7   0.10047489    -0.949900    -0.046300     1.906500
     144    1      7   0.10047489    -1.793700     1.160000     3.044600
     145    1      7   0.10047489    -1.134200     3.071800     1.531800
     146    1      7   0.10047489    -0.516800     1.862800     0.257300
     147    1      5  -0.19073470     0.742700     1.969000     2.024400
     148    1      5  -0.19073470     1.678900     3.008700     1.383100
     149    1      7   0.10047489     1.155600     0.929700     1.803900
     150    1      7   0.10047489     0.690000     2.123500     3.152500
     151    1      7   0.10047489     1.384100     4.063000     1.701100
     152    1      7   0.10047489     1.603200     2.918100     0.249200
     153    1      5  -0.19073470     3.129600     2.675000     1.776500
     154    1      5  -0.19073470     4.087300     3.655300     1.075800
     155    1      7   0.10047489     3.348900     1.621100     1.400900
     156    1      7   0.10047489     3.278500     2.713300     2.906200
     157    1      7   0.10047489     3.988200     4.696400     1.528700
     158    1      7   0.10047489     3.821700     3.696900    -0.031800
     159    1      5  -0.19073470     5.529700     3.127000     1.182000
     160    1      5  -0.19073470     6.462400     4.085700     0.419800
     161    1      7   0.10047489     5.559100     2.105200     0.678000
     162    1      7   0.10047489     5.861700     3.025700     2.267900
     163    1      7   0.10047489     6.552200     5.074600     0.980100
     164    1      7   0.10047489     6.018800     4.277100    -0.613400
     165    1      5  -0.19073470     7.841500     3.434700     0.207700
     166    1      5  -0.19073470     8.706500     4.411300    -0.609600
     167    1      7   0.10047489     7.684400     2.481800    -0.397100
     168    1      7   0.10047489     8.348700     3.181500     1.196600
     169    1      7   0.10047489     8.097400     4.761400    -1.507500
     170    1      7   0.10047489     8.987100     5.313200     0.028500
     171    1      5  -0.19073470     9.956500     3.703700    -1.164400
     172    1      4  -0.14233728    10.727300     4.717000    -2.029900
     173    1      7   0.10047489     9.600500     2.847900    -1.828300
     174    1      7   0.10047489    10.623700     3.292500    -0.336600
     175    1      7   0.10047489     9.984100     5.220000    -2.733000
     176    1      7   0.10047489    11.220300     5.509400    -1.374500

Bonds

       1      4        1        2
       2      6        1       11
       3      3        2        3
       4      5        2        7
       5      4        3        4
       6      5        3        8
       7      4        4        5
       8      6        4      101
       9      3        5        6
      10      5        5        9
      11      4        6        1
      12      5        6       10
      13      4       11       12
      14      3       12       13
      15      5       12       17
      16      4       13       14
      17      5       13       18
      18      4       14       15
      19      6       14       21
      20      3       15       16
      21      5       15       19
      22      4       16       11
      23      5       16       20
      24      4       21       22
      25      3       22       23
      26      5       22       27
      27      4       23       24
      28      5       23       28
      29      4       24       25
      30      6       24       31
      31      3       25       26
      32      5       25       29
      33      4       26       21
      34      5       26       30
      35      4       31       32
      36      3       32       33
      37      5       32       37
      38      4       33       34
      39      5       33       38
      40      4       34       35
      41      6       34       41
      42      3       35       36
      43      5       35       39
      44      4       36       31
      45      5       36       40
      46      4       41       42
      47      3       42       43
      48      5       42       47
      49      1       43       44
      50      5       43       48
      51      1       44       45
      52      2       44      111
      53      3       45       46
      54      5       45       49
      55      4       46       41
      56      5       46       50
      57      1       51       52
      58      2       51      172
      59      3       52       53
      60      5       52       57
      61      4       53       54
      62      5       53       58
      63      4       54       55
      64      6       54       61
      65      3       55       56
      66      5       55       59
      67      1       56       51
      68      5       56       60
      69      4       61       62
      70      3       62       63
      71      5       62       67
      72      4       63       64
      73      5       63       68
      74      4       64       65
      75      6       64       71
      76      3       65       66
      77      5       65       69
      78      4       66       61
      79      5       66       70
      80      4       71       72
      81      3       72       73
      82      5       72       77
      83      4       73       74
      84      5       73       78
      85      4       74       75
      86      6       74       81
      87      3       75       76
      88      5       75       79
      89      4       76       71
      90      5       76       80
      91      4       81       82
      92      3       82       83
      93      5       82       87
      94      4       83       84
      95      5       83       88
      96      4       84       85
      97      6       84       91
      98      3       85       86
      99      5       85       89
     100      4       86       81
     101      5       86       90
     102      4       91       92
     103      3       92       93
     104      5       92       97
     105      4       93       94
     106      5       93       98
     107      4       94       95
     108      6       94      104
     109      3       95       96
     110      5       95       99
     111      4       96       91
     112      5       96      100
     113      4      101      102
     114      3      102      103
     115      5      102      107
     116      4      103      104
     117      5      103      108
     118      4      104      105
     119      3      105      106
     120      5      105      109
     121      4      106      101
     122      5      106      110
     123      7      111      112
     124      8      111      113
     125      8      111      114
     126     10      112      115
     127     10      112      116
     128      9      112      117
     129      9      117      118
     130     10      117      119
     131     10      117      120
     132     10      118      121
     133     10      118      122
     134      9      118      123
     135      9      123      124
     136     10      123      125
     137     10      123      126
     138     10      124      127
     139     10      124      128
     140      9      124      129
     141      9      129      130
     142     10      129      131
     143     10      129      132
     144     10      130      133
     145     10      130      134
     146      9      130      135
     147      9      135      136
     148     10      135      137
     149     10      135      138
     150     10      136      139
     151     10      136      140
     152      9      136      141
     153      9      141      142
     154     10      141      143
     155     10      141      144
     156     10      142      145
     157     10      142      146
     158      9      142      147
     159      9      147      148
     160     10      147      149
     161     10      147      150
     162     10      148      151
     163     10      148      152
     164      9      148      153
     165      9      153      154
     166     10      153      155
     167     10      153      156
     168     10      154      157
     169     10      154      158
     170      9      154      159
     171      9      159      160
     172     10      159      161
     173     10      159      162
     174     10      160      163
     175     10      160      164
     176      9      160      165
     177      9      165      166
     178     10      165      167
     179     10      165      168
     180     10      166      169
     181     10      166      170
     182      9      166      171
     183      7      171      172
     184     10      171      173
     185     10      171      174
     186      8      172      175
     187      8      172      176

Angles

       1      7        1        2        3
       2     11        1        2        7
       3      7        1        6        5
       4     11        1        6       10
       5     10        1       11       12
       6     10        1       11       16
       7      9        2        1        6
       8     10        2        1       11
       9      7        2        3        4
      10      8        2        3        8
      11      8        3        2        7
      12      9        3        4        5
      13     10        3        4      101
      14     11        4        3        8
      15      7        4        5        6
      16     11        4        5        9
      17     10        4      101      102
      18     10        4      101      106
      19     10        5        4      101
      20      8        5        6       10
      21     10        6        1       11
      22      8        6        5        9
      23      7       11       12       13
      24     11       11       12       17
      25      7       11       16       15
      26     11       11       16       20
      27      9       12       11       16
      28      7       12       13       14
      29      8       12       13       18
      30      8       13       12       17
      31      9       13       14       15
      32     10       13       14       21
      33     11       14       13       18
      34      7       14       15       16
      35     11       14       15       19
      36     10       14       21       22
      37     10       14       21       26
      38     10       15       14       21
      39      8       15       16       20
      40      8       16       15       19
      41      7       21       22       23
      42     11       21       22       27
      43      7       21       26       25
      44     11       21       26       30
      45      9       22       21       26
      46      7       22       23       24
      47      8       22       23       28
      48      8       23       22       27
      49      9       23       24       25
      50     10       23       24       31
      51     11       24       23       28
      52      7       24       25       26
      53     11       24       25       29
      54     10       24       31       32
      55     10       24       31       36
      56     10       25       24       31
      57      8       25       26       30
      58      8       26       25       29
      59      7       31       32       33
      60     11       31       32       37
      61      7       31       36       35
      62     11       31       36       40
      63      9       32       31       36
      64      7       32       33       34
      65      8       32       33       38
      66      8       33       32       37
      67      9       33       34       35
      68     10       33       34       41
      69     11       34       33       38
      70      7       34       35       36
      71     11       34       35       39
      72     10       34       41       42
      73     10       34       41       46
      74     10       35       34       41
      75      8       35       36       40
      76      8       36       35       39
      77      7       41       42       43
      78     11       41       42       47
      79      7       41       46       45
      80     11       41       46       50
      81      9       42       41       46
      82      1       42       43       44
      83      8       42       43       48
      84      8       43       42       47
      85      5       43       44       45
      86      6       43       44      111
      87      2       44       43       48
      88      1       44       45       46
      89      2       44       45       49
      90      3       44      111      112
      91      4       44      111      113
      92      4       44      111      114
      93      6       45       44      111
      94      8       45       46       50
      95      8       46       45       49
      96      1       51       52       53
      97      2       51       52       57
      98      1       51       56       55
      99      2       51       56       60
     100      3       51      172      171
     101      4       51      172      175
     102      4       51      172      176
     103      5       52       51       56
     104      6       52       51      172
     105      7       52       53       54
     106      8       52       53       58
     107      8       53       52       57
     108      9       53       54       55
     109     10       53       54       61
     110     11       54       53       58
     111      7       54       55       56
     112     11       54       55       59
     113     10       54       61       62
     114     10       54       61       66
     115     10       55       54       61
     116      8       55       56       60
     117      6       56       51      172
     118      8       56       55       59
     119      7       61       62       63
     120     11       61       62       67
     121      7       61       66       65
     122     11       61       66       70
     123      9       62       61       66
     124      7       62       63       64
     125      8       62       63       68
     126      8       63       62       67
     127      9       63       64       65
     128     10       63       64       71
     129     11       64       63       68
     130      7       64       65       66
     131     11       64       65       69
     132     10       64       71       72
     133     10       64       71       76
     134     10       65       64       71
     135      8       65       66       70
     136      8       66       65       69
     137      7       71       72       73
     138     11       71       72       77
     139      7       71       76       75
     140     11       71       76       80
     141      9       72       71       76
     142      7       72       73       74
     143      8       72       73       78
     144      8       73       72       77
     145      9       73       74       75
     146     10       73       74       81
     147     11       74       73       78
     148      7       74       75       76
     149     11       74       75       79
     150     10       74       81       82
     151     10       74       81       86
     152     10       75       74       81
     153      8       75       76       80
     154      8       76       75       79
     155      7       81       82       83
     156     11       81       82       87
     157      7       81       86       85
     158     11       81       86       90
     159      9       82       81       86
     160      7       82       83       84
     161      8       82       83       88
     162      8       83       82       87
     163      9       83       84       85
     164     10       83       84       91
     165     11       84       83       88
     166      7       84       85       86
     167     11       84       85       89
     168     10       84       91       92
     169     10       84       91       96
     170     10       85       84       91
     171      8       85       86       90
     172      8       86       85       89
     173      7       91       92       93
     174     11       91       92       97
     175      7       91       96       95
     176     11       91       96      100
     177      9       92       91       96
     178      7       92       93       94
     179      8       92       93       98
     180      8       93       92       97
     181      9       93       94       95
     182     10       93       94      104
     183     11       94       93       98
     184      7       94       95       96
     185     11       94       95       99
     186     10       94      104      103
     187     10       94      104      105
     188     10       95       94      104
     189      8       95       96      100
     190      8       96       95       99
     191      7      101      102      103
     192     11      101      102      107
     193      7      101      106      105
     194     11      101      106      110
     195      9      102      101      106
     196      7      102      103      104
     197      8      102      103      108
     198      8      103      102      107
     199      9      103      104      105
     200     11      104      103      108
     201      7      104      105      106
     202     11      104      105      109
     203      8      105      106      110
     204      8      106      105      109
     205     13      111      112      115
     206     13      111      112      116
     207     12      111      112      117
     208     14      112      111      113
     209     14      112      111      114
     210     15      112      117      118
     211     16      112      117      119
     212     16      112      117      120
     213     17      113      111      114
     214     18      115      112      116
     215     16      115      112      117
     216     16      116      112      117
     217     16      117      118      121
     218     16      117      118      122
     219     15      117      118      123
     220     16      118      117      119
     221     16      118      117      120
     222     15      118      123      124
     223     16      118      123      125
     224     16      118      123      126
     225     18      119      117      120
     226     18      121      118      122
     227     16      121      118      123
     228     16      122      118      123
     229     16      123      124      127
     230     16      123      124      128
     231     15      123      124      129
     232     16      124      123      125
     233     16      124      123      126
     234     15      124      129      130
     235     16      124      129      131
     236     16      124      129      132
     237     18      125      123      126
     238     18      127      124      128
     239     16      127      124      129
     240     16      128      124      129
     241     16      129      130      133
     242     16      129      130      134
     243     15      129      130      135
     244     16      130      129      131
     245     16      130      129      132
     246     15      130      135      136
     247     16      130      135      137
     248     16      130      135      138
     249     18      131      129      132
     250     18      133      130      134
     251     16      133      130      135
     252     16      134      130      135
     253     16      135      136      139
     254     16      135      136      140
     255     15      135      136      141
     256     16      136      135      137
     257     16      136      135      138
     258     15      136      141      142
     259     16      136      141      143
     260     16      136      141      144
     261     18      137      135      138
     262     18      139      136      140
     263     16      139      136      141
     264     16      140      136      141
     265     16      141      142      145
     266     16      141      142      146
     267     15      141      142      147
     268     16      142      141      143
     269     16      142      141      144
     270     15      142      147      148
     271     16      142      147      149
     272     16      142      147      150
     273     18      143      141      144
     274     18      145      142      146
     275     16      145      142      147
     276     16      146      142      147
     277     16      147      148      151
     278     16      147      148      152
     279     15      147      148      153
     280     16      148      147      149
     281     16      148      147      150
     282     15      148      153      154
     283     16      148      153      155
     284     16      148      153      156
     285     18      149      147      150
     286     18      151      148      152
     287     16      151      148      153
     288     16      152      148      153
     289     16      153      154      157
     290     16      153      154      158
     291     15      153      154      159
     292     16      154      153      155
     293     16      154      153      156
     294     15      154      159      160
     295     16      154      159      161
     296     16      154      159      162
     297     18      155      153      156
     298     18      157      154      158
     299     16      157      154      159
     300     16      158      154      159
     301     16      159      160      163
     302     16      159      160      164
     303     15      159      160      165
     304     16      160      159      161
     305     16      160      159      162
     306     15      160      165      166
     307     16      160      165      167
     308     16      160      165      168
     309     18      161      159      162
     310     18      163      160      164
     311     16      163      160      165
     312     16      164      160      165
     313     16      165      166      169
     314     16      165      166      170
     315     15      165      166      171
     316     16      166      165      167
     317     16      166      165      168
     318     12      166      171      172
     319     16      166      171      173
     320     16      166      171      174
     321     18      167      165      168
     322     18      169      166      170
     323     16      169      166      171
     324     16      170      166      171
     325     14      171      172      175
     326     14      171      172      176
     327     13      172      171      173
     328     13      172      171      174
     329     18      173      171      174
     330     17      175      172      176

Dihedrals

       1     14        1        2        3        4
       2     15        1        2        3        8
       3     14        1        6        5        4
       4     15        1        6        5        9
       5     11        1       11       12       13
       6     16        1       11       12       17
       7     11        1       11       16       15
       8     16        1       11       16       20
       9     10        2        1        6        5
      10     12        2        1        6       10
      11     13        2        1       11       12
      12     13        2        1       11       16
      13     10        2        3        4        5
      14     11        2        3        4      101
      15     10        3        2        1        6
      16     11        3        2        1       11
      17     10        3        4        5        6
      18     12        3        4        5        9
      19     13        3        4      101      102
      20     13        3        4      101      106
      21     15        4        3        2        7
      22     15        4        5        6       10
      23     11        4      101      102      103
      24     16        4      101      102      107
      25     11        4      101      106      105
      26     16        4      101      106      110
      27     12        5        4        3        8
      28     13        5        4      101      102
      29     13        5        4      101      106
      30     11        5        6        1       11
      31     12        6        1        2        7
      32     13        6        1       11       12
      33     13        6        1       11       16
      34     11        6        5        4      101
      35     16        7        2        1       11
      36     23        7        2        3        8
      37     16        8        3        4      101
      38     16        9        5        4      101
      39     23        9        5        6       10
      40     16       10        6        1       11
      41     14       11       12       13       14
      42     15       11       12       13       18
      43     14       11       16       15       14
      44     15       11       16       15       19
      45     10       12       11       16       15
      46     12       12       11       16       20
      47     10       12       13       14       15
      48     11       12       13       14       21
      49     10       13       12       11       16
      50     10       13       14       15       16
      51     12       13       14       15       19
      52     13       13       14       21       22
      53     13       13       14       21       26
      54     15       14       13       12       17
      55     15       14       15       16       20
      56     11       14       21       22       23
      57     16       14       21       22       27
      58     11       14       21       26       25
      59     16       14       21       26       30
      60     12       15       14       13       18
      61     13       15       14       21       22
      62     13       15       14       21       26
      63     12       16       11       12       17
      64     11       16       15       14       21
      65     23       17       12       13       18
      66     16       18       13       14       21
      67     16       19       15       14       21
      68     23       19       15       16       20
      69     14       21       22       23       24
      70     15       21       22       23       28
      71     14       21       26       25       24
      72     15       21       26       25       29
      73     10       22       21       26       25
      74     12       22       21       26       30
      75     10       22       23       24       25
      76     11       22       23       24       31
      77     10       23       22       21       26
      78     10       23       24       25       26
      79     12       23       24       25       29
      80     13       23       24       31       32
      81     13       23       24       31       36
      82     15       24       23       22       27
      83     15       24       25       26       30
      84     11       24       31       32       33
      85     16       24       31       32       37
      86     11       24       31       36       35
      87     16       24       31       36       40
      88     12       25       24       23       28
      89     13       25       24       31       32
      90     13       25       24       31       36
      91     12       26       21       22       27
      92     11       26       25       24       31
      93     23       27       22       23       28
      94     16       28       23       24       31
      95     16       29       25       24       31
      96     23       29       25       26       30
      97     14       31       32       33       34
      98     15       31       32       33       38
      99     14       31       36       35       34
     100     15       31       36       35       39
     101     10       32       31       36       35
     102     12       32       31       36       40
     103     10       32       33       34       35
     104     11       32       33       34       41
     105     10       33       32       31       36
     106     10       33       34       35       36
     107     12       33       34       35       39
     108     13       33       34       41       42
     109     13       33       34       41       46
     110     15       34       33       32       37
     111     15       34       35       36       40
     112     11       34       41       42       43
     113     16       34       41       42       47
     114     11       34       41       46       45
     115     16       34       41       46       50
     116     12       35       34       33       38
     117     13       35       34       41       42
     118     13       35       34       41       46
     119     12       36       31       32       37
     120     11       36       35       34       41
     121     23       37       32       33       38
     122     16       38       33       34       41
     123     16       39       35       34       41
     124     23       39       35       36       40
     125      1       41       42       43       44
     126     15       41       42       43       48
     127      1       41       46       45       44
     128     15       41       46       45       49
     129     10       42       41       46       45
     130     12       42       41       46       50
     131      5       42       43       44       45
     132      9       42       43       44      111
     133     10       43       42       41       46
     134      5       43       44       45       46
     135      6       43       44       45       49
     136      7       43       44      111      112
     137      8       43       44      111      113
     138      8       43       44      111      114
     139      2       44       43       42       47
     140      2       44       45       46       50
     141      4       44      111      112      115
     142      4       44      111      112      116
     143      3       44      111      112      117
     144      6       45       44       43       48
     145      7       45       44      111      112
     146      8       45       44      111      113
     147      8       45       44      111      114
     148     12       46       41       42       47
     149      9       46       45       44      111
     150     23       47       42       43       48
     151     17       48       43       44      111
     152     17       49       45       44      111
     153     23       49       45       46       50
     154      1       51       52       53       54
     155      2       51       52       53       58
     156      1       51       56       55       54
     157      2       51       56       55       59
     158      3       51      172      171      166
     159      4       51      172      171      173
     160      4       51      172      171      174
     161      5       52       51       56       55
     162      6       52       51       56       60
     163      7       52       51      172      171
     164      8       52       51      172      175
     165      8       52       51      172      176
     166     10       52       53       54       55
     167     11       52       53       54       61
     168      5       53       52       51       56
     169      9       53       52       51      172
     170     10       53       54       55       56
     171     12       53       54       55       59
     172     13       53       54       61       62
     173     13       53       54       61       66
     174     15       54       53       52       57
     175     15       54       55       56       60
     176     11       54       61       62       63
     177     16       54       61       62       67
     178     11       54       61       66       65
     179     16       54       61       66       70
     180     12       55       54       53       58
     181     13       55       54       61       62
     182     13       55       54       61       66
     183      9       55       56       51      172
     184      6       56       51       52       57
     185      7       56       51      172      171
     186      8       56       51      172      175
     187      8       56       51      172      176
     188     11       56       55       54       61
     189     17       57       52       51      172
     190     23       57       52       53       58
     191     16       58       53       54       61
     192     16       59       55       54       61
     193     23       59       55       56       60
     194     17       60       56       51      172
     195     14       61       62       63       64
     196     15       61       62       63       68
     197     14       61       66       65       64
     198     15       61       66       65       69
     199     10       62       61       66       65
     200     12       62       61       66       70
     201     10       62       63       64       65
     202     11       62       63       64       71
     203     10       63       62       61       66
     204     10       63       64       65       66
     205     12       63       64       65       69
     206     13       63       64       71       72
     207     13       63       64       71       76
     208     15       64       63       62       67
     209     15       64       65       66       70
     210     11       64       71       72       73
     211     16       64       71       72       77
     212     11       64       71       76       75
     213     16       64       71       76       80
     214     12       65       64       63       68
     215     13       65       64       71       72
     216     13       65       64       71       76
     217     12       66       61       62       67
     218     11       66       65       64       71
     219     23       67       62       63       68
     220     16       68       63       64       71
     221     16       69       65       64       71
     222     23       69       65       66       70
     223     14       71       72       73       74
     224     15       71       72       73       78
     225     14       71       76       75       74
     226     15       71       76       75       79
     227     10       72       71       76       75
     228     12       72       71       76       80
     229     10       72       73       74       75
     230     11       72       73       74       81
     231     10       73       72       71       76
     232     10       73       74       75       76
     233     12       73       74       75       79
     234     13       73       74       81       82
     235     13       73       74       81       86
     236     15       74       73       72       77
     237     15       74       75       76       80
     238     11       74       81       82       83
     239     16       74       81       82       87
     240     11       74       81       86       85
     241     16       74       81       86       90
     242     12       75       74       73       78
     243     13       75       74       81       82
     244     13       75       74       81       86
     245     12       76       71       72       77
     246     11       76       75       74       81
     247     23       77       72       73       78
     248     16       78       73       74       81
     249     16       79       75       74       81
     250     23       79       75       76       80
     251     14       81       82       83       84
     252     15       81       82       83       88
     253     14       81       86       85       84
     254     15       81       86       85       89
     255     10       82       81       86       85
     256     12       82       81       86       90
     257     10       82       83       84       85
     258     11       82       83       84       91
     259     10       83       82       81       86
     260     10       83       84       85       86
     261     12       83       84       85       89
     262     13       83       84       91       92
     263     13       83       84       91       96
     264     15       84       83       82       87
     265     15       84       85       86       90
     266     11       84       91       92       93
     267     16       84       91       92       97
     268     11       84       91       96       95
     269     16       84       91       96      100
     270     12       85       84       83       88
     271     13       85       84       91       92
     272     13       85       84       91       96
     273     12       86       81       82       87
     274     11       86       85       84       91
     275     23       87       82       83       88
     276     16       88       83       84       91
     277     16       89       85       84       91
     278     23       89       85       86       90
     279     14       91       92       93       94
     280     15       91       92       93       98
     281     14       91       96       95       94
     282     15       91       96       95       99
     283     10       92       91       96       95
     284     12       92       91       96      100
     285     10       92       93       94       95
     286     11       92       93       94      104
     287     10       93       92       91       96
     288     10       93       94       95       96
     289     12       93       94       95       99
     290     13       93       94      104      103
     291     13       93       94      104      105
     292     15       94       93       92       97
     293     15       94       95       96      100
     294     11       94      104      103      102
     295     16       94      104      103      108
     296     11       94      104      105      106
     297     16       94      104      105      109
     298     12       95       94       93       98
     299     13       95       94      104      103
     300     13       95       94      104      105
     301     12       96       91       92       97
     302     11       96       95       94      104
     303     23       97       92       93       98
     304     16       98       93       94      104
     305     16       99       95       94      104
     306     23       99       95       96      100
     307     14      101      102      103      104
     308     15      101      102      103      108
     309     14      101      106      105      104
     310     15      101      106      105      109
     311     10      102      101      106      105
     312     12      102      101      106      110
     313     10      102      103      104      105
     314     10      103      102      101      106
     315     10      103      104      105      106
     316     12      103      104      105      109
     317     15      104      103      102      107
     318     15      104      105      106      110
     319     12      105      104      103      108
     320     12      106      101      102      107
     321     23      107      102      103      108
     322     23      109      105      106      110
     323     18      111      112      117      118
     324     19      111      112      117      119
     325     19      111      112      117      120
     326     22      112      117      118      121
     327     22      112      117      118      122
     328     21      112      117      118      123
     329     24      113      111      112      115
     330     24      113      111      112      116
     331     20      113      111      112      117
     332     24      114      111      112      115
     333     24      114      111      112      116
     334     20      114      111      112      117
     335     22      115      112      117      118
     336     25      115      112      117      119
     337     25      115      112      117      120
     338     22      116      112      117      118
     339     25      116      112      117      119
     340     25      116      112      117      120
     341     21      117      118      123      124
     342     22      117      118      123      125
     343     22      117      118      123      126
     344     22      118      123      124      127
     345     22      118      123      124      128
     346     21      118      123      124      129
     347     25      119      117      118      121
     348     25      119      117      118      122
     349     22      119      117      118      123
     350     25      120      117      118      121
     351     25      120      117      118      122
     352     22      120      117      118      123
     353     22      121      118      123      124
     354     25      121      118      123      125
     355     25      121      118      123      126
     356     22      122      118      123      124
     357     25      122      118      123      125
     358     25      122      118      123      126
     359     21      123      124      129      130
     360     22      123      124      129      131
     361     22      123      124      129      132
     362     22      124      129      130      133
     363     22      124      129      130      134
     364     21      124      129      130      135
     365     25      125      123      124      127
     366     25      125      123      124      128
     367     22      125      123      124      129
     368     25      126      123      124      127
     369     25      126      123      124      128
     370     22      126      123      124      129
     371     22      127      124      129      130
     372     25      127      124      129      131
     373     25      127      124      129      132
     374     22      128      124      129      130
     375     25      128      124      129      131
     376     25      128      124      129      132
     377     21      129      130      135      136
     378     22      129      130      135      137
     379     22      129      130      135      138
     380     22      130      135      136      139
     381     22      130      135      136      140
     382     21      130      135      136      141
     383     25      131      129      130      133
     384     25      131      129      130      134
     385     22      131      129      130      135
     386     25      132      129      130      133
     387     25      132      129      130      134
     388     22      132      129      130      135
     389     22      133      130      135      136
     390     25      133      130      135      137
     391     25      133      130      135      138
     392     22      134      130      135      136
     393     25      134      130      135      137
     394     25      134      130      135      138
     395     21      135      136      141      142
     396     22      135      136      141      143
     397     22      135      136      141      144
     398     22      136      141      142      145
     399     22      136      141      142      146
     400     21      136      141      142      147
     401     25      137      135      136      139
     402     25      137      135      136      140
     403     22      137      135      136      141
     404     25      138      135      136      139
     405     25      138      135      136      140
     406     22      138      135      136      141
     407     22      139      136      141      142
     408     25      139      136      141      143
     409     25      139      136      141      144
     410     22      140      136      141      142
     411     25      140      136      141      143
     412     25      140      136      141      144
     413     21      141      142      147      148
     414     22      141      142      147      149
     415     22      141      142      147      150
     416     22      142      147      148      151
     417     22      142      147      148      152
     418     21      142      147      148      153
     419     25      143      141      142      145
     420     25      143      141      142      146
     421     22      143      141      142      147
     422     25      144      141      142      145
     423     25      144      141      142      146
     424     22      144      141      142      147
     425     22      145      142      147      148
     426     25      145      142      147      149
     427     25      145      142      147      150
     428     22      146      142      147      148
     429     25      146      142      147      149
     430     25      146      142      147      150
     431     21      147      148      153      154
     432     22      147      148      153      155
     433     22      147      148      153      156
     434     22      148      153      154      157
     435     22      148      153      154      158
     436     21      148      153      154      159
     437     25      149      147      148      151
     438     25      149      147      148      152
     439     22      149      147      148      153
     440     25      150      147      148      151
     441     25      150      147      148      152
     442     22      150      147      148      153
     443     22      151      148      153      154
     444     25      151      148      153      155
     445     25      151      148      153      156
     446     22      152      148      153      154
     447     25      152      148      153      155
     448     25      152      148      153      156
     449     21      153      154      159      160
     450     22      153      154      159      161
     451     22      153      154      159      162
     452     22      154      159      160      163
     453     22      154      159      160      164
     454     21      154      159      160      165
     455     25      155      153      154      157
     456     25      155      153      154      158
     457     22      155      153      154      159
     458     25      156      153      154      157
     459     25      156      153      154      158
     460     22      156      153      154      159
     461     22      157      154      159      160
     462     25      157      154      159      161
     463     25      157      154      159      162
     464     22      158      154      159      160
     465     25      158      154      159      161
     466     25      158      154      159      162
     467     21      159      160      165      166
     468     22      159      160      165      167
     469     22      159      160      165      168
     470     22      160      165      166      169
     471     22      160      165      166      170
     472     21      160      165      166      171
     473     25      161      159      160      163
     474     25      161      159      160      164
     475     22      161      159      160      165
     476     25      162      159      160      163
     477     25      162      159      160      164
     478     22      162      159      160      165
     479     22      163      160      165      166
     480     25      163      160      165      167
     481     25      163      160      165      168
     482     22      164      160      165      166
     483     25      164      160      165      167
     484     25      164      160      165      168
     485     18      165      166      171      172
     486     22      165      166      171      173
     487     22      165      166      171      174
     488     20      166      171      172      175
     489     20      166      171      172      176
     490     25      167      165      166      169
     491     25      167      165      166      170
     492     22      167      165      166      171
     493     25      168      165      166      169
     494     25      168      165      166      170
     495     22      168      165      166      171
     496     19      169      166      171      172
     497     25      169      166      171      173
     498     25      169      166      171      174
     499     19      170      166      171      172
     500     25      170      166      171      173
     501     25      170      166      171      174
     502     24      173      171      172      175
     503     24      173      171      172      176
     504     24      174      171      172      175
     505     24      174      171      172      176

Impropers

       1      4        2        1        6       11
       2      3        1        2        3        7
       3      3        2        3        4        8
       4      4        3        4        5      101
       5      3        4        5        6        9
       6      3        1        6        5       10
       7      4        1       11       12       16
       8      3       11       12       13       17
       9      3       12       13       14       18
      10      4       13       14       15       21
      11      3       14       15       16       19
      12      3       11       16       15       20
      13      4       14       21       22       26
      14      3       21       22       23       27
      15      3       22       23       24       28
      16      4       23       24       25       31
      17      3       24       25       26       29
      18      3       21       26       25       30
      19      4       24       31       32       36
      20      3       31       32       33       37
      21      3       32       33       34       38
      22      4       33       34       35       41
      23      3       34       35       36       39
      24      3       31       36       35       40
      25      4       34       41       42       46
      26      3       41       42       43       47
      27      2       42       43       44       48
      28      1       43       44       45      111
      29      2       44       45       46       49
      30      3       41       46       45       50
      31      1       52       51       56      172
      32      2       51       52       53       57
      33      3       52       53       54       58
      34      4       53       54       55       61
      35      3       54       55       56       59
      36      2       51       56       55       60
      37      4       54       61       62       66
      38      3       61       62       63       67
      39      3       62       63       64       68
      40      4       63       64       65       71
      41      3       64       65       66       69
      42      3       61       66       65       70
      43      4       64       71       72       76
      44      3       71       72       73       77
      45      3       72       73       74       78
      46      4       73       74       75       81
      47      3       74       75       76       79
      48      3       71       76       75       80
      49      4       74       81       82       86
      50      3       81       82       83       87
      51      3       82       83       84       88
      52      4       83       84       85       91
      53      3       84       85       86       89
      54      3       81       86       85       90
      55      4       84       91       92       96
      56      3       91       92       93       97
      57      3       92       93       94       98
      58      4       93       94       95      104
      59      3       94       95       96       99
      60      3       91       96       95      100
      61      4        4      101      102      106
      62      3      101      102      103      107
      63      3      102      103      104      108
      64      4       94      104      103      105
      65      3      104      105      106      109
      66      3      101      106      105      110

