LAMMPS data file generated by clean-room 1-hop pipeline

     237 atoms
     255 bonds
     432 angles
     653 dihedrals
     114 impropers

       8 atom types
      13 bond types
      30 angle types
      56 dihedral types
      11 improper types

  -29.468500    33.099800 xlo xhi
  -36.338800    36.096300 ylo yhi
  -34.896400    34.624700 zlo zhi

Masses

       1    12.011000
       2    12.011000
       3    12.011000
       4    12.011000
       5    12.011000
       6    12.011000
       7     1.008000
       8     1.008000

Pair Coeffs

       1     0.070000     3.550000
       2     0.070000     3.550000
       3     0.070000     3.550000
       4     0.066000     3.500000
       5     0.066000     3.500000
       6     0.066000     3.500000
       7     0.030000     2.420000
       8     0.030000     2.500000

Bond Coeffs

       1   469.000000     1.400000
       2   469.000000     1.400000
       3   469.000000     1.400000
       4   317.000000     1.510000
       5   469.000000     1.400000
       6   469.000000     1.400000
       7   367.000000     1.080000
       8   385.000000     1.460000
       9   268.000000     1.529000
      10   268.000000     1.529000
      11   268.000000     1.529000
      12   340.000000     1.090000
      13   340.000000     1.090000

Angle Coeffs

       1    63.000000   120.000000
       2    70.000000   120.000000
       3    63.000000   120.000000
       4    63.000000   120.000000
       5    35.000000   120.000000
       6    63.000000   120.000000
       7    63.000000   120.000000
       8    63.000000   114.000000
       9    63.000000   114.000000
      10    63.000000   114.000000
      11    35.000000   109.500000
      12    63.000000   120.000000
      13    63.000000   120.000000
      14    70.000000   120.000000
      15    63.000000   120.000000
      16    63.000000   120.000000
      17    35.000000   120.000000
      18    63.000000   120.000000
      19    63.000000   120.000000
      20    70.000000   120.000000
      21    63.000000   120.000000
      22    35.000000   120.000000
      23    63.000000   120.000000
      24    37.500000   110.700000
      25    37.500000   110.700000
      26    58.350000   112.700000
      27    37.500000   110.700000
      28    37.500000   110.700000
      29    33.000000   107.800000
      30    33.000000   107.800000

Dihedral Coeffs

       1     0.000000     7.250000     0.000000     0.000000
       2     0.000000     7.250000     0.000000     0.000000
       3    -0.250000     0.000000     0.000000     0.000000
       4    -0.250000     0.000000     0.000000     0.000000
       5     0.000000     0.000000     0.000000     0.000000
       6     0.000000     7.250000     0.000000     0.000000
       7     0.000000     7.250000     0.000000     0.000000
       8     0.000000     7.250000     0.000000     0.000000
       9     0.000000     7.250000     0.000000     0.000000
      10     0.000000     7.250000     0.000000     0.000000
      11     0.000000     7.250000     0.000000     0.000000
      12     0.000000     7.250000     0.000000     0.000000
      13     0.000000     1.650000     0.000000    -0.050000
      14     0.000000     0.000000     0.000000     0.000000
      15     0.000000     0.000000     0.462000     0.000000
      16     0.000000     0.000000     0.462000     0.000000
      17     0.000000     0.000000     0.000000     0.000000
      18     0.000000     7.250000     0.000000     0.000000
      19     0.000000     7.250000     0.000000     0.000000
      20     0.000000     7.250000     0.000000     0.000000
      21     0.000000     7.250000     0.000000     0.000000
      22     0.000000     7.250000     0.000000     0.000000
      23     0.000000     7.250000     0.000000     0.000000
      24     0.000000     7.250000     0.000000     0.000000
      25    -0.250000     0.000000     0.000000     0.000000
      26    -0.250000     0.000000     0.000000     0.000000
      27    -0.250000     0.000000     0.000000     0.000000
      28     0.000000     0.000000     0.000000     0.000000
      29     0.000000     7.250000     0.000000     0.000000
      30     0.000000     7.250000     0.000000     0.000000
      31     0.000000     7.250000     0.000000     0.000000
      32     0.000000     7.250000     0.000000     0.000000
      33     0.000000     7.250000     0.000000     0.000000
      34     0.000000     7.250000     0.000000     0.000000
      35     0.000000     7.250000     0.000000     0.000000
      36     0.000000     7.250000     0.000000     0.000000
      37     0.000000     7.250000     0.000000     0.000000
      38     0.000000     1.650000     0.000000    -0.050000
      39     0.000000     1.650000     0.000000    -0.050000
      40     0.000000     7.250000     0.000000     0.000000
      41     0.000000     7.250000     0.000000     0.000000
      42    -0.250000     0.000000     0.000000     0.000000
      43     0.000000     0.000000     0.000000     0.000000
      44     0.000000     7.250000     0.000000     0.000000
      45     0.000000     7.250000     0.000000     0.000000
      46     0.000000     7.250000     0.000000     0.000000
      47     0.000000     7.250000     0.000000     0.000000
      48     0.000000     7.250000     0.000000     0.000000
      49     0.000000     7.250000     0.000000     0.000000
      50     0.000000     1.650000     0.000000    -0.050000
      51     0.000000     7.250000     0.000000     0.000000
      52     0.000000     7.250000     0.000000     0.000000
      53     0.000000     0.000000     0.300000     0.000000
      54     0.000000     7.250000     0.000000     0.000000
      55     0.000000     0.000000     0.300000     0.000000
      56     0.000000     0.000000     0.300000     0.000000

Improper Coeffs

       1     2.500000   -1    2
       2     2.500000   -1    2
       3     2.500000   -1    2
       4     2.500000   -1    2
       5     2.500000   -1    2
       6     2.500000   -1    2
       7     2.500000   -1    2
       8     2.500000   -1    2
       9     2.500000   -1    2
      10     2.500000   -1    2
      11     2.500000   -1    2

Atoms

       1    1      3  -0.04084227     9.390400     1.312700     5.299500
       2    1      2  -0.14910491    10.186700     2.415400     4.578700
       3    1      2  -0.14910491    11.539700     2.883000     5.148000
       4    1      2  -0.14910491    12.097400     2.244400     6.434200
       5    1      2  -0.14910491    11.301600     1.138600     7.152200
       6    1      2  -0.14910491     9.947100     0.674800     6.585600
       7    1      7   0.16627027     9.773200     2.888100     3.627100
       8    1      7   0.16627027    12.128400     3.702600     4.617600
       9    1      7   0.16627027    13.099800     2.589300     6.853600
      10    1      7   0.16627027    11.715300     0.663000     8.102100
      11    1      7   0.16627027     9.355800    -0.142000     7.117600
      12    1      3  -0.04084227     6.496300    11.274600    -9.397100
      13    1      2  -0.14910491     6.684600    12.765800    -9.066600
      14    1      2  -0.14910491     7.021400    13.765500   -10.188300
      15    1      2  -0.14910491     7.169700    13.272700   -11.639900
      16    1      2  -0.14910491     6.976400    11.780900   -11.970400
      17    1      2  -0.14910491     6.637200    10.781900   -10.848800
      18    1      7   0.16627027     6.572700    13.129500    -7.991900
      19    1      7   0.16627027     7.162500    14.870000    -9.943900
      20    1      7   0.16627027     7.422600    14.012100   -12.470000
      21    1      7   0.16627027     7.083400    11.416600   -13.045200
      22    1      7   0.16627027     6.490000     9.677900   -11.092600
      23    1      3  -0.04084227     2.135100     5.938800   -11.266800
      24    1      2  -0.14910491     2.019200     6.699000   -12.600400
      25    1      2  -0.14910491     1.769900     5.925100   -13.907900
      26    1      2  -0.14910491     1.633300     4.391200   -13.880500
      27    1      2  -0.14910491     1.742600     3.631700   -12.545100
      28    1      2  -0.14910491     1.992500     4.406100   -11.237500
      29    1      7   0.16627027     2.124300     7.834000   -12.620000
      30    1      7   0.16627027     1.688700     6.487200   -14.896400
      31    1      7   0.16627027     1.450000     3.818200   -14.848700
      32    1      7   0.16627027     1.637600     2.496600   -12.524500
      33    1      7   0.16627027     2.075300     3.844800   -10.248600
      34    1      3  -0.04084227     3.211500    10.522500    -8.803300
      35    1      2  -0.14910491     3.663000    11.285300    -7.548400
      36    1      2  -0.14910491     3.997500    12.785200    -7.634400
      37    1      2  -0.14910491     3.858100    13.528000    -8.975600
      38    1      2  -0.14910491     3.393000    12.767600   -10.231000
      39    1      2  -0.14910491     3.072500    11.263800   -10.145500
      40    1      7   0.16627027     3.768500    10.733600    -6.556500
      41    1      7   0.16627027     4.342400    13.346500    -6.704200
      42    1      7   0.16627027     4.097900    14.640600    -9.038900
      43    1      7   0.16627027     3.288000    13.317200   -11.224100
      44    1      7   0.16627027     2.736100    10.698200   -11.076400
      45    1      3  -0.04084227     1.081800    12.496900    -7.450300
      46    1      2  -0.14910491     1.579900    13.894900    -7.039200
      47    1      2  -0.14910491     1.525300    15.061500    -8.043200
      48    1      2  -0.14910491     0.983000    14.828900    -9.465100
      49    1      2  -0.14910491     0.497100    13.428800    -9.882600
      50    1      2  -0.14910491     0.554300    12.262600    -8.878500
      51    1      7   0.16627027     1.997700    14.064100    -5.992100
      52    1      7   0.16627027     1.890200    16.096300    -7.734700
      53    1      7   0.16627027     0.944300    15.691900   -10.209100
      54    1      7   0.16627027     0.103900    13.253100   -10.938000
      55    1      7   0.16627027     0.220700    11.220300    -9.197700
      56    1      3  -0.04084227     0.125000    -4.534300     9.588000
      57    1      2  -0.14910491    -0.516300    -3.373000     8.804800
      58    1      2  -0.14910491    -0.520800    -1.952400     9.396800
      59    1      2  -0.14910491     0.104300    -1.693600    10.779600
      60    1      2  -0.14910491     0.730400    -2.856800    11.571400
      61    1      2  -0.14910491     0.736900    -4.277800    10.977400
      62    1      7   0.16627027    -0.984000    -3.565600     7.782900
      63    1      7   0.16627027    -0.985200    -1.092100     8.810600
      64    1      7   0.16627027     0.104600    -0.640800    11.217000
      65    1      7   0.16627027     1.191400    -2.665400    12.596200
      66    1      7   0.16627027     1.196700    -5.139800    11.565000
      67    1      3  -0.04084227     1.189400    -9.724200     9.958300
      68    1      2  -0.14910491     1.911400    -9.504600    11.299700
      69    1      2  -0.14910491     2.699500   -10.656700    11.948700
      70    1      2  -0.14910491     2.780800   -12.025300    11.247800
      71    1      2  -0.14910491     2.081800   -12.238400     9.892800
      72    1      2  -0.14910491     1.293800   -11.085600     9.244200
      73    1      7   0.16627027     1.851300    -8.491500    11.819100
      74    1      7   0.16627027     3.220600   -10.497300    12.950000
      75    1      7   0.16627027     3.360100   -12.880000    11.731000
      76    1      7   0.16627027     2.147800   -13.249300     9.370100
      77    1      7   0.16627027     0.778100   -11.242300     8.239600
      78    1      3  -0.04084227    -0.998900   -10.793400    10.613300
      79    1      2  -0.14910491    -1.226200    -9.335300    11.055900
      80    1      2  -0.14910491    -0.971900    -8.923900    12.517000
      81    1      2  -0.14910491    -0.513400    -9.976000    13.543000
      82    1      2  -0.14910491    -0.322100   -11.441300    13.109600
      83    1      2  -0.14910491    -0.576900   -11.851900    11.647900
      84    1      7   0.16627027    -1.572400    -8.557800    10.297200
      85    1      7   0.16627027    -1.124600    -7.841300    12.839500
      86    1      7   0.16627027    -0.321300    -9.671500    14.624700
      87    1      7   0.16627027     0.008400   -12.222500    13.871100
      88    1      7   0.16627027    -0.440200   -12.937600    11.328100
      89    1      3  -0.04084227     8.032700     0.847400     4.743500
      90    1      2  -0.14910491     7.232500    -0.226300     5.500000
      91    1      2  -0.14910491     5.866400    -0.685200     4.964400
      92    1      3  -0.04084227     5.304700    -0.083200     3.664100
      93    1      2  -0.14910491     6.110000     0.981300     2.895100
      94    1      2  -0.14910491     7.474100     1.451800     3.439800
      95    1      7   0.16627027     7.651000    -0.678600     6.459200
      96    1      7   0.16627027     5.268400    -1.473900     5.530300
      97    1      7   0.16627027     5.695100     1.425200     1.930400
      98    1      7   0.16627027     8.069800     2.245800     2.879100
      99    1      1  -0.08911727     2.173800     2.340300    -1.200800
     100    1      2  -0.14910491     2.751900     1.977000    -2.581000
     101    1      2  -0.14910491     3.187000     3.097400    -3.545600
     102    1      1  -0.08911727     3.060900     4.571100    -3.112200
     103    1      2  -0.14910491     2.231000     4.922200    -1.862800
     104    1      2  -0.14910491     1.777400     3.800400    -0.907300
     105    1      7   0.16627027     2.940800     0.885800    -2.851800
     106    1      7   0.16627027     3.696300     2.834400    -4.530900
     107    1      7   0.16627027     2.029500     6.012800    -1.598900
     108    1      7   0.16627027     1.233900     4.060700     0.060400
     109    1      1  -0.08911727     5.332700     8.302200    -6.064700
     110    1      2  -0.14910491     5.549800     7.799000    -7.505000
     111    1      2  -0.14910491     5.934300     8.790700    -8.617200
     112    1      3  -0.04084227     6.157800    10.275100    -8.277700
     113    1      2  -0.14910491     6.029300    10.761100    -6.822300
     114    1      2  -0.14910491     5.597800     9.778000    -5.719400
     115    1      7   0.16627027     5.406400     6.694900    -7.750200
     116    1      7   0.16627027     6.052300     8.427000    -9.691200
     117    1      7   0.16627027     6.227000    11.854400    -6.567200
     118    1      7   0.16627027     5.495900    10.137700    -4.643600
     119    1      3  -0.04084227    -0.783700     9.922700    -7.566400
     120    1      2  -0.14910491    -1.363800     8.555700    -7.974800
     121    1      2  -0.14910491    -2.642500     8.484300    -8.832200
     122    1      1  -0.08911727    -3.342300     9.780600    -9.281700
     123    1      2  -0.14910491    -2.790000    11.145400    -8.834900
     124    1      2  -0.14910491    -1.518100    11.215500    -7.970700
     125    1      7   0.16627027    -0.845100     7.595800    -7.644100
     126    1      7   0.16627027    -3.068800     7.471800    -9.136300
     127    1      7   0.16627027    -3.326200    12.104100    -9.139900
     128    1      7   0.16627027    -1.122200    12.226700    -7.624000
     129    1      3  -0.04084227     1.079400    -3.077900     4.479000
     130    1      2  -0.14910491    -0.034000    -4.063200     4.053000
     131    1      2  -0.14910491    -0.544100    -5.126700     5.065400
     132    1      3  -0.04084227     0.009100    -5.136800     6.510400
     133    1      2  -0.14910491     1.045100    -4.087800     6.935100
     134    1      2  -0.14910491     1.597400    -3.088300     5.921400
     135    1      7   0.16627027    -0.445500    -4.039100     2.990100
     136    1      7   0.16627027    -1.318500    -5.898900     4.743500
     137    1      7   0.16627027     1.438800    -4.082400     8.004600
     138    1      7   0.16627027     2.408000    -2.351000     6.236400
     139    1      3  -0.04084227    -3.738900   -12.270900     5.538400
     140    1      2  -0.14910491    -4.431900   -13.648700     5.544000
     141    1      2  -0.14910491    -5.682600   -13.888300     4.681900
     142    1      1  -0.08911727    -6.233800   -12.757900     3.798200
     143    1      2  -0.14910491    -5.517000   -11.395200     3.753000
     144    1      2  -0.14910491    -4.263500   -11.154400     4.616700
     145    1      7   0.16627027    -4.046100   -14.479700     6.219400
     146    1      7   0.16627027    -6.213000   -14.897000     4.713000
     147    1      7   0.16627027    -5.925700   -10.558200     3.095800
     148    1      7   0.16627027    -3.744700   -10.139400     4.599300
     149    1      3  -0.04084227     3.931700    -0.559300     3.157800
     150    1      2  -0.14910491     3.340400    -0.043000     1.838200
     151    1      1  -0.08911727     1.967900    -0.555200     1.349800
     152    1      2  -0.14910491     1.199400    -1.623100     2.172600
     153    1      3  -0.04084227     1.790100    -2.104200     3.519300
     154    1      2  -0.14910491     3.143000    -1.561500     4.002300
     155    1      7   0.16627027     3.912100     0.729000     1.224400
     156    1      7   0.16627027     0.193000    -2.016900     1.810200
     157    1      7   0.16627027     3.568100    -1.915200     4.999400
     158    1      1  -0.08911727     2.909000     6.724500    -7.340800
     159    1      2  -0.14910491     2.567800     5.957300    -8.634100
     160    1      3  -0.04084227     2.416800     6.712700    -9.967100
     161    1      2  -0.14910491     2.583400     8.240300   -10.010500
     162    1      3  -0.04084227     2.938400     9.009600    -8.728100
     163    1      2  -0.14910491     3.076600     8.258200    -7.389000
     164    1      7   0.16627027     2.444700     4.824200    -8.607200
     165    1      7   0.16627027     2.469700     8.799000   -10.997900
     166    1      7   0.16627027     3.350700     8.832600    -6.444600
     167    1      4  -0.14159435     1.357100     0.106700     0.096000
     168    1      4  -0.14159435     2.282100     1.333800    -0.036900
     169    1      8   0.10121782     1.450900    -0.572700    -0.814700
     170    1      8   0.10121782     0.274200     0.420200     0.264700
     171    1      8   0.10121782     2.195800     1.929800     0.930900
     172    1      8   0.10121782     3.342500     0.919800    -0.094500
     173    1      6  -0.05026461     3.637100     6.657900    -4.768600
     174    1      4  -0.14159435     4.030500     5.614300    -3.704300
     175    1      4  -0.14159435     5.036000     7.294300    -4.941500
     176    1      4  -0.14159435     3.154400     5.922700    -6.039600
     177    1      4  -0.14159435     2.549100     7.557000    -4.135800
     178    1      8   0.10121782     4.896000     5.019800    -4.148100
     179    1      8   0.10121782     4.439400     6.204800    -2.819100
     180    1      8   0.10121782     5.332800     7.767700    -3.947700
     181    1      8   0.10121782     5.744000     6.422100    -5.135500
     182    1      8   0.10121782     2.191600     5.372000    -5.776600
     183    1      8   0.10121782     3.948000     5.143600    -6.290200
     184    1      8   0.10121782     1.631500     6.910700    -3.935600
     185    1      8   0.10121782     2.952800     7.923600    -3.134700
     186    1      1  -0.08911727     2.099600     8.805500    -4.918300
     187    1      1  -0.08911727     2.682200    10.180000    -4.545800
     188    1      2  -0.14910491     2.244900    11.437700    -5.314900
     189    1      3  -0.04084227     1.232200    11.317500    -6.467000
     190    1      3  -0.04084227     0.479500     9.986100    -6.682500
     191    1      2  -0.14910491     0.955400     8.715900    -5.948100
     192    1      7   0.16627027     2.723800    12.445200    -5.079000
     193    1      7   0.16627027     0.447800     7.715600    -6.151800
     194    1      3  -0.04084227    -0.326300    -6.224100     7.553800
     195    1      3  -0.04084227     0.109200    -5.963000     9.008800
     196    1      2  -0.14910491     0.579900    -7.142000     9.865400
     197    1      3  -0.04084227     0.390900    -8.565200     9.327500
     198    1      3  -0.04084227    -0.593900    -8.797900     8.159900
     199    1      2  -0.14910491    -0.855400    -7.628200     7.176400
     200    1      7   0.16627027     1.094100    -6.962600    10.866900
     201    1      7   0.16627027    -1.390600    -7.805800     6.185500
     202    1      3  -0.04084227    -1.293600   -10.172300     8.004900
     203    1      3  -0.04084227    -1.232500   -11.212900     9.147400
     204    1      2  -0.14910491    -1.449200   -12.697700     8.822500
     205    1      1  -0.08911727    -2.107000   -13.084100     7.491000
     206    1      3  -0.04084227    -2.617400   -11.970500     6.553900
     207    1      2  -0.14910491    -2.082900   -10.530700     6.728900
     208    1      7   0.16627027    -1.182200   -13.499900     9.587400
     209    1      7   0.16627027    -2.297100    -9.735300     5.940800
     210    1      5  -0.26064314     4.483000    11.642700    -3.627600
     211    1      4  -0.14159435     3.768600    10.288000    -3.463200
     212    1      8   0.10121782     4.956600    11.694200    -4.663800
     213    1      8   0.10121782     3.725900    12.487500    -3.514400
     214    1      8   0.10121782     5.293500    11.746000    -2.832800
     215    1      8   0.10121782     4.517800     9.437800    -3.591000
     216    1      8   0.10121782     3.290000    10.228200    -2.430300
     217    1      5  -0.26064314    -5.357300    11.070700   -10.016600
     218    1      4  -0.14159435    -4.634200     9.714700   -10.116700
     219    1      8   0.10121782    -6.315000    11.038800   -10.634300
     220    1      8   0.10121782    -4.674800    11.893700   -10.412700
     221    1      8   0.10121782    -5.613700    11.284000    -8.926600
     222    1      8   0.10121782    -5.309800     8.888800    -9.715300
     223    1      8   0.10121782    -4.374700     9.501100   -11.206000
     224    1      5  -0.26064314    -3.260200   -15.235800     8.094700
     225    1      4  -0.14159435    -2.270200   -14.569800     7.121300
     226    1      8   0.10121782    -3.373000   -16.338800     7.829500
     227    1      8   0.10121782    -2.864200   -15.138800     9.159400
     228    1      8   0.10121782    -4.273400   -14.719300     8.015600
     229    1      8   0.10121782    -2.651800   -14.661600     6.051300
     230    1      8   0.10121782    -1.258300   -15.088400     7.203900
     231    1      5  -0.26064314    -8.479400   -13.846600     3.909100
     232    1      4  -0.14159435    -7.559400   -12.962700     3.045000
     233    1      8   0.10121782    -9.468500   -14.013100     3.367400
     234    1      8   0.10121782    -7.973900   -14.851100     4.097300
     235    1      8   0.10121782    -8.674700   -13.329500     4.906000
     236    1      8   0.10121782    -8.056500   -11.953000     2.864500
     237    1      8   0.10121782    -7.357400   -13.475600     2.047100

Bonds

       1      6        1        2
       2      8        1       89
       3      5        2        3
       4      7        2        7
       5      5        3        4
       6      7        3        8
       7      5        4        5
       8      7        4        9
       9      5        5        6
      10      7        5       10
      11      6        6        1
      12      7        6       11
      13      6       12       13
      14      8       12      112
      15      5       13       14
      16      7       13       18
      17      5       14       15
      18      7       14       19
      19      5       15       16
      20      7       15       20
      21      5       16       17
      22      7       16       21
      23      6       17       12
      24      7       17       22
      25      6       23       24
      26      8       23      160
      27      5       24       25
      28      7       24       29
      29      5       25       26
      30      7       25       30
      31      5       26       27
      32      7       26       31
      33      5       27       28
      34      7       27       32
      35      6       28       23
      36      7       28       33
      37      6       34       35
      38      8       34      162
      39      5       35       36
      40      7       35       40
      41      5       36       37
      42      7       36       41
      43      5       37       38
      44      7       37       42
      45      5       38       39
      46      7       38       43
      47      6       39       34
      48      7       39       44
      49      6       45       46
      50      8       45      189
      51      5       46       47
      52      7       46       51
      53      5       47       48
      54      7       47       52
      55      5       48       49
      56      7       48       53
      57      5       49       50
      58      7       49       54
      59      6       50       45
      60      7       50       55
      61      6       56       57
      62      8       56      195
      63      5       57       58
      64      7       57       62
      65      5       58       59
      66      7       58       63
      67      5       59       60
      68      7       59       64
      69      5       60       61
      70      7       60       65
      71      6       61       56
      72      7       61       66
      73      6       67       68
      74      8       67      197
      75      5       68       69
      76      7       68       73
      77      5       69       70
      78      7       69       74
      79      5       70       71
      80      7       70       75
      81      5       71       72
      82      7       71       76
      83      6       72       67
      84      7       72       77
      85      6       78       79
      86      8       78      203
      87      5       79       80
      88      7       79       84
      89      5       80       81
      90      7       80       85
      91      5       81       82
      92      7       81       86
      93      5       82       83
      94      7       82       87
      95      6       83       78
      96      7       83       88
      97      6       89       90
      98      5       90       91
      99      7       90       95
     100      6       91       92
     101      7       91       96
     102      6       92       93
     103      8       92      149
     104      5       93       94
     105      7       93       97
     106      6       94       89
     107      7       94       98
     108      2       99      100
     109      4       99      168
     110      5      100      101
     111      7      100      105
     112      2      101      102
     113      7      101      106
     114      2      102      103
     115      4      102      174
     116      5      103      104
     117      7      103      107
     118      2      104       99
     119      7      104      108
     120      2      109      110
     121      4      109      175
     122      5      110      111
     123      7      110      115
     124      6      111      112
     125      7      111      116
     126      6      112      113
     127      5      113      114
     128      7      113      117
     129      2      114      109
     130      7      114      118
     131      6      119      120
     132      8      119      190
     133      5      120      121
     134      7      120      125
     135      2      121      122
     136      7      121      126
     137      2      122      123
     138      4      122      218
     139      5      123      124
     140      7      123      127
     141      6      124      119
     142      7      124      128
     143      6      129      130
     144      8      129      153
     145      5      130      131
     146      7      130      135
     147      6      131      132
     148      7      131      136
     149      6      132      133
     150      8      132      194
     151      5      133      134
     152      7      133      137
     153      6      134      129
     154      7      134      138
     155      6      139      140
     156      8      139      206
     157      5      140      141
     158      7      140      145
     159      2      141      142
     160      7      141      146
     161      2      142      143
     162      4      142      232
     163      5      143      144
     164      7      143      147
     165      6      144      139
     166      7      144      148
     167      6      149      150
     168      2      150      151
     169      7      150      155
     170      2      151      152
     171      4      151      167
     172      6      152      153
     173      7      152      156
     174      6      153      154
     175      6      154      149
     176      7      154      157
     177      2      158      159
     178      4      158      176
     179      6      159      160
     180      7      159      164
     181      6      160      161
     182      6      161      162
     183      7      161      165
     184      6      162      163
     185      2      163      158
     186      7      163      166
     187      9      167      168
     188     12      167      169
     189     12      167      170
     190     12      168      171
     191     12      168      172
     192     11      173      174
     193     11      173      175
     194     11      173      176
     195     11      173      177
     196     12      174      178
     197     12      174      179
     198     12      175      180
     199     12      175      181
     200     12      176      182
     201     12      176      183
     202     12      177      184
     203     12      177      185
     204      4      177      186
     205      1      186      187
     206      2      187      188
     207      4      187      211
     208      6      188      189
     209      7      188      192
     210      8      189      190
     211      6      190      191
     212      2      191      186
     213      7      191      193
     214      8      194      195
     215      6      195      196
     216      6      196      197
     217      7      196      200
     218      8      197      198
     219      6      198      199
     220      8      198      202
     221      6      199      194
     222      7      199      201
     223      8      202      203
     224      6      203      204
     225      2      204      205
     226      7      204      208
     227      3      205      206
     228      4      205      225
     229      6      206      207
     230      6      207      202
     231      7      207      209
     232     10      210      211
     233     13      210      212
     234     13      210      213
     235     13      210      214
     236     12      211      215
     237     12      211      216
     238     10      217      218
     239     13      217      219
     240     13      217      220
     241     13      217      221
     242     12      218      222
     243     12      218      223
     244     10      224      225
     245     13      224      226
     246     13      224      227
     247     13      224      228
     248     12      225      229
     249     12      225      230
     250     10      231      232
     251     13      231      233
     252     13      231      234
     253     13      231      235
     254     12      232      236
     255     12      232      237

Angles

       1     16        1        2        3
       2     22        1        2        7
       3     16        1        6        5
       4     22        1        6       11
       5     19        1       89       90
       6     19        1       89       94
       7     18        2        1        6
       8     19        2        1       89
       9     15        2        3        4
      10     17        2        3        8
      11     17        3        2        7
      12     15        3        4        5
      13     17        3        4        9
      14     17        4        3        8
      15     15        4        5        6
      16     17        4        5       10
      17     17        5        4        9
      18     17        5        6       11
      19     19        6        1       89
      20     17        6        5       10
      21     16       12       13       14
      22     22       12       13       18
      23     16       12       17       16
      24     22       12       17       22
      25     19       12      112      111
      26     19       12      112      113
      27     18       13       12       17
      28     19       13       12      112
      29     15       13       14       15
      30     17       13       14       19
      31     17       14       13       18
      32     15       14       15       16
      33     17       14       15       20
      34     17       15       14       19
      35     15       15       16       17
      36     17       15       16       21
      37     17       16       15       20
      38     17       16       17       22
      39     19       17       12      112
      40     17       17       16       21
      41     16       23       24       25
      42     22       23       24       29
      43     16       23       28       27
      44     22       23       28       33
      45     19       23      160      159
      46     19       23      160      161
      47     18       24       23       28
      48     19       24       23      160
      49     15       24       25       26
      50     17       24       25       30
      51     17       25       24       29
      52     15       25       26       27
      53     17       25       26       31
      54     17       26       25       30
      55     15       26       27       28
      56     17       26       27       32
      57     17       27       26       31
      58     17       27       28       33
      59     19       28       23      160
      60     17       28       27       32
      61     16       34       35       36
      62     22       34       35       40
      63     16       34       39       38
      64     22       34       39       44
      65     19       34      162      161
      66     19       34      162      163
      67     18       35       34       39
      68     19       35       34      162
      69     15       35       36       37
      70     17       35       36       41
      71     17       36       35       40
      72     15       36       37       38
      73     17       36       37       42
      74     17       37       36       41
      75     15       37       38       39
      76     17       37       38       43
      77     17       38       37       42
      78     17       38       39       44
      79     19       39       34      162
      80     17       39       38       43
      81     16       45       46       47
      82     22       45       46       51
      83     16       45       50       49
      84     22       45       50       55
      85     19       45      189      188
      86     23       45      189      190
      87     18       46       45       50
      88     19       46       45      189
      89     15       46       47       48
      90     17       46       47       52
      91     17       47       46       51
      92     15       47       48       49
      93     17       47       48       53
      94     17       48       47       52
      95     15       48       49       50
      96     17       48       49       54
      97     17       49       48       53
      98     17       49       50       55
      99     19       50       45      189
     100     17       50       49       54
     101     16       56       57       58
     102     22       56       57       62
     103     16       56       61       60
     104     22       56       61       66
     105     23       56      195      194
     106     19       56      195      196
     107     18       57       56       61
     108     19       57       56      195
     109     15       57       58       59
     110     17       57       58       63
     111     17       58       57       62
     112     15       58       59       60
     113     17       58       59       64
     114     17       59       58       63
     115     15       59       60       61
     116     17       59       60       65
     117     17       60       59       64
     118     17       60       61       66
     119     19       61       56      195
     120     17       61       60       65
     121     16       67       68       69
     122     22       67       68       73
     123     16       67       72       71
     124     22       67       72       77
     125     19       67      197      196
     126     23       67      197      198
     127     18       68       67       72
     128     19       68       67      197
     129     15       68       69       70
     130     17       68       69       74
     131     17       69       68       73
     132     15       69       70       71
     133     17       69       70       75
     134     17       70       69       74
     135     15       70       71       72
     136     17       70       71       76
     137     17       71       70       75
     138     17       71       72       77
     139     19       72       67      197
     140     17       72       71       76
     141     16       78       79       80
     142     22       78       79       84
     143     16       78       83       82
     144     22       78       83       88
     145     23       78      203      202
     146     19       78      203      204
     147     18       79       78       83
     148     19       79       78      203
     149     15       79       80       81
     150     17       79       80       85
     151     17       80       79       84
     152     15       80       81       82
     153     17       80       81       86
     154     17       81       80       85
     155     15       81       82       83
     156     17       81       82       87
     157     17       82       81       86
     158     17       82       83       88
     159     19       83       78      203
     160     17       83       82       87
     161     16       89       90       91
     162     22       89       90       95
     163     16       89       94       93
     164     22       89       94       98
     165     18       90       89       94
     166     16       90       91       92
     167     17       90       91       96
     168     17       91       90       95
     169     18       91       92       93
     170     19       91       92      149
     171     22       92       91       96
     172     16       92       93       94
     173     22       92       93       97
     174     19       92      149      150
     175     19       92      149      154
     176     19       93       92      149
     177     17       93       94       98
     178     17       94       93       97
     179      3       99      100      101
     180      5       99      100      105
     181      3       99      104      103
     182      5       99      104      108
     183      8       99      168      167
     184     11       99      168      171
     185     11       99      168      172
     186     12      100       99      104
     187     14      100       99      168
     188      3      100      101      102
     189     17      100      101      106
     190     17      101      100      105
     191     12      101      102      103
     192     14      101      102      174
     193      5      102      101      106
     194      3      102      103      104
     195      5      102      103      107
     196     10      102      174      173
     197     11      102      174      178
     198     11      102      174      179
     199     14      103      102      174
     200     17      103      104      108
     201     14      104       99      168
     202     17      104      103      107
     203      3      109      110      111
     204      5      109      110      115
     205      3      109      114      113
     206      5      109      114      118
     207     10      109      175      173
     208     11      109      175      180
     209     11      109      175      181
     210     12      110      109      114
     211     14      110      109      175
     212     16      110      111      112
     213     17      110      111      116
     214     17      111      110      115
     215     18      111      112      113
     216     22      112      111      116
     217     16      112      113      114
     218     22      112      113      117
     219     17      113      114      118
     220     14      114      109      175
     221     17      114      113      117
     222     16      119      120      121
     223     22      119      120      125
     224     16      119      124      123
     225     22      119      124      128
     226     23      119      190      189
     227     19      119      190      191
     228     18      120      119      124
     229     19      120      119      190
     230      3      120      121      122
     231     17      120      121      126
     232     17      121      120      125
     233     12      121      122      123
     234     14      121      122      218
     235      5      122      121      126
     236      3      122      123      124
     237      5      122      123      127
     238      9      122      218      217
     239     11      122      218      222
     240     11      122      218      223
     241     14      123      122      218
     242     17      123      124      128
     243     19      124      119      190
     244     17      124      123      127
     245     16      129      130      131
     246     22      129      130      135
     247     16      129      134      133
     248     22      129      134      138
     249     19      129      153      152
     250     19      129      153      154
     251     18      130      129      134
     252     19      130      129      153
     253     16      130      131      132
     254     17      130      131      136
     255     17      131      130      135
     256     18      131      132      133
     257     19      131      132      194
     258     22      132      131      136
     259     16      132      133      134
     260     22      132      133      137
     261     23      132      194      195
     262     19      132      194      199
     263     19      133      132      194
     264     17      133      134      138
     265     19      134      129      153
     266     17      134      133      137
     267     16      139      140      141
     268     22      139      140      145
     269     16      139      144      143
     270     22      139      144      148
     271      7      139      206      205
     272     19      139      206      207
     273     18      140      139      144
     274     19      140      139      206
     275      3      140      141      142
     276     17      140      141      146
     277     17      141      140      145
     278     12      141      142      143
     279     14      141      142      232
     280      5      142      141      146
     281      3      142      143      144
     282      5      142      143      147
     283      9      142      232      231
     284     11      142      232      236
     285     11      142      232      237
     286     14      143      142      232
     287     17      143      144      148
     288     19      144      139      206
     289     17      144      143      147
     290      4      149      150      151
     291     22      149      150      155
     292     21      149      154      153
     293     22      149      154      157
     294     18      150      149      154
     295     12      150      151      152
     296     14      150      151      167
     297      5      151      150      155
     298      4      151      152      153
     299      5      151      152      156
     300      8      151      167      168
     301     11      151      167      169
     302     11      151      167      170
     303     14      152      151      167
     304     18      152      153      154
     305     22      153      152      156
     306     22      153      154      157
     307      4      158      159      160
     308      5      158      159      164
     309      4      158      163      162
     310      5      158      163      166
     311     10      158      176      173
     312     11      158      176      182
     313     11      158      176      183
     314     12      159      158      163
     315     14      159      158      176
     316     18      159      160      161
     317     22      160      159      164
     318     21      160      161      162
     319     22      160      161      165
     320     18      161      162      163
     321     22      162      161      165
     322     22      162      163      166
     323     14      163      158      176
     324     24      167      168      171
     325     24      167      168      172
     326     24      168      167      169
     327     24      168      167      170
     328     29      169      167      170
     329     29      171      168      172
     330     28      173      174      178
     331     28      173      174      179
     332     28      173      175      180
     333     28      173      175      181
     334     28      173      176      182
     335     28      173      176      183
     336     28      173      177      184
     337     28      173      177      185
     338     10      173      177      186
     339     26      174      173      175
     340     26      174      173      176
     341     26      174      173      177
     342     26      175      173      176
     343     26      175      173      177
     344     26      176      173      177
     345      2      177      186      187
     346     14      177      186      191
     347     29      178      174      179
     348     29      180      175      181
     349     29      182      176      183
     350     29      184      177      185
     351     11      184      177      186
     352     11      185      177      186
     353      1      186      187      188
     354      2      186      187      211
     355      4      186      191      190
     356      5      186      191      193
     357      1      187      186      191
     358      4      187      188      189
     359      5      187      188      192
     360      9      187      211      210
     361     11      187      211      215
     362     11      187      211      216
     363     14      188      187      211
     364     19      188      189      190
     365     22      189      188      192
     366     19      189      190      191
     367     22      190      191      193
     368     19      194      195      196
     369     21      194      199      198
     370     22      194      199      201
     371     19      195      194      199
     372     21      195      196      197
     373     22      195      196      200
     374     19      196      197      198
     375     22      197      196      200
     376     19      197      198      199
     377     23      197      198      202
     378     22      198      199      201
     379     23      198      202      203
     380     19      198      202      207
     381     19      199      198      202
     382     19      202      203      204
     383     21      202      207      206
     384     22      202      207      209
     385     19      203      202      207
     386      4      203      204      205
     387     22      203      204      208
     388     13      204      205      206
     389     14      204      205      225
     390      5      205      204      208
     391      6      205      206      207
     392      9      205      225      224
     393     11      205      225      229
     394     11      205      225      230
     395     20      206      205      225
     396     22      206      207      209
     397     27      210      211      215
     398     27      210      211      216
     399     25      211      210      212
     400     25      211      210      213
     401     25      211      210      214
     402     30      212      210      213
     403     30      212      210      214
     404     30      213      210      214
     405     29      215      211      216
     406     27      217      218      222
     407     27      217      218      223
     408     25      218      217      219
     409     25      218      217      220
     410     25      218      217      221
     411     30      219      217      220
     412     30      219      217      221
     413     30      220      217      221
     414     29      222      218      223
     415     27      224      225      229
     416     27      224      225      230
     417     25      225      224      226
     418     25      225      224      227
     419     25      225      224      228
     420     30      226      224      227
     421     30      226      224      228
     422     30      227      224      228
     423     29      229      225      230
     424     27      231      232      236
     425     27      231      232      237
     426     25      232      231      233
     427     25      232      231      234
     428     25      232      231      235
     429     30      233      231      234
     430     30      233      231      235
     431     30      234      231      235
     432     29      236      232      237

Dihedrals

       1     31        1        2        3        4
       2     46        1        2        3        8
       3     31        1        6        5        4
       4     46        1        6        5       10
       5     34        1       89       90       91
       6     49        1       89       90       95
       7     34        1       89       94       93
       8     49        1       89       94       98
       9     33        2        1        6        5
      10     37        2        1        6       11
      11     38        2        1       89       90
      12     38        2        1       89       94
      13     30        2        3        4        5
      14     32        2        3        4        9
      15     33        3        2        1        6
      16     34        3        2        1       89
      17     30        3        4        5        6
      18     32        3        4        5       10
      19     32        4        3        2        7
      20     32        4        5        6       11
      21     32        5        4        3        8
      22     34        5        6        1       89
      23     37        6        1        2        7
      24     38        6        1       89       90
      25     38        6        1       89       94
      26     32        6        5        4        9
      27     49        7        2        1       89
      28     54        7        2        3        8
      29     54        8        3        4        9
      30     54        9        4        5       10
      31     54       10        5        6       11
      32     49       11        6        1       89
      33     31       12       13       14       15
      34     46       12       13       14       19
      35     31       12       17       16       15
      36     46       12       17       16       21
      37     34       12      112      111      110
      38     49       12      112      111      116
      39     34       12      112      113      114
      40     49       12      112      113      117
      41     33       13       12       17       16
      42     37       13       12       17       22
      43     38       13       12      112      111
      44     38       13       12      112      113
      45     30       13       14       15       16
      46     32       13       14       15       20
      47     33       14       13       12       17
      48     34       14       13       12      112
      49     30       14       15       16       17
      50     32       14       15       16       21
      51     32       15       14       13       18
      52     32       15       16       17       22
      53     32       16       15       14       19
      54     34       16       17       12      112
      55     37       17       12       13       18
      56     38       17       12      112      111
      57     38       17       12      112      113
      58     32       17       16       15       20
      59     49       18       13       12      112
      60     54       18       13       14       19
      61     54       19       14       15       20
      62     54       20       15       16       21
      63     54       21       16       17       22
      64     49       22       17       12      112
      65     31       23       24       25       26
      66     46       23       24       25       30
      67     31       23       28       27       26
      68     46       23       28       27       32
      69     10       23      160      159      158
      70     49       23      160      159      164
      71     47       23      160      161      162
      72     49       23      160      161      165
      73     33       24       23       28       27
      74     37       24       23       28       33
      75     38       24       23      160      159
      76     38       24       23      160      161
      77     30       24       25       26       27
      78     32       24       25       26       31
      79     33       25       24       23       28
      80     34       25       24       23      160
      81     30       25       26       27       28
      82     32       25       26       27       32
      83     32       26       25       24       29
      84     32       26       27       28       33
      85     32       27       26       25       30
      86     34       27       28       23      160
      87     37       28       23       24       29
      88     38       28       23      160      159
      89     38       28       23      160      161
      90     32       28       27       26       31
      91     49       29       24       23      160
      92     54       29       24       25       30
      93     54       30       25       26       31
      94     54       31       26       27       32
      95     54       32       27       28       33
      96     49       33       28       23      160
      97     31       34       35       36       37
      98     46       34       35       36       41
      99     31       34       39       38       37
     100     46       34       39       38       43
     101     47       34      162      161      160
     102     49       34      162      161      165
     103     10       34      162      163      158
     104     49       34      162      163      166
     105     33       35       34       39       38
     106     37       35       34       39       44
     107     38       35       34      162      161
     108     38       35       34      162      163
     109     30       35       36       37       38
     110     32       35       36       37       42
     111     33       36       35       34       39
     112     34       36       35       34      162
     113     30       36       37       38       39
     114     32       36       37       38       43
     115     32       37       36       35       40
     116     32       37       38       39       44
     117     32       38       37       36       41
     118     34       38       39       34      162
     119     37       39       34       35       40
     120     38       39       34      162      161
     121     38       39       34      162      163
     122     32       39       38       37       42
     123     49       40       35       34      162
     124     54       40       35       36       41
     125     54       41       36       37       42
     126     54       42       37       38       43
     127     54       43       38       39       44
     128     49       44       39       34      162
     129     31       45       46       47       48
     130     46       45       46       47       52
     131     31       45       50       49       48
     132     46       45       50       49       54
     133     10       45      189      188      187
     134     49       45      189      188      192
     135     50       45      189      190      119
     136     39       45      189      190      191
     137     33       46       45       50       49
     138     37       46       45       50       55
     139     38       46       45      189      188
     140     39       46       45      189      190
     141     30       46       47       48       49
     142     32       46       47       48       53
     143     33       47       46       45       50
     144     34       47       46       45      189
     145     30       47       48       49       50
     146     32       47       48       49       54
     147     32       48       47       46       51
     148     32       48       49       50       55
     149     32       49       48       47       52
     150     34       49       50       45      189
     151     37       50       45       46       51
     152     38       50       45      189      188
     153     39       50       45      189      190
     154     32       50       49       48       53
     155     49       51       46       45      189
     156     54       51       46       47       52
     157     54       52       47       48       53
     158     54       53       48       49       54
     159     54       54       49       50       55
     160     49       55       50       45      189
     161     31       56       57       58       59
     162     46       56       57       58       63
     163     31       56       61       60       59
     164     46       56       61       60       65
     165     50       56      195      194      132
     166     39       56      195      194      199
     167     47       56      195      196      197
     168     49       56      195      196      200
     169     33       57       56       61       60
     170     37       57       56       61       66
     171     39       57       56      195      194
     172     38       57       56      195      196
     173     30       57       58       59       60
     174     32       57       58       59       64
     175     33       58       57       56       61
     176     34       58       57       56      195
     177     30       58       59       60       61
     178     32       58       59       60       65
     179     32       59       58       57       62
     180     32       59       60       61       66
     181     32       60       59       58       63
     182     34       60       61       56      195
     183     37       61       56       57       62
     184     39       61       56      195      194
     185     38       61       56      195      196
     186     32       61       60       59       64
     187     49       62       57       56      195
     188     54       62       57       58       63
     189     54       63       58       59       64
     190     54       64       59       60       65
     191     54       65       60       61       66
     192     49       66       61       56      195
     193     31       67       68       69       70
     194     46       67       68       69       74
     195     31       67       72       71       70
     196     46       67       72       71       76
     197     47       67      197      196      195
     198     49       67      197      196      200
     199     39       67      197      198      199
     200     50       67      197      198      202
     201     33       68       67       72       71
     202     37       68       67       72       77
     203     38       68       67      197      196
     204     39       68       67      197      198
     205     30       68       69       70       71
     206     32       68       69       70       75
     207     33       69       68       67       72
     208     34       69       68       67      197
     209     30       69       70       71       72
     210     32       69       70       71       76
     211     32       70       69       68       73
     212     32       70       71       72       77
     213     32       71       70       69       74
     214     34       71       72       67      197
     215     37       72       67       68       73
     216     38       72       67      197      196
     217     39       72       67      197      198
     218     32       72       71       70       75
     219     49       73       68       67      197
     220     54       73       68       69       74
     221     54       74       69       70       75
     222     54       75       70       71       76
     223     54       76       71       72       77
     224     49       77       72       67      197
     225     31       78       79       80       81
     226     46       78       79       80       85
     227     31       78       83       82       81
     228     46       78       83       82       87
     229     50       78      203      202      198
     230     39       78      203      202      207
     231     10       78      203      204      205
     232     49       78      203      204      208
     233     33       79       78       83       82
     234     37       79       78       83       88
     235     39       79       78      203      202
     236     38       79       78      203      204
     237     30       79       80       81       82
     238     32       79       80       81       86
     239     33       80       79       78       83
     240     34       80       79       78      203
     241     30       80       81       82       83
     242     32       80       81       82       87
     243     32       81       80       79       84
     244     32       81       82       83       88
     245     32       82       81       80       85
     246     34       82       83       78      203
     247     37       83       78       79       84
     248     39       83       78      203      202
     249     38       83       78      203      204
     250     32       83       82       81       86
     251     49       84       79       78      203
     252     54       84       79       80       85
     253     54       85       80       81       86
     254     54       86       81       82       87
     255     54       87       82       83       88
     256     49       88       83       78      203
     257     45       89       90       91       92
     258     46       89       90       91       96
     259     45       89       94       93       92
     260     46       89       94       93       97
     261     33       90       89       94       93
     262     37       90       89       94       98
     263     33       90       91       92       93
     264     34       90       91       92      149
     265     33       91       90       89       94
     266     33       91       92       93       94
     267     37       91       92       93       97
     268     38       91       92      149      150
     269     38       91       92      149      154
     270     46       92       91       90       95
     271     46       92       93       94       98
     272     10       92      149      150      151
     273     49       92      149      150      155
     274     47       92      149      154      153
     275     49       92      149      154      157
     276     37       93       92       91       96
     277     38       93       92      149      150
     278     38       93       92      149      154
     279     37       94       89       90       95
     280     34       94       93       92      149
     281     54       95       90       91       96
     282     49       96       91       92      149
     283     49       97       93       92      149
     284     54       97       93       94       98
     285      6       99      100      101      102
     286      8       99      100      101      106
     287      6       99      104      103      102
     288      8       99      104      103      107
     289     14       99      168      167      151
     290     15       99      168      167      169
     291     15       99      168      167      170
     292     20      100       99      104      103
     293     22      100       99      104      108
     294     25      100       99      168      167
     295     28      100       99      168      171
     296     28      100       99      168      172
     297     20      100      101      102      103
     298     29      100      101      102      174
     299     20      101      100       99      104
     300     29      101      100       99      168
     301     20      101      102      103      104
     302     22      101      102      103      107
     303     27      101      102      174      173
     304     28      101      102      174      178
     305     28      101      102      174      179
     306      8      102      101      100      105
     307      8      102      103      104      108
     308     17      102      174      173      175
     309     17      102      174      173      176
     310     17      102      174      173      177
     311     22      103      102      101      106
     312     27      103      102      174      173
     313     28      103      102      174      178
     314     28      103      102      174      179
     315     29      103      104       99      168
     316     22      104       99      100      105
     317     25      104       99      168      167
     318     28      104       99      168      171
     319     28      104       99      168      172
     320     29      104      103      102      174
     321     52      105      100       99      168
     322     54      105      100      101      106
     323     52      106      101      102      174
     324     52      107      103      102      174
     325     54      107      103      104      108
     326     52      108      104       99      168
     327      7      109      110      111      112
     328      8      109      110      111      116
     329      7      109      114      113      112
     330      8      109      114      113      117
     331     17      109      175      173      174
     332     17      109      175      173      176
     333     17      109      175      173      177
     334     20      110      109      114      113
     335     22      110      109      114      118
     336     27      110      109      175      173
     337     28      110      109      175      180
     338     28      110      109      175      181
     339     33      110      111      112      113
     340     20      111      110      109      114
     341     29      111      110      109      175
     342     33      111      112      113      114
     343     37      111      112      113      117
     344     46      112      111      110      115
     345     46      112      113      114      118
     346     37      113      112      111      116
     347     29      113      114      109      175
     348     22      114      109      110      115
     349     27      114      109      175      173
     350     28      114      109      175      180
     351     28      114      109      175      181
     352     52      115      110      109      175
     353     54      115      110      111      116
     354     54      117      113      114      118
     355     52      118      114      109      175
     356      7      119      120      121      122
     357     46      119      120      121      126
     358      7      119      124      123      122
     359     46      119      124      123      127
     360     39      119      190      189      188
     361     10      119      190      191      186
     362     49      119      190      191      193
     363     33      120      119      124      123
     364     37      120      119      124      128
     365     39      120      119      190      189
     366     38      120      119      190      191
     367     20      120      121      122      123
     368     29      120      121      122      218
     369     33      121      120      119      124
     370     34      121      120      119      190
     371     20      121      122      123      124
     372     22      121      122      123      127
     373     26      121      122      218      217
     374     28      121      122      218      222
     375     28      121      122      218      223
     376      8      122      121      120      125
     377      8      122      123      124      128
     378     16      122      218      217      219
     379     16      122      218      217      220
     380     16      122      218      217      221
     381     22      123      122      121      126
     382     26      123      122      218      217
     383     28      123      122      218      222
     384     28      123      122      218      223
     385     34      123      124      119      190
     386     37      124      119      120      125
     387     39      124      119      190      189
     388     38      124      119      190      191
     389     29      124      123      122      218
     390     49      125      120      119      190
     391     54      125      120      121      126
     392     52      126      121      122      218
     393     52      127      123      122      218
     394     54      127      123      124      128
     395     49      128      124      119      190
     396     45      129      130      131      132
     397     46      129      130      131      136
     398     45      129      134      133      132
     399     46      129      134      133      137
     400     10      129      153      152      151
     401     49      129      153      152      156
     402     47      129      153      154      149
     403     49      129      153      154      157
     404     33      130      129      134      133
     405     37      130      129      134      138
     406     38      130      129      153      152
     407     38      130      129      153      154
     408     33      130      131      132      133
     409     34      130      131      132      194
     410     33      131      130      129      134
     411     34      131      130      129      153
     412     33      131      132      133      134
     413     37      131      132      133      137
     414     39      131      132      194      195
     415     38      131      132      194      199
     416     46      132      131      130      135
     417     46      132      133      134      138
     418     39      132      194      195      196
     419     47      132      194      199      198
     420     49      132      194      199      201
     421     37      133      132      131      136
     422     39      133      132      194      195
     423     38      133      132      194      199
     424     34      133      134      129      153
     425     37      134      129      130      135
     426     38      134      129      153      152
     427     38      134      129      153      154
     428     34      134      133      132      194
     429     49      135      130      129      153
     430     54      135      130      131      136
     431     49      136      131      132      194
     432     49      137      133      132      194
     433     54      137      133      134      138
     434     49      138      134      129      153
     435      7      139      140      141      142
     436     46      139      140      141      146
     437      7      139      144      143      142
     438     46      139      144      143      147
     439     24      139      206      205      204
     440     48      139      206      205      225
     441     47      139      206      207      202
     442     49      139      206      207      209
     443     33      140      139      144      143
     444     37      140      139      144      148
     445     13      140      139      206      205
     446     38      140      139      206      207
     447     20      140      141      142      143
     448     29      140      141      142      232
     449     33      141      140      139      144
     450     34      141      140      139      206
     451     20      141      142      143      144
     452     22      141      142      143      147
     453     26      141      142      232      231
     454     28      141      142      232      236
     455     28      141      142      232      237
     456      8      142      141      140      145
     457      8      142      143      144      148
     458     16      142      232      231      233
     459     16      142      232      231      234
     460     16      142      232      231      235
     461     22      143      142      141      146
     462     26      143      142      232      231
     463     28      143      142      232      236
     464     28      143      142      232      237
     465     34      143      144      139      206
     466     37      144      139      140      145
     467     13      144      139      206      205
     468     38      144      139      206      207
     469     29      144      143      142      232
     470     49      145      140      139      206
     471     54      145      140      141      146
     472     52      146      141      142      232
     473     52      147      143      142      232
     474     54      147      143      144      148
     475     49      148      144      139      206
     476     21      149      150      151      152
     477     44      149      150      151      167
     478     36      149      154      153      152
     479     36      150      149      154      153
     480     37      150      149      154      157
     481     21      150      151      152      153
     482     22      150      151      152      156
     483     25      150      151      167      168
     484     28      150      151      167      169
     485     28      150      151      167      170
     486      9      151      150      149      154
     487      9      151      152      153      154
     488     15      151      167      168      171
     489     15      151      167      168      172
     490     22      152      151      150      155
     491     25      152      151      167      168
     492     28      152      151      167      169
     493     28      152      151      167      170
     494     37      152      153      154      157
     495     44      153      152      151      167
     496     37      154      149      150      155
     497     37      154      153      152      156
     498     52      155      150      151      167
     499     52      156      152      151      167
     500      9      158      159      160      161
     501      9      158      163      162      161
     502     17      158      176      173      174
     503     17      158      176      173      175
     504     17      158      176      173      177
     505     21      159      158      163      162
     506     22      159      158      163      166
     507     27      159      158      176      173
     508     28      159      158      176      182
     509     28      159      158      176      183
     510     36      159      160      161      162
     511     37      159      160      161      165
     512     21      160      159      158      163
     513     44      160      159      158      176
     514     36      160      161      162      163
     515     37      161      160      159      164
     516     37      161      162      163      166
     517     44      162      163      158      176
     518     22      163      158      159      164
     519     27      163      158      176      173
     520     28      163      158      176      182
     521     28      163      158      176      183
     522     37      163      162      161      165
     523     52      164      159      158      176
     524     52      166      163      158      176
     525     55      169      167      168      171
     526     55      169      167      168      172
     527     55      170      167      168      171
     528     55      170      167      168      172
     529      4      173      177      186      187
     530     27      173      177      186      191
     531     53      174      173      175      180
     532     53      174      173      175      181
     533     53      174      173      176      182
     534     53      174      173      176      183
     535     53      174      173      177      184
     536     53      174      173      177      185
     537     17      174      173      177      186
     538     53      175      173      174      178
     539     53      175      173      174      179
     540     53      175      173      176      182
     541     53      175      173      176      183
     542     53      175      173      177      184
     543     53      175      173      177      185
     544     17      175      173      177      186
     545     53      176      173      174      178
     546     53      176      173      174      179
     547     53      176      173      175      180
     548     53      176      173      175      181
     549     53      176      173      177      184
     550     53      176      173      177      185
     551     17      176      173      177      186
     552     53      177      173      174      178
     553     53      177      173      174      179
     554     53      177      173      175      180
     555     53      177      173      175      181
     556     53      177      173      176      182
     557     53      177      173      176      183
     558     19      177      186      187      188
     559     51      177      186      187      211
     560     44      177      186      191      190
     561     52      177      186      191      193
     562      5      184      177      186      187
     563     28      184      177      186      191
     564      5      185      177      186      187
     565     28      185      177      186      191
     566      1      186      187      188      189
     567      2      186      187      188      192
     568      3      186      187      211      210
     569      5      186      187      211      215
     570      5      186      187      211      216
     571     10      186      191      190      189
     572      1      187      186      191      190
     573      2      187      186      191      193
     574     10      187      188      189      190
     575     16      187      211      210      212
     576     16      187      211      210      213
     577     16      187      211      210      214
     578     18      188      187      186      191
     579     26      188      187      211      210
     580     28      188      187      211      215
     581     28      188      187      211      216
     582     38      188      189      190      191
     583     44      189      188      187      211
     584     49      189      190      191      193
     585     49      190      189      188      192
     586     19      191      186      187      211
     587     52      192      188      187      211
     588     47      194      195      196      197
     589     49      194      195      196      200
     590     47      194      199      198      197
     591     47      194      199      198      202
     592     47      195      194      199      198
     593     49      195      194      199      201
     594     47      195      196      197      198
     595     38      196      195      194      199
     596     38      196      197      198      199
     597     39      196      197      198      202
     598     49      197      198      199      201
     599     50      197      198      202      203
     600     39      197      198      202      207
     601     49      198      197      196      200
     602     39      198      202      203      204
     603     47      198      202      207      206
     604     49      198      202      207      209
     605     39      199      198      202      203
     606     38      199      198      202      207
     607     49      201      199      198      202
     608     10      202      203      204      205
     609     49      202      203      204      208
     610     11      202      207      206      205
     611     47      203      202      207      206
     612     49      203      202      207      209
     613     40      203      204      205      206
     614     44      203      204      205      225
     615     38      204      203      202      207
     616     23      204      205      206      207
     617     26      204      205      225      224
     618     28      204      205      225      229
     619     28      204      205      225      230
     620     12      205      206      207      209
     621     16      205      225      224      226
     622     16      205      225      224      227
     623     16      205      225      224      228
     624     41      206      205      204      208
     625     42      206      205      225      224
     626     43      206      205      225      229
     627     43      206      205      225      230
     628     35      207      206      205      225
     629     52      208      204      205      225
     630     56      212      210      211      215
     631     56      212      210      211      216
     632     56      213      210      211      215
     633     56      213      210      211      216
     634     56      214      210      211      215
     635     56      214      210      211      216
     636     56      219      217      218      222
     637     56      219      217      218      223
     638     56      220      217      218      222
     639     56      220      217      218      223
     640     56      221      217      218      222
     641     56      221      217      218      223
     642     56      226      224      225      229
     643     56      226      224      225      230
     644     56      227      224      225      229
     645     56      227      224      225      230
     646     56      228      224      225      229
     647     56      228      224      225      230
     648     56      233      231      232      236
     649     56      233      231      232      237
     650     56      234      231      232      236
     651     56      234      231      232      237
     652     56      235      231      232      236
     653     56      235      231      232      237

Impropers

       1     10        2        1        6       89
       2      7        1        2        3        7
       3      6        2        3        4        8
       4      6        3        4        5        9
       5      6        4        5        6       10
       6      7        1        6        5       11
       7     10       13       12       17      112
       8      7       12       13       14       18
       9      6       13       14       15       19
      10      6       14       15       16       20
      11      6       15       16       17       21
      12      7       12       17       16       22
      13     10       24       23       28      160
      14      7       23       24       25       29
      15      6       24       25       26       30
      16      6       25       26       27       31
      17      6       26       27       28       32
      18      7       23       28       27       33
      19     10       35       34       39      162
      20      7       34       35       36       40
      21      6       35       36       37       41
      22      6       36       37       38       42
      23      6       37       38       39       43
      24      7       34       39       38       44
      25     10       46       45       50      189
      26      7       45       46       47       51
      27      6       46       47       48       52
      28      6       47       48       49       53
      29      6       48       49       50       54
      30      7       45       50       49       55
      31     10       57       56       61      195
      32      7       56       57       58       62
      33      6       57       58       59       63
      34      6       58       59       60       64
      35      6       59       60       61       65
      36      7       56       61       60       66
      37     10       68       67       72      197
      38      7       67       68       69       73
      39      6       68       69       70       74
      40      6       69       70       71       75
      41      6       70       71       72       76
      42      7       67       72       71       77
      43     10       79       78       83      203
      44      7       78       79       80       84
      45      6       79       80       81       85
      46      6       80       81       82       86
      47      6       81       82       83       87
      48      7       78       83       82       88
      49     10        1       89       90       94
      50      7       89       90       91       95
      51      7       90       91       92       96
      52     10       91       92       93      149
      53      7       92       93       94       97
      54      7       89       94       93       98
      55      2      100       99      104      168
      56      4       99      100      101      105
      57      4      100      101      102      106
      58      2      101      102      103      174
      59      4      102      103      104      107
      60      4       99      104      103      108
      61      2      110      109      114      175
      62      4      109      110      111      115
      63      7      110      111      112      116
      64     10       12      112      111      113
      65      7      112      113      114      117
      66      4      109      114      113      118
      67     10      120      119      124      190
      68      7      119      120      121      125
      69      4      120      121      122      126
      70      2      121      122      123      218
      71      4      122      123      124      127
      72      7      119      124      123      128
      73     10      130      129      134      153
      74      7      129      130      131      135
      75      7      130      131      132      136
      76     10      131      132      133      194
      77      7      132      133      134      137
      78      7      129      134      133      138
      79     10      140      139      144      206
      80      7      139      140      141      145
      81      4      140      141      142      146
      82      2      141      142      143      232
      83      4      142      143      144      147
      84      7      139      144      143      148
      85     10       92      149      150      154
      86      5      149      150      151      155
      87      2      150      151      152      167
      88      5      151      152      153      156
      89     10      129      153      152      154
      90      8      149      154      153      157
      91      2      159      158      163      176
      92      5      158      159      160      164
      93     10       23      160      159      161
      94      8      160      161      162      165
      95     10       34      162      161      163
      96      5      158      163      162      166
      97      1      177      186      187      191
      98      1      186      187      188      211
      99      5      187      188      189      192
     100     11       45      189      188      190
     101     11      119      190      189      191
     102      5      186      191      190      193
     103     11      132      194      195      199
     104     11       56      195      194      196
     105      8      195      196      197      200
     106     11       67      197      196      198
     107     11      197      198      199      202
     108      8      194      199      198      201
     109     11      198      202      203      207
     110     11       78      203      202      204
     111      5      203      204      205      208
     112      3      204      205      206      225
     113      9      139      206      205      207
     114      8      202      207      206      209

