LAMMPS data file generated by clean-room 1-hop pipeline

     206 atoms
     217 bonds
     384 angles
     569 dihedrals
      72 impropers

       9 atom types
      15 bond types
      37 angle types
      62 dihedral types
      11 improper types

  -30.978700    31.840000 xlo xhi
  -32.263700    35.426100 ylo yhi
  -31.410900    27.088000 zlo zhi

Masses

       1    12.011000
       2    12.011000
       3    12.011000
       4    12.011000
       5    12.011000
       6    12.011000
       7    12.011000
       8     1.008000
       9     1.008000

Pair Coeffs

       1     0.070000     3.550000
       2     0.070000     3.550000
       3     0.070000     3.550000
       4     0.066000     3.500000
       5     0.066000     3.500000
       6     0.066000     3.500000
       7     0.066000     3.500000
       8     0.030000     2.420000
       9     0.030000     2.500000

Bond Coeffs

       1   469.000000     1.400000
       2   469.000000     1.400000
       3   317.000000     1.510000
       4   469.000000     1.400000
       5   469.000000     1.400000
       6   367.000000     1.080000
       7   385.000000     1.460000
       8   268.000000     1.529000
       9   268.000000     1.529000
      10   340.000000     1.090000
      11   268.000000     1.529000
      12   340.000000     1.090000
      13   268.000000     1.529000
      14   268.000000     1.529000
      15   340.000000     1.090000

Angle Coeffs

       1    63.000000   120.000000
       2    63.000000   120.000000
       3    63.000000   120.000000
       4    35.000000   120.000000
       5    63.000000   120.000000
       6    63.000000   120.000000
       7    63.000000   114.000000
       8    63.000000   114.000000
       9    35.000000   109.500000
      10    63.000000   120.000000
      11    63.000000   120.000000
      12    70.000000   120.000000
      13    63.000000   120.000000
      14    63.000000   120.000000
      15    35.000000   120.000000
      16    63.000000   120.000000
      17    63.000000   120.000000
      18    70.000000   120.000000
      19    63.000000   120.000000
      20    35.000000   120.000000
      21    63.000000   120.000000
      22    37.500000   110.700000
      23    58.350000   112.700000
      24    58.350000   112.700000
      25    37.500000   110.700000
      26    58.350000   112.700000
      27    37.500000   110.700000
      28    37.500000   110.700000
      29    58.350000   112.700000
      30    58.350000   112.700000
      31    37.500000   110.700000
      32    58.350000   112.700000
      33    37.500000   110.700000
      34    37.500000   110.700000
      35    33.000000   107.800000
      36    33.000000   107.800000
      37    33.000000   107.800000

Dihedral Coeffs

       1     0.000000     7.250000     0.000000     0.000000
       2     0.000000     7.250000     0.000000     0.000000
       3     0.000000     7.250000     0.000000     0.000000
       4     0.000000     7.250000     0.000000     0.000000
       5     0.000000     7.250000     0.000000     0.000000
       6     0.000000     7.250000     0.000000     0.000000
       7     0.000000     7.250000     0.000000     0.000000
       8     0.000000     7.250000     0.000000     0.000000
       9     0.000000     7.250000     0.000000     0.000000
      10     0.000000     7.250000     0.000000     0.000000
      11     0.000000     7.250000     0.000000     0.000000
      12     0.000000     1.650000     0.000000    -0.050000
      13     0.000000     1.650000     0.000000    -0.050000
      14     0.000000     0.000000     0.462000     0.000000
      15     0.000000     0.000000     0.000000     0.000000
      16     0.000000     0.000000     0.000000     0.000000
      17     0.000000     7.250000     0.000000     0.000000
      18     0.000000     7.250000     0.000000     0.000000
      19     0.000000     7.250000     0.000000     0.000000
      20     0.000000     7.250000     0.000000     0.000000
      21     0.000000     7.250000     0.000000     0.000000
      22    -0.250000     0.000000     0.000000     0.000000
      23    -0.250000     0.000000     0.000000     0.000000
      24     0.000000     0.000000     0.000000     0.000000
      25     0.000000     7.250000     0.000000     0.000000
      26     0.000000     7.250000     0.000000     0.000000
      27     0.000000     7.250000     0.000000     0.000000
      28     0.000000     7.250000     0.000000     0.000000
      29     0.000000     7.250000     0.000000     0.000000
      30     0.000000     7.250000     0.000000     0.000000
      31     0.000000     7.250000     0.000000     0.000000
      32     0.000000     7.250000     0.000000     0.000000
      33     0.000000     1.650000     0.000000    -0.050000
      34     0.000000     1.650000     0.000000    -0.050000
      35     0.000000     7.250000     0.000000     0.000000
      36    -0.250000     0.000000     0.000000     0.000000
      37     0.000000     0.000000     0.000000     0.000000
      38     0.000000     7.250000     0.000000     0.000000
      39     0.000000     7.250000     0.000000     0.000000
      40     0.000000     7.250000     0.000000     0.000000
      41     0.000000     7.250000     0.000000     0.000000
      42     0.000000     7.250000     0.000000     0.000000
      43     0.000000     1.650000     0.000000    -0.050000
      44     0.000000     7.250000     0.000000     0.000000
      45     0.000000     0.000000     0.300000     0.000000
      46     0.850000    -0.200000     0.200000     0.000000
      47     0.000000     0.000000     0.300000     0.000000
      48     0.850000    -0.200000     0.200000     0.000000
      49     0.850000    -0.200000     0.200000     0.000000
      50     0.000000     0.000000     0.300000     0.000000
      51     0.000000     0.000000     0.300000     0.000000
      52     0.850000    -0.200000     0.200000     0.000000
      53     0.850000    -0.200000     0.200000     0.000000
      54     0.000000     0.000000     0.300000     0.000000
      55     0.850000    -0.200000     0.200000     0.000000
      56     0.000000     0.000000     0.300000     0.000000
      57     0.000000     0.000000     0.300000     0.000000
      58     0.000000     0.000000     0.300000     0.000000
      59     0.000000     7.250000     0.000000     0.000000
      60     0.000000     0.000000     0.300000     0.000000
      61     0.000000     0.000000     0.300000     0.000000
      62     0.000000     0.000000     0.300000     0.000000

Improper Coeffs

       1     2.500000   -1    2
       2     2.500000   -1    2
       3     2.500000   -1    2
       4     2.500000   -1    2
       5     2.500000   -1    2
       6     2.500000   -1    2
       7     2.500000   -1    2
       8     2.500000   -1    2
       9     2.500000   -1    2
      10     2.500000   -1    2
      11     2.500000   -1    2

Atoms

       1    1      5  -0.26159690     2.144700   -11.412600     3.867300
       2    1      4  -0.14254811     1.901100   -10.141600     4.701100
       3    1      9   0.10026406     2.461400   -12.263700     4.556500
       4    1      9   0.10026406     1.184300   -11.699300     3.324100
       5    1      9   0.10026406     2.968500   -11.214200     3.104600
       6    1      9   0.10026406     2.865400    -9.846300     5.232700
       7    1      9   0.10026406     1.086700   -10.339300     5.474000
       8    1      5  -0.26159690     2.923100    -3.646200     4.473200
       9    1      6  -0.19094553     1.611400    -4.268300     3.959300
      10    1      9   0.10026406     3.745500    -3.802200     3.699300
      11    1      9   0.10026406     2.771300    -2.529200     4.646100
      12    1      9   0.10026406     3.222500    -4.146900     5.452600
      13    1      9   0.10026406     0.794500    -4.104600     4.736200
      14    1      9   0.10026406     1.761300    -5.382900     3.794100
      15    1      5  -0.26159690     0.363700    -7.459900     6.359200
      16    1      6  -0.19094553    -0.813800    -7.000500     5.480100
      17    1      9   0.10026406     1.258700    -7.700100     5.694500
      18    1      9   0.10026406     0.641800    -6.628700     7.088000
      19    1      9   0.10026406     0.062100    -8.392700     6.941000
      20    1      9   0.10026406    -1.717800    -6.763000     6.132600
      21    1      9   0.10026406    -1.085300    -7.833300     4.751900
      22    1      5  -0.26159690     0.303700    -0.499900     5.601200
      23    1      4  -0.14254811    -0.415800     0.601900     4.800700
      24    1      9   0.10026406     0.226700    -0.275900     6.716300
      25    1      9   0.10026406    -0.182800    -1.506800     5.378800
      26    1      9   0.10026406     1.401700    -0.534000     5.294400
      27    1      9   0.10026406     0.078200     1.607700     5.010800
      28    1      9   0.10026406    -1.514900     0.643800     5.100200
      29    1      5  -0.26159690     1.341600     0.964600    -5.815000
      30    1      4  -0.14254811     1.721800     1.933100    -4.680700
      31    1      9   0.10026406     0.208600     0.842900    -5.846800
      32    1      9   0.10026406     1.709100     1.383800    -6.809500
      33    1      9   0.10026406     1.829000    -0.048600    -5.627300
      34    1      9   0.10026406     1.361900     1.521400    -3.680200
      35    1      9   0.10026406     1.240900     2.949900    -4.868100
      36    1      5  -0.26159690     7.347200     0.089600    -6.528000
      37    1      4  -0.14254811     6.463900     1.261800    -6.995000
      38    1      9   0.10026406     7.962700    -0.297400    -7.406000
      39    1      9   0.10026406     8.046000     0.451900    -5.703200
      40    1      9   0.10026406     6.687300    -0.748300    -6.125800
      41    1      9   0.10026406     5.762500     0.903400    -7.819100
      42    1      9   0.10026406     7.113800     2.107700    -7.396300
      43    1      5  -0.26159690     0.175700    14.306700    -3.699000
      44    1      4  -0.14254811    -1.146700    13.545400    -3.497400
      45    1      9   0.10026406     0.663700    13.949400    -4.665400
      46    1      9   0.10026406    -0.029000    15.426100    -3.766200
      47    1      9   0.10026406     0.874000    14.097100    -2.822600
      48    1      9   0.10026406    -1.656800    13.900800    -2.541700
      49    1      9   0.10026406    -1.829800    13.737500    -4.389800
      50    1      5  -0.26159690    -6.591600    12.862900    -4.086300
      51    1      6  -0.19094553    -6.684100    11.349400    -3.815200
      52    1      9   0.10026406    -5.718300    13.090900    -4.778200
      53    1      9   0.10026406    -7.562700    13.224900    -4.560600
      54    1      9   0.10026406    -6.427900    13.407300    -3.098300
      55    1      9   0.10026406    -5.709900    10.983600    -3.348700
      56    1      9   0.10026406    -7.536000    11.180000    -3.077000
      57    1      1  -0.09007103     1.459000    -8.996500     3.772600
      58    1      2  -0.15005867     2.481600    -7.939300     3.321700
      59    1      2  -0.15005867     2.027700    -6.747900     2.458900
      60    1      1  -0.09007103     0.539000    -6.578800     2.100300
      61    1      2  -0.15005867    -0.474900    -7.659600     2.516000
      62    1      2  -0.15005867    -0.017900    -8.863600     3.359100
      63    1      8   0.16531651     3.575500    -8.038500     3.627100
      64    1      8   0.16531651     2.789400    -5.975500     2.108500
      65    1      8   0.16531651    -1.569000    -7.559100     2.212300
      66    1      8   0.16531651    -0.775600    -9.648900     3.688800
      67    1      3  -0.04179603    -0.145700     9.035500    -3.258900
      68    1      2  -0.15005867     0.891100    10.082400    -2.813900
      69    1      2  -0.15005867     0.554000    11.583700    -2.885000
      70    1      1  -0.09007103    -0.824200    12.041500    -3.397800
      71    1      2  -0.15005867    -1.835100    10.998000    -3.907500
      72    1      2  -0.15005867    -1.489600     9.497900    -3.849600
      73    1      8   0.16531651     1.906600     9.744500    -2.421200
      74    1      8   0.16531651     1.323700    12.356800    -2.554100
      75    1      8   0.16531651    -2.836500    11.335600    -4.335600
      76    1      8   0.16531651    -2.219400     8.732600    -4.269700
      77    1      3  -0.04179603    -2.308400     6.836300    -3.574000
      78    1      2  -0.15005867    -2.869200     6.592200    -4.988300
      79    1      2  -0.15005867    -3.821400     7.636600    -5.607000
      80    1      1  -0.09007103    -4.241700     8.862400    -4.772400
      81    1      2  -0.15005867    -4.037700     8.832300    -3.246100
      82    1      2  -0.15005867    -3.041300     7.822700    -2.642200
      83    1      8   0.16531651    -2.473400     5.731500    -5.622400
      84    1      8   0.16531651    -4.123100     7.558400    -6.703600
      85    1      8   0.16531651    -4.508600     9.635800    -2.588600
      86    1      8   0.16531651    -2.760300     7.886500    -1.539400
      87    1      7  -0.05121837    -0.097100    -4.050500     1.973800
      88    1      4  -0.14254811     0.084300    -5.392200     1.227700
      89    1      6  -0.19094553     1.206300    -3.566600     2.651200
      90    1      6  -0.19094553    -1.331800    -4.076400     2.904800
      91    1      4  -0.14254811    -0.379400    -3.014500     0.866000
      92    1      9   0.10026406    -0.897200    -5.662100     0.714700
      93    1      9   0.10026406     0.881600    -5.238300     0.427600
      94    1      9   0.10026406     2.054600    -3.650400     1.894300
      95    1      9   0.10026406     1.069900    -2.467500     2.917900
      96    1      9   0.10026406    -1.318700    -3.162200     3.580700
      97    1      9   0.10026406    -2.250700    -4.012400     2.233200
      98    1      9   0.10026406     0.439300    -3.126700     0.080600
      99    1      9   0.10026406    -1.384800    -3.243700     0.379800
     100    1      7  -0.05121837    -5.847800    10.554600    -6.124500
     101    1      4  -0.14254811    -4.497700    10.215400    -5.467400
     102    1      4  -0.14254811    -6.163300     9.572000    -7.270200
     103    1      6  -0.19094553    -6.982200    10.518700    -5.080000
     104    1      4  -0.14254811    -5.597900    11.954700    -6.724100
     105    1      9   0.10026406    -3.710800    10.308300    -6.287000
     106    1      9   0.10026406    -4.288200    11.026200    -4.693400
     107    1      9   0.10026406    -5.276700     9.552500    -7.986600
     108    1      9   0.10026406    -6.327900     8.526400    -6.846500
     109    1      9   0.10026406    -7.110300     9.434800    -4.751000
     110    1      9   0.10026406    -7.953900    10.881900    -5.551700
     111    1      9   0.10026406    -4.747400    11.861800    -7.477300
     112    1      9   0.10026406    -5.255600    12.657600    -5.898100
     113    1      6  -0.19094553    -1.552100    -5.350900     3.747500
     114    1      6  -0.19094553    -0.403400    -5.742800     4.692800
     115    1      9   0.10026406    -1.733100    -6.217100     3.031000
     116    1      9   0.10026406    -2.494500    -5.196700     4.370000
     117    1      9   0.10026406    -0.180400    -4.892800     5.418800
     118    1      9   0.10026406     0.524600    -5.979600     4.076900
     119    1      1  -0.09007103    -0.330600    -1.545000     1.338900
     120    1      2  -0.15005867    -0.517300    -1.182000     2.825900
     121    1      1  -0.09007103    -0.292300     0.265400     3.303600
     122    1      2  -0.15005867     0.198300     1.336400     2.311900
     123    1      3  -0.04179603     0.451700     0.956500     0.840500
     124    1      2  -0.15005867     0.098500    -0.455200     0.339200
     125    1      8   0.16531651    -0.786000    -1.988000     3.581800
     126    1      8   0.16531651     0.434500     2.389400     2.679100
     127    1      8   0.16531651     0.249300    -0.721000    -0.759000
     128    1      3  -0.04179603     1.286800     1.880400    -0.062500
     129    1      3  -0.04179603     2.787500     2.086700     0.256600
     130    1      2  -0.15005867     3.697300     2.717300    -0.808800
     131    1      3  -0.04179603     3.095400     3.046700    -2.178800
     132    1      3  -0.04179603     1.586900     3.337100    -2.269800
     133    1      2  -0.15005867     0.661200     2.571600    -1.301200
     134    1      8   0.16531651     4.823500     2.776900    -0.642200
     135    1      8   0.16531651    -0.468500     2.574400    -1.454300
     136    1      3  -0.04179603     3.928400     2.755000    -3.436400
     137    1      1  -0.09007103     3.250500     2.100800    -4.652400
     138    1      2  -0.15005867     4.105400     1.574200    -5.817600
     139    1      1  -0.09007103     5.633000     1.772700    -5.805800
     140    1      3  -0.04179603     6.300100     2.539500    -4.640700
     141    1      2  -0.15005867     5.452600     2.965000    -3.426200
     142    1      8   0.16531651     3.605700     1.050400    -6.698300
     143    1      8   0.16531651     5.953500     3.454800    -2.526900
     144    1      3  -0.04179603     1.083500     4.597900    -3.024100
     145    1      3  -0.04179603     2.095600     5.705100    -3.393800
     146    1      2  -0.15005867     1.703300     7.164600    -3.170800
     147    1      3  -0.04179603     0.219500     7.540100    -3.176900
     148    1      3  -0.04179603    -0.852400     6.427500    -3.260100
     149    1      2  -0.15005867    -0.424900     4.945200    -3.090600
     150    1      8   0.16531651     2.500300     7.979800    -3.169300
     151    1      8   0.16531651    -1.210800     4.127100    -2.977600
     152    1      3  -0.04179603     3.425000     1.546600     1.557900
     153    1      2  -0.15005867     4.832600     2.028400     1.958900
     154    1      2  -0.15005867     5.487600     1.515900     3.255700
     155    1      2  -0.15005867     4.743200     0.507000     4.148600
     156    1      2  -0.15005867     3.352200    -0.005200     3.733600
     157    1      2  -0.15005867     2.701900     0.499700     2.431400
     158    1      8   0.16531651     5.386600     2.774700     1.298700
     159    1      8   0.16531651     6.524100     1.884500     3.554600
     160    1      8   0.16531651     5.224600     0.133900     5.112400
     161    1      8   0.16531651     2.807100    -0.766500     4.384700
     162    1      8   0.16531651     1.700000     0.072700     2.102000
     163    1      3  -0.04179603     7.794300     2.929700    -4.675800
     164    1      2  -0.15005867     8.377900     3.748100    -3.508400
     165    1      2  -0.15005867     9.850700     4.196800    -3.535400
     166    1      2  -0.15005867    10.749000     3.817300    -4.725900
     167    1      2  -0.15005867    10.173700     2.987400    -5.887500
     168    1      2  -0.15005867     8.699900     2.541200    -5.862000
     169    1      8   0.16531651     7.715000     4.026100    -2.623500
     170    1      8   0.16531651    10.276200     4.808200    -2.672500
     171    1      8   0.16531651    11.840000     4.147400    -4.745800
     172    1      8   0.16531651    10.839900     2.700800    -6.766900
     173    1      8   0.16531651     8.286400     1.923500    -6.721800
     174    1      3  -0.04179603     3.423600     5.423600    -4.114900
     175    1      2  -0.15005867     4.660200     6.285700    -3.801400
     176    1      2  -0.15005867     5.948700     6.115100    -4.626800
     177    1      2  -0.15005867     5.987200     5.111700    -5.793200
     178    1      2  -0.15005867     4.733000     4.290700    -6.141100
     179    1      2  -0.15005867     3.452100     4.449500    -5.303300
     180    1      8   0.16531651     4.621800     7.050400    -2.956700
     181    1      8   0.16531651     6.872700     6.733900    -4.376400
     182    1      8   0.16531651     6.943100     4.977700    -6.399700
     183    1      8   0.16531651     4.756800     3.554600    -7.011300
     184    1      8   0.16531651     2.518800     3.851700    -5.570700
     185    1      1  -0.09007103    -7.410500    10.042200    -8.047500
     186    1      2  -0.15005867    -7.294400    10.392700    -9.543200
     187    1      2  -0.15005867    -8.516800    10.937700   -10.306600
     188    1      2  -0.15005867    -9.858700    11.128400    -9.576800
     189    1      2  -0.15005867    -9.983300    10.753900    -8.088800
     190    1      2  -0.15005867    -8.762000    10.204500    -7.326500
     191    1      8   0.16531651    -6.299300    10.260200   -10.083100
     192    1      8   0.16531651    -8.426000    11.205400   -11.410900
     193    1      8   0.16531651   -10.760800    11.540300   -10.139300
     194    1      8   0.16531651   -10.978700    10.887400    -7.549400
     195    1      8   0.16531651    -8.854600     9.932700    -6.223400
     196    1      1  -0.09007103    -6.807700    12.584100    -7.442900
     197    1      2  -0.15005867    -8.130100    12.809400    -6.687600
     198    1      2  -0.15005867    -9.319000    13.483100    -7.399500
     199    1      2  -0.15005867    -9.192700    13.914800    -8.872300
     200    1      2  -0.15005867    -7.876800    13.672900    -9.633700
     201    1      2  -0.15005867    -6.686400    13.004600    -8.920200
     202    1      8   0.16531651    -8.229500    12.476700    -5.601800
     203    1      8   0.16531651   -10.294300    13.659600    -6.836400
     204    1      8   0.16531651   -10.073100    14.412600    -9.398500
     205    1      8   0.16531651    -7.783700    13.987500   -10.725500
     206    1      8   0.16531651    -5.713200    12.823000    -9.485300

Bonds

       1      8        1        2
       2     12        1        3
       3     12        1        4
       4     12        1        5
       5     10        2        6
       6     10        2        7
       7      3        2       57
       8     11        8        9
       9     12        8       10
      10     12        8       11
      11     12        8       12
      12     15        9       13
      13     15        9       14
      14     13        9       89
      15     11       15       16
      16     12       15       17
      17     12       15       18
      18     12       15       19
      19     15       16       20
      20     15       16       21
      21     13       16      114
      22      8       22       23
      23     12       22       24
      24     12       22       25
      25     12       22       26
      26     10       23       27
      27     10       23       28
      28      3       23      121
      29      8       29       30
      30     12       29       31
      31     12       29       32
      32     12       29       33
      33     10       30       34
      34     10       30       35
      35      3       30      137
      36      8       36       37
      37     12       36       38
      38     12       36       39
      39     12       36       40
      40     10       37       41
      41     10       37       42
      42      3       37      139
      43      8       43       44
      44     12       43       45
      45     12       43       46
      46     12       43       47
      47     10       44       48
      48     10       44       49
      49      3       44       70
      50     11       50       51
      51     12       50       52
      52     12       50       53
      53     12       50       54
      54     15       51       55
      55     15       51       56
      56     13       51      103
      57      1       57       58
      58      4       58       59
      59      6       58       63
      60      1       59       60
      61      6       59       64
      62      1       60       61
      63      3       60       88
      64      4       61       62
      65      6       61       65
      66      1       62       57
      67      6       62       66
      68      5       67       68
      69      7       67      147
      70      4       68       69
      71      6       68       73
      72      1       69       70
      73      6       69       74
      74      1       70       71
      75      4       71       72
      76      6       71       75
      77      5       72       67
      78      6       72       76
      79      5       77       78
      80      7       77      148
      81      4       78       79
      82      6       78       83
      83      1       79       80
      84      6       79       84
      85      1       80       81
      86      3       80      101
      87      4       81       82
      88      6       81       85
      89      5       82       77
      90      6       82       86
      91      9       87       88
      92     14       87       89
      93     14       87       90
      94      9       87       91
      95     10       88       92
      96     10       88       93
      97     15       89       94
      98     15       89       95
      99     15       90       96
     100     15       90       97
     101     13       90      113
     102     10       91       98
     103     10       91       99
     104      3       91      119
     105      9      100      101
     106      9      100      102
     107     14      100      103
     108      9      100      104
     109     10      101      105
     110     10      101      106
     111     10      102      107
     112     10      102      108
     113      3      102      185
     114     15      103      109
     115     15      103      110
     116     10      104      111
     117     10      104      112
     118      3      104      196
     119     13      113      114
     120     15      113      115
     121     15      113      116
     122     15      114      117
     123     15      114      118
     124      1      119      120
     125      1      120      121
     126      6      120      125
     127      1      121      122
     128      5      122      123
     129      6      122      126
     130      5      123      124
     131      7      123      128
     132      1      124      119
     133      6      124      127
     134      7      128      129
     135      5      129      130
     136      7      129      152
     137      5      130      131
     138      6      130      134
     139      7      131      132
     140      7      131      136
     141      5      132      133
     142      7      132      144
     143      5      133      128
     144      6      133      135
     145      2      136      137
     146      1      137      138
     147      1      138      139
     148      6      138      142
     149      2      139      140
     150      5      140      141
     151      7      140      163
     152      5      141      136
     153      6      141      143
     154      7      144      145
     155      5      145      146
     156      7      145      174
     157      5      146      147
     158      6      146      150
     159      7      147      148
     160      5      148      149
     161      5      149      144
     162      6      149      151
     163      5      152      153
     164      4      153      154
     165      6      153      158
     166      4      154      155
     167      6      154      159
     168      4      155      156
     169      6      155      160
     170      4      156      157
     171      6      156      161
     172      5      157      152
     173      6      157      162
     174      5      163      164
     175      4      164      165
     176      6      164      169
     177      4      165      166
     178      6      165      170
     179      4      166      167
     180      6      166      171
     181      4      167      168
     182      6      167      172
     183      5      168      163
     184      6      168      173
     185      5      174      175
     186      4      175      176
     187      6      175      180
     188      4      176      177
     189      6      176      181
     190      4      177      178
     191      6      177      182
     192      4      178      179
     193      6      178      183
     194      5      179      174
     195      6      179      184
     196      1      185      186
     197      4      186      187
     198      6      186      191
     199      4      187      188
     200      6      187      192
     201      4      188      189
     202      6      188      193
     203      4      189      190
     204      6      189      194
     205      1      190      185
     206      6      190      195
     207      1      196      197
     208      4      197      198
     209      6      197      202
     210      4      198      199
     211      6      198      203
     212      4      199      200
     213      6      199      204
     214      4      200      201
     215      6      200      205
     216      1      201      196
     217      6      201      206

Angles

       1     25        1        2        6
       2     25        1        2        7
       3      7        1        2       57
       4     22        2        1        3
       5     22        2        1        4
       6     22        2        1        5
       7     12        2       57       58
       8     12        2       57       62
       9     36        3        1        4
      10     36        3        1        5
      11     36        4        1        5
      12     35        6        2        7
      13      9        6        2       57
      14      9        7        2       57
      15     27        8        9       13
      16     27        8        9       14
      17     26        8        9       89
      18     28        9        8       10
      19     28        9        8       11
      20     28        9        8       12
      21     30        9       89       87
      22     31        9       89       94
      23     31        9       89       95
      24     36       10        8       11
      25     36       10        8       12
      26     36       11        8       12
      27     37       13        9       14
      28     31       13        9       89
      29     31       14        9       89
      30     27       15       16       20
      31     27       15       16       21
      32     26       15       16      114
      33     28       16       15       17
      34     28       16       15       18
      35     28       16       15       19
      36     29       16      114      113
      37     31       16      114      117
      38     31       16      114      118
      39     36       17       15       18
      40     36       17       15       19
      41     36       18       15       19
      42     37       20       16       21
      43     31       20       16      114
      44     31       21       16      114
      45     25       22       23       27
      46     25       22       23       28
      47      7       22       23      121
      48     22       23       22       24
      49     22       23       22       25
      50     22       23       22       26
      51     12       23      121      120
      52     12       23      121      122
      53     36       24       22       25
      54     36       24       22       26
      55     36       25       22       26
      56     35       27       23       28
      57      9       27       23      121
      58      9       28       23      121
      59     25       29       30       34
      60     25       29       30       35
      61      7       29       30      137
      62     22       30       29       31
      63     22       30       29       32
      64     22       30       29       33
      65     18       30      137      136
      66     12       30      137      138
      67     36       31       29       32
      68     36       31       29       33
      69     36       32       29       33
      70     35       34       30       35
      71      9       34       30      137
      72      9       35       30      137
      73     25       36       37       41
      74     25       36       37       42
      75      7       36       37      139
      76     22       37       36       38
      77     22       37       36       39
      78     22       37       36       40
      79     12       37      139      138
      80     18       37      139      140
      81     36       38       36       39
      82     36       38       36       40
      83     36       39       36       40
      84     35       41       37       42
      85      9       41       37      139
      86      9       42       37      139
      87     25       43       44       48
      88     25       43       44       49
      89      7       43       44       70
      90     22       44       43       45
      91     22       44       43       46
      92     22       44       43       47
      93     12       44       70       69
      94     12       44       70       71
      95     36       45       43       46
      96     36       45       43       47
      97     36       46       43       47
      98     35       48       44       49
      99      9       48       44       70
     100      9       49       44       70
     101     27       50       51       55
     102     27       50       51       56
     103     26       50       51      103
     104     28       51       50       52
     105     28       51       50       53
     106     28       51       50       54
     107     30       51      103      100
     108     31       51      103      109
     109     31       51      103      110
     110     36       52       50       53
     111     36       52       50       54
     112     36       53       50       54
     113     37       55       51       56
     114     31       55       51      103
     115     31       56       51      103
     116      2       57       58       59
     117      4       57       58       63
     118      2       57       62       61
     119      4       57       62       66
     120     10       58       57       62
     121      2       58       59       60
     122     15       58       59       64
     123     15       59       58       63
     124     10       59       60       61
     125     12       59       60       88
     126      4       60       59       64
     127      2       60       61       62
     128      4       60       61       65
     129      8       60       88       87
     130      9       60       88       92
     131      9       60       88       93
     132     12       61       60       88
     133     15       61       62       66
     134     15       62       61       65
     135     14       67       68       69
     136     20       67       68       73
     137     14       67       72       71
     138     20       67       72       76
     139     17       67      147      146
     140     21       67      147      148
     141     16       68       67       72
     142     17       68       67      147
     143      2       68       69       70
     144     15       68       69       74
     145     15       69       68       73
     146     10       69       70       71
     147      4       70       69       74
     148      2       70       71       72
     149      4       70       71       75
     150     15       71       72       76
     151     17       72       67      147
     152     15       72       71       75
     153     14       77       78       79
     154     20       77       78       83
     155     14       77       82       81
     156     20       77       82       86
     157     21       77      148      147
     158     17       77      148      149
     159     16       78       77       82
     160     17       78       77      148
     161      2       78       79       80
     162     15       78       79       84
     163     15       79       78       83
     164     10       79       80       81
     165     12       79       80      101
     166      4       80       79       84
     167      2       80       81       82
     168      4       80       81       85
     169      8       80      101      100
     170      9       80      101      105
     171      9       80      101      106
     172     12       81       80      101
     173     15       81       82       86
     174     17       82       77      148
     175     15       82       81       85
     176     33       87       88       92
     177     33       87       88       93
     178     34       87       89       94
     179     34       87       89       95
     180     34       87       90       96
     181     34       87       90       97
     182     30       87       90      113
     183     33       87       91       98
     184     33       87       91       99
     185      8       87       91      119
     186     24       88       87       89
     187     24       88       87       90
     188     23       88       87       91
     189     32       89       87       90
     190     24       89       87       91
     191     24       90       87       91
     192     29       90      113      114
     193     31       90      113      115
     194     31       90      113      116
     195     12       91      119      120
     196     12       91      119      124
     197     35       92       88       93
     198     37       94       89       95
     199     37       96       90       97
     200     31       96       90      113
     201     31       97       90      113
     202     35       98       91       99
     203      9       98       91      119
     204      9       99       91      119
     205     33      100      101      105
     206     33      100      101      106
     207     33      100      102      107
     208     33      100      102      108
     209      8      100      102      185
     210     34      100      103      109
     211     34      100      103      110
     212     33      100      104      111
     213     33      100      104      112
     214      8      100      104      196
     215     23      101      100      102
     216     24      101      100      103
     217     23      101      100      104
     218     24      102      100      103
     219     23      102      100      104
     220     12      102      185      186
     221     12      102      185      190
     222     24      103      100      104
     223     12      104      196      197
     224     12      104      196      201
     225     35      105      101      106
     226     35      107      102      108
     227      9      107      102      185
     228      9      108      102      185
     229     37      109      103      110
     230     35      111      104      112
     231      9      111      104      196
     232      9      112      104      196
     233     31      113      114      117
     234     31      113      114      118
     235     31      114      113      115
     236     31      114      113      116
     237     37      115      113      116
     238     37      117      114      118
     239      1      119      120      121
     240      4      119      120      125
     241      3      119      124      123
     242      4      119      124      127
     243     10      120      119      124
     244     10      120      121      122
     245      4      121      120      125
     246      3      121      122      123
     247      4      121      122      126
     248     16      122      123      124
     249     17      122      123      128
     250     20      123      122      126
     251     20      123      124      127
     252     21      123      128      129
     253     17      123      128      133
     254     17      124      123      128
     255     17      128      129      130
     256     21      128      129      152
     257     19      128      133      132
     258     20      128      133      135
     259     17      129      128      133
     260     19      129      130      131
     261     20      129      130      134
     262     17      129      152      153
     263     17      129      152      157
     264     17      130      129      152
     265     17      130      131      132
     266     17      130      131      136
     267     20      131      130      134
     268     17      131      132      133
     269     21      131      132      144
     270      6      131      136      137
     271     17      131      136      141
     272     21      132      131      136
     273     20      132      133      135
     274     21      132      144      145
     275     17      132      144      149
     276     17      133      132      144
     277     11      136      137      138
     278     19      136      141      140
     279     20      136      141      143
     280      5      137      136      141
     281      1      137      138      139
     282      4      137      138      142
     283     11      138      139      140
     284      4      139      138      142
     285      5      139      140      141
     286      6      139      140      163
     287     20      140      141      143
     288     17      140      163      164
     289     17      140      163      168
     290     17      141      140      163
     291     17      144      145      146
     292     21      144      145      174
     293     19      144      149      148
     294     20      144      149      151
     295     17      145      144      149
     296     19      145      146      147
     297     20      145      146      150
     298     17      145      174      175
     299     17      145      174      179
     300     17      146      145      174
     301     17      146      147      148
     302     20      147      146      150
     303     17      147      148      149
     304     20      148      149      151
     305     14      152      153      154
     306     20      152      153      158
     307     14      152      157      156
     308     20      152      157      162
     309     16      153      152      157
     310     13      153      154      155
     311     15      153      154      159
     312     15      154      153      158
     313     13      154      155      156
     314     15      154      155      160
     315     15      155      154      159
     316     13      155      156      157
     317     15      155      156      161
     318     15      156      155      160
     319     15      156      157      162
     320     15      157      156      161
     321     14      163      164      165
     322     20      163      164      169
     323     14      163      168      167
     324     20      163      168      173
     325     16      164      163      168
     326     13      164      165      166
     327     15      164      165      170
     328     15      165      164      169
     329     13      165      166      167
     330     15      165      166      171
     331     15      166      165      170
     332     13      166      167      168
     333     15      166      167      172
     334     15      167      166      171
     335     15      167      168      173
     336     15      168      167      172
     337     14      174      175      176
     338     20      174      175      180
     339     14      174      179      178
     340     20      174      179      184
     341     16      175      174      179
     342     13      175      176      177
     343     15      175      176      181
     344     15      176      175      180
     345     13      176      177      178
     346     15      176      177      182
     347     15      177      176      181
     348     13      177      178      179
     349     15      177      178      183
     350     15      178      177      182
     351     15      178      179      184
     352     15      179      178      183
     353      2      185      186      187
     354      4      185      186      191
     355      2      185      190      189
     356      4      185      190      195
     357     10      186      185      190
     358     13      186      187      188
     359     15      186      187      192
     360     15      187      186      191
     361     13      187      188      189
     362     15      187      188      193
     363     15      188      187      192
     364     13      188      189      190
     365     15      188      189      194
     366     15      189      188      193
     367     15      189      190      195
     368     15      190      189      194
     369      2      196      197      198
     370      4      196      197      202
     371      2      196      201      200
     372      4      196      201      206
     373     10      197      196      201
     374     13      197      198      199
     375     15      197      198      203
     376     15      198      197      202
     377     13      198      199      200
     378     15      198      199      204
     379     15      199      198      203
     380     13      199      200      201
     381     15      199      200      205
     382     15      200      199      204
     383     15      200      201      206
     384     15      201      200      205

Dihedrals

       1     22        1        2       57       58
       2     22        1        2       57       62
       3     25        2       57       58       59
       4     44        2       57       58       63
       5     25        2       57       62       61
       6     44        2       57       62       66
       7     60        3        1        2        6
       8     60        3        1        2        7
       9     14        3        1        2       57
      10     60        4        1        2        6
      11     60        4        1        2        7
      12     14        4        1        2       57
      13     60        5        1        2        6
      14     60        5        1        2        7
      15     14        5        1        2       57
      16     24        6        2       57       58
      17     24        6        2       57       62
      18     24        7        2       57       58
      19     24        7        2       57       62
      20     49        8        9       89       87
      21     50        8        9       89       94
      22     50        8        9       89       95
      23     46        9       89       87       88
      24     55        9       89       87       90
      25     46        9       89       87       91
      26     61       10        8        9       13
      27     61       10        8        9       14
      28     51       10        8        9       89
      29     61       11        8        9       13
      30     61       11        8        9       14
      31     51       11        8        9       89
      32     61       12        8        9       13
      33     61       12        8        9       14
      34     51       12        8        9       89
      35     58       13        9       89       87
      36     62       13        9       89       94
      37     62       13        9       89       95
      38     58       14        9       89       87
      39     62       14        9       89       94
      40     62       14        9       89       95
      41     48       15       16      114      113
      42     50       15       16      114      117
      43     50       15       16      114      118
      44     52       16      114      113       90
      45     54       16      114      113      115
      46     54       16      114      113      116
      47     61       17       15       16       20
      48     61       17       15       16       21
      49     51       17       15       16      114
      50     61       18       15       16       20
      51     61       18       15       16       21
      52     51       18       15       16      114
      53     61       19       15       16       20
      54     61       19       15       16       21
      55     51       19       15       16      114
      56     54       20       16      114      113
      57     62       20       16      114      117
      58     62       20       16      114      118
      59     54       21       16      114      113
      60     62       21       16      114      117
      61     62       21       16      114      118
      62     22       22       23      121      120
      63     22       22       23      121      122
      64      3       23      121      120      119
      65     44       23      121      120      125
      66     38       23      121      122      123
      67     44       23      121      122      126
      68     60       24       22       23       27
      69     60       24       22       23       28
      70     14       24       22       23      121
      71     60       25       22       23       27
      72     60       25       22       23       28
      73     14       25       22       23      121
      74     60       26       22       23       27
      75     60       26       22       23       28
      76     14       26       22       23      121
      77     24       27       23      121      120
      78     24       27       23      121      122
      79     24       28       23      121      120
      80     24       28       23      121      122
      81     36       29       30      137      136
      82     22       29       30      137      138
      83     41       30      137      136      131
      84     31       30      137      136      141
      85      3       30      137      138      139
      86     44       30      137      138      142
      87     60       31       29       30       34
      88     60       31       29       30       35
      89     14       31       29       30      137
      90     60       32       29       30       34
      91     60       32       29       30       35
      92     14       32       29       30      137
      93     60       33       29       30       34
      94     60       33       29       30       35
      95     14       33       29       30      137
      96     37       34       30      137      136
      97     24       34       30      137      138
      98     37       35       30      137      136
      99     24       35       30      137      138
     100     22       36       37      139      138
     101     36       36       37      139      140
     102      3       37      139      138      137
     103     44       37      139      138      142
     104     31       37      139      140      141
     105     41       37      139      140      163
     106     60       38       36       37       41
     107     60       38       36       37       42
     108     14       38       36       37      139
     109     60       39       36       37       41
     110     60       39       36       37       42
     111     14       39       36       37      139
     112     60       40       36       37       41
     113     60       40       36       37       42
     114     14       40       36       37      139
     115     24       41       37      139      138
     116     37       41       37      139      140
     117     24       42       37      139      138
     118     37       42       37      139      140
     119     22       43       44       70       69
     120     22       43       44       70       71
     121     25       44       70       69       68
     122     44       44       70       69       74
     123     25       44       70       71       72
     124     44       44       70       71       75
     125     60       45       43       44       48
     126     60       45       43       44       49
     127     14       45       43       44       70
     128     60       46       43       44       48
     129     60       46       43       44       49
     130     14       46       43       44       70
     131     60       47       43       44       48
     132     60       47       43       44       49
     133     14       47       43       44       70
     134     24       48       44       70       69
     135     24       48       44       70       71
     136     24       49       44       70       69
     137     24       49       44       70       71
     138     49       50       51      103      100
     139     50       50       51      103      109
     140     50       50       51      103      110
     141     46       51      103      100      101
     142     46       51      103      100      102
     143     46       51      103      100      104
     144     61       52       50       51       55
     145     61       52       50       51       56
     146     51       52       50       51      103
     147     61       53       50       51       55
     148     61       53       50       51       56
     149     51       53       50       51      103
     150     61       54       50       51       55
     151     61       54       50       51       56
     152     51       54       50       51      103
     153     58       55       51      103      100
     154     62       55       51      103      109
     155     62       55       51      103      110
     156     58       56       51      103      100
     157     62       56       51      103      109
     158     62       56       51      103      110
     159      4       57       58       59       60
     160      7       57       58       59       64
     161      4       57       62       61       60
     162      7       57       62       61       65
     163     17       58       57       62       61
     164     19       58       57       62       66
     165     17       58       59       60       61
     166     25       58       59       60       88
     167     17       59       58       57       62
     168     17       59       60       61       62
     169     19       59       60       61       65
     170     23       59       60       88       87
     171     24       59       60       88       92
     172     24       59       60       88       93
     173      7       60       59       58       63
     174      7       60       61       62       66
     175     16       60       88       87       89
     176     16       60       88       87       90
     177     15       60       88       87       91
     178     19       61       60       59       64
     179     23       61       60       88       87
     180     24       61       60       88       92
     181     24       61       60       88       93
     182     19       62       57       58       63
     183     25       62       61       60       88
     184     59       63       58       59       64
     185     44       64       59       60       88
     186     44       65       61       60       88
     187     59       65       61       62       66
     188      6       67       68       69       70
     189     39       67       68       69       74
     190      6       67       72       71       70
     191     39       67       72       71       75
     192     40       67      147      146      145
     193     42       67      147      146      150
     194     43       67      147      148       77
     195     34       67      147      148      149
     196     29       68       67       72       71
     197     32       68       67       72       76
     198     33       68       67      147      146
     199     34       68       67      147      148
     200     17       68       69       70       71
     201     29       69       68       67       72
     202     30       69       68       67      147
     203     17       69       70       71       72
     204     19       69       70       71       75
     205      7       70       69       68       73
     206      7       70       71       72       76
     207     19       71       70       69       74
     208     30       71       72       67      147
     209     32       72       67       68       73
     210     33       72       67      147      146
     211     34       72       67      147      148
     212     42       73       68       67      147
     213     59       73       68       69       74
     214     59       75       71       72       76
     215     42       76       72       67      147
     216      6       77       78       79       80
     217     39       77       78       79       84
     218      6       77       82       81       80
     219     39       77       82       81       85
     220     34       77      148      147      146
     221     40       77      148      149      144
     222     42       77      148      149      151
     223     29       78       77       82       81
     224     32       78       77       82       86
     225     34       78       77      148      147
     226     33       78       77      148      149
     227     17       78       79       80       81
     228     25       78       79       80      101
     229     29       79       78       77       82
     230     30       79       78       77      148
     231     17       79       80       81       82
     232     19       79       80       81       85
     233     23       79       80      101      100
     234     24       79       80      101      105
     235     24       79       80      101      106
     236      7       80       79       78       83
     237      7       80       81       82       86
     238     15       80      101      100      102
     239     16       80      101      100      103
     240     15       80      101      100      104
     241     19       81       80       79       84
     242     23       81       80      101      100
     243     24       81       80      101      105
     244     24       81       80      101      106
     245     30       81       82       77      148
     246     32       82       77       78       83
     247     34       82       77      148      147
     248     33       82       77      148      149
     249     25       82       81       80      101
     250     42       83       78       77      148
     251     59       83       78       79       84
     252     44       84       79       80      101
     253     44       85       81       80      101
     254     59       85       81       82       86
     255     42       86       82       77      148
     256     53       87       90      113      114
     257     58       87       90      113      115
     258     58       87       90      113      116
     259     23       87       91      119      120
     260     23       87       91      119      124
     261     47       88       87       89       94
     262     47       88       87       89       95
     263     47       88       87       90       96
     264     47       88       87       90       97
     265     46       88       87       90      113
     266     45       88       87       91       98
     267     45       88       87       91       99
     268     15       88       87       91      119
     269     56       89       87       88       92
     270     56       89       87       88       93
     271     57       89       87       90       96
     272     57       89       87       90       97
     273     55       89       87       90      113
     274     56       89       87       91       98
     275     56       89       87       91       99
     276     16       89       87       91      119
     277     56       90       87       88       92
     278     56       90       87       88       93
     279     57       90       87       89       94
     280     57       90       87       89       95
     281     56       90       87       91       98
     282     56       90       87       91       99
     283     16       90       87       91      119
     284     54       90      113      114      117
     285     54       90      113      114      118
     286     45       91       87       88       92
     287     45       91       87       88       93
     288     47       91       87       89       94
     289     47       91       87       89       95
     290     47       91       87       90       96
     291     47       91       87       90       97
     292     46       91       87       90      113
     293      3       91      119      120      121
     294     44       91      119      120      125
     295     38       91      119      124      123
     296     44       91      119      124      127
     297     54       96       90      113      114
     298     62       96       90      113      115
     299     62       96       90      113      116
     300     54       97       90      113      114
     301     62       97       90      113      115
     302     62       97       90      113      116
     303     24       98       91      119      120
     304     24       98       91      119      124
     305     24       99       91      119      120
     306     24       99       91      119      124
     307     23      100      102      185      186
     308     23      100      102      185      190
     309     23      100      104      196      197
     310     23      100      104      196      201
     311     45      101      100      102      107
     312     45      101      100      102      108
     313     15      101      100      102      185
     314     47      101      100      103      109
     315     47      101      100      103      110
     316     45      101      100      104      111
     317     45      101      100      104      112
     318     15      101      100      104      196
     319     45      102      100      101      105
     320     45      102      100      101      106
     321     47      102      100      103      109
     322     47      102      100      103      110
     323     45      102      100      104      111
     324     45      102      100      104      112
     325     15      102      100      104      196
     326     25      102      185      186      187
     327     44      102      185      186      191
     328     25      102      185      190      189
     329     44      102      185      190      195
     330     56      103      100      101      105
     331     56      103      100      101      106
     332     56      103      100      102      107
     333     56      103      100      102      108
     334     16      103      100      102      185
     335     56      103      100      104      111
     336     56      103      100      104      112
     337     16      103      100      104      196
     338     45      104      100      101      105
     339     45      104      100      101      106
     340     45      104      100      102      107
     341     45      104      100      102      108
     342     15      104      100      102      185
     343     47      104      100      103      109
     344     47      104      100      103      110
     345     25      104      196      197      198
     346     44      104      196      197      202
     347     25      104      196      201      200
     348     44      104      196      201      206
     349     24      107      102      185      186
     350     24      107      102      185      190
     351     24      108      102      185      186
     352     24      108      102      185      190
     353     24      111      104      196      197
     354     24      111      104      196      201
     355     24      112      104      196      197
     356     24      112      104      196      201
     357     62      115      113      114      117
     358     62      115      113      114      118
     359     62      116      113      114      117
     360     62      116      113      114      118
     361      1      119      120      121      122
     362      8      119      124      123      122
     363      9      119      124      123      128
     364     18      120      119      124      123
     365     19      120      119      124      127
     366     18      120      121      122      123
     367     19      120      121      122      126
     368      1      121      120      119      124
     369      8      121      122      123      124
     370      9      121      122      123      128
     371     19      122      121      120      125
     372     32      122      123      124      127
     373     34      122      123      128      129
     374     33      122      123      128      133
     375     34      123      128      129      130
     376     43      123      128      129      152
     377     40      123      128      133      132
     378     42      123      128      133      135
     379     19      124      119      120      125
     380     32      124      123      122      126
     381     34      124      123      128      129
     382     33      124      123      128      133
     383     42      126      122      123      128
     384     42      127      124      123      128
     385     40      128      129      130      131
     386     42      128      129      130      134
     387     34      128      129      152      153
     388     34      128      129      152      157
     389     40      128      133      132      131
     390     40      128      133      132      144
     391     40      129      128      133      132
     392     42      129      128      133      135
     393     40      129      130      131      132
     394     40      129      130      131      136
     395     30      129      152      153      154
     396     42      129      152      153      158
     397     30      129      152      157      156
     398     42      129      152      157      162
     399     33      130      129      128      133
     400     33      130      129      152      153
     401     33      130      129      152      157
     402     33      130      131      132      133
     403     34      130      131      132      144
     404     12      130      131      136      137
     405     33      130      131      136      141
     406     40      131      130      129      152
     407     42      131      132      133      135
     408     43      131      132      144      145
     409     34      131      132      144      149
     410     21      131      136      137      138
     411     40      131      136      141      140
     412     42      131      136      141      143
     413     42      132      131      130      134
     414     13      132      131      136      137
     415     34      132      131      136      141
     416     34      132      144      145      146
     417     43      132      144      145      174
     418     40      132      144      149      148
     419     42      132      144      149      151
     420     34      133      128      129      152
     421     34      133      132      131      136
     422     34      133      132      144      145
     423     33      133      132      144      149
     424     42      134      130      129      152
     425     42      134      130      131      136
     426     42      135      133      132      144
     427     43      136      131      132      144
     428      2      136      137      138      139
     429     35      136      137      138      142
     430     10      136      141      140      139
     431     40      136      141      140      163
     432     10      137      136      141      140
     433     11      137      136      141      143
     434      2      137      138      139      140
     435     20      138      137      136      141
     436     20      138      139      140      141
     437     21      138      139      140      163
     438     11      139      140      141      143
     439     12      139      140      163      164
     440     12      139      140      163      168
     441     35      140      139      138      142
     442     30      140      163      164      165
     443     42      140      163      164      169
     444     30      140      163      168      167
     445     42      140      163      168      173
     446     33      141      140      163      164
     447     33      141      140      163      168
     448     42      143      141      140      163
     449     40      144      145      146      147
     450     42      144      145      146      150
     451     34      144      145      174      175
     452     34      144      145      174      179
     453     40      144      149      148      147
     454     40      145      144      149      148
     455     42      145      144      149      151
     456     40      145      146      147      148
     457     30      145      174      175      176
     458     42      145      174      175      180
     459     30      145      174      179      178
     460     42      145      174      179      184
     461     33      146      145      144      149
     462     33      146      145      174      175
     463     33      146      145      174      179
     464     33      146      147      148      149
     465     40      147      146      145      174
     466     42      147      148      149      151
     467     42      148      147      146      150
     468     34      149      144      145      174
     469     42      150      146      145      174
     470     27      152      153      154      155
     471     39      152      153      154      159
     472     27      152      157      156      155
     473     39      152      157      156      161
     474     29      153      152      157      156
     475     32      153      152      157      162
     476     26      153      154      155      156
     477     28      153      154      155      160
     478     29      154      153      152      157
     479     26      154      155      156      157
     480     28      154      155      156      161
     481     28      155      154      153      158
     482     28      155      156      157      162
     483     28      156      155      154      159
     484     32      157      152      153      158
     485     28      157      156      155      160
     486     59      158      153      154      159
     487     59      159      154      155      160
     488     59      160      155      156      161
     489     59      161      156      157      162
     490     27      163      164      165      166
     491     39      163      164      165      170
     492     27      163      168      167      166
     493     39      163      168      167      172
     494     29      164      163      168      167
     495     32      164      163      168      173
     496     26      164      165      166      167
     497     28      164      165      166      171
     498     29      165      164      163      168
     499     26      165      166      167      168
     500     28      165      166      167      172
     501     28      166      165      164      169
     502     28      166      167      168      173
     503     28      167      166      165      170
     504     32      168      163      164      169
     505     28      168      167      166      171
     506     59      169      164      165      170
     507     59      170      165      166      171
     508     59      171      166      167      172
     509     59      172      167      168      173
     510     27      174      175      176      177
     511     39      174      175      176      181
     512     27      174      179      178      177
     513     39      174      179      178      183
     514     29      175      174      179      178
     515     32      175      174      179      184
     516     26      175      176      177      178
     517     28      175      176      177      182
     518     29      176      175      174      179
     519     26      176      177      178      179
     520     28      176      177      178      183
     521     28      177      176      175      180
     522     28      177      178      179      184
     523     28      178      177      176      181
     524     32      179      174      175      180
     525     28      179      178      177      182
     526     59      180      175      176      181
     527     59      181      176      177      182
     528     59      182      177      178      183
     529     59      183      178      179      184
     530      5      185      186      187      188
     531      7      185      186      187      192
     532      5      185      190      189      188
     533      7      185      190      189      194
     534     17      186      185      190      189
     535     19      186      185      190      195
     536     26      186      187      188      189
     537     28      186      187      188      193
     538     17      187      186      185      190
     539     26      187      188      189      190
     540     28      187      188      189      194
     541     28      188      187      186      191
     542     28      188      189      190      195
     543     28      189      188      187      192
     544     19      190      185      186      191
     545     28      190      189      188      193
     546     59      191      186      187      192
     547     59      192      187      188      193
     548     59      193      188      189      194
     549     59      194      189      190      195
     550      5      196      197      198      199
     551      7      196      197      198      203
     552      5      196      201      200      199
     553      7      196      201      200      205
     554     17      197      196      201      200
     555     19      197      196      201      206
     556     26      197      198      199      200
     557     28      197      198      199      204
     558     17      198      197      196      201
     559     26      198      199      200      201
     560     28      198      199      200      205
     561     28      199      198      197      202
     562     28      199      200      201      206
     563     28      200      199      198      203
     564     19      201      196      197      202
     565     28      201      200      199      204
     566     59      202      197      198      203
     567     59      203      198      199      204
     568     59      204      199      200      205
     569     59      205      200      201      206

Impropers

       1      1        2       57       58       62
       2      4       57       58       59       63
       3      4       58       59       60       64
       4      1       59       60       61       88
       5      4       60       61       62       65
       6      4       57       62       61       66
       7     10       68       67       72      147
       8      7       67       68       69       73
       9      4       68       69       70       74
      10      1       44       70       69       71
      11      4       70       71       72       75
      12      7       67       72       71       76
      13     10       78       77       82      148
      14      7       77       78       79       83
      15      4       78       79       80       84
      16      1       79       80       81      101
      17      4       80       81       82       85
      18      7       77       82       81       86
      19      1       91      119      120      124
      20      3      119      120      121      125
      21      1       23      121      120      122
      22      5      121      122      123      126
      23     10      122      123      124      128
      24      5      119      124      123      127
      25     11      123      128      129      133
      26     11      128      129      130      152
      27      8      129      130      131      134
      28     11      130      131      132      136
      29     11      131      132      133      144
      30      8      128      133      132      135
      31      9      131      136      137      141
      32      2       30      137      136      138
      33      3      137      138      139      142
      34      2       37      139      138      140
      35      9      139      140      141      163
      36      8      136      141      140      143
      37     11      132      144      145      149
      38     11      144      145      146      174
      39      8      145      146      147      150
      40     11       67      147      146      148
      41     11       77      148      147      149
      42      8      144      149      148      151
      43     10      129      152      153      157
      44      7      152      153      154      158
      45      6      153      154      155      159
      46      6      154      155      156      160
      47      6      155      156      157      161
      48      7      152      157      156      162
      49     10      140      163      164      168
      50      7      163      164      165      169
      51      6      164      165      166      170
      52      6      165      166      167      171
      53      6      166      167      168      172
      54      7      163      168      167      173
      55     10      145      174      175      179
      56      7      174      175      176      180
      57      6      175      176      177      181
      58      6      176      177      178      182
      59      6      177      178      179      183
      60      7      174      179      178      184
      61      1      102      185      186      190
      62      4      185      186      187      191
      63      6      186      187      188      192
      64      6      187      188      189      193
      65      6      188      189      190      194
      66      4      185      190      189      195
      67      1      104      196      197      201
      68      4      196      197      198      202
      69      6      197      198      199      203
      70      6      198      199      200      204
      71      6      199      200      201      205
      72      4      196      201      200      206

