LAMMPS data file generated by clean-room 1-hop pipeline

     332 atoms
     364 bonds
     594 angles
     920 dihedrals
     198 impropers

       3 atom types
       4 bond types
       8 angle types
      15 dihedral types
       5 improper types

  -36.306500    36.244300 xlo xhi
  -36.419800    30.185800 ylo yhi
  -38.433800    36.930700 zlo zhi

Masses

       1    12.011000
       2    12.011000
       3     1.008000

Pair Coeffs

       1     0.070000     3.550000
       2     0.070000     3.550000
       3     0.030000     2.420000

Bond Coeffs

       1   469.000000     1.400000
       2   469.000000     1.400000
       3   367.000000     1.080000
       4   385.000000     1.460000

Angle Coeffs

       1    63.000000   120.000000
       2    63.000000   120.000000
       3    35.000000   120.000000
       4    63.000000   120.000000
       5    63.000000   120.000000
       6    63.000000   120.000000
       7    35.000000   120.000000
       8    63.000000   120.000000

Dihedral Coeffs

       1     0.000000     7.250000     0.000000     0.000000
       2     0.000000     7.250000     0.000000     0.000000
       3     0.000000     7.250000     0.000000     0.000000
       4     0.000000     7.250000     0.000000     0.000000
       5     0.000000     7.250000     0.000000     0.000000
       6     0.000000     7.250000     0.000000     0.000000
       7     0.000000     7.250000     0.000000     0.000000
       8     0.000000     1.650000     0.000000    -0.050000
       9     0.000000     1.650000     0.000000    -0.050000
      10     0.000000     7.250000     0.000000     0.000000
      11     0.000000     7.250000     0.000000     0.000000
      12     0.000000     7.250000     0.000000     0.000000
      13     0.000000     7.250000     0.000000     0.000000
      14     0.000000     1.650000     0.000000    -0.050000
      15     0.000000     7.250000     0.000000     0.000000

Improper Coeffs

       1     2.500000   -1    2
       2     2.500000   -1    2
       3     2.500000   -1    2
       4     2.500000   -1    2
       5     2.500000   -1    2

Atoms

       1    1      2  -0.03989725    -4.308800     7.604200     7.713100
       2    1      1  -0.14815989    -4.917600     7.566400     9.126300
       3    1      1  -0.14815989    -6.106800     8.479300     9.478000
       4    1      1  -0.14815989    -6.685700     9.432500     8.415800
       5    1      1  -0.14815989    -6.069300     9.478200     7.004700
       6    1      1  -0.14815989    -4.878300     8.566100     6.653900
       7    1      3   0.16721529    -4.493400     6.854500     9.908200
       8    1      3   0.16721529    -6.560800     8.447000    10.523200
       9    1      3   0.16721529    -7.569200    10.104900     8.674500
      10    1      3   0.16721529    -6.495900    10.185800     6.219400
      11    1      3   0.16721529    -4.425200     8.595000     5.608000
      12    1      2  -0.03989725    -4.930900    -1.760400     8.660400
      13    1      1  -0.14815989    -5.747600    -1.307500     7.436100
      14    1      1  -0.14815989    -7.271600    -1.525000     7.399400
      15    1      1  -0.14815989    -7.992500    -2.119800     8.620800
      16    1      1  -0.14815989    -7.185100    -2.517900     9.870200
      17    1      1  -0.14815989    -5.652500    -2.352600     9.884900
      18    1      3   0.16721529    -5.214800    -0.883700     6.524800
      19    1      3   0.16721529    -7.867200    -1.231200     6.472700
      20    1      3   0.16721529    -9.123300    -2.263100     8.601900
      21    1      3   0.16721529    -7.720100    -2.951200    10.778800
      22    1      3   0.16721529    -5.050200    -2.695400    10.790100
      23    1      2  -0.03989725    -2.959200    -6.886900    12.579800
      24    1      1  -0.14815989    -3.582200    -5.678600    13.302500
      25    1      1  -0.14815989    -4.382700    -5.888200    14.601500
      26    1      1  -0.14815989    -4.559500    -7.306100    15.176600
      27    1      1  -0.14815989    -3.937200    -8.514300    14.452400
      28    1      1  -0.14815989    -3.137300    -8.304300    13.153700
      29    1      3   0.16721529    -3.451200    -4.629400    12.875900
      30    1      3   0.16721529    -4.844200    -4.994100    15.137500
      31    1      3   0.16721529    -5.151500    -7.461300    16.138300
      32    1      3   0.16721529    -4.068500    -9.563900    14.877400
      33    1      3   0.16721529    -2.676700    -9.198200    12.616500
      34    1      2  -0.03989725     2.373600   -12.857800     8.400500
      35    1      1  -0.14815989     3.879500   -12.840300     8.084300
      36    1      1  -0.14815989     4.714000   -14.124700     8.255700
      37    1      1  -0.14815989     4.038100   -15.429100     8.720900
      38    1      1  -0.14815989     2.525900   -15.452700     9.006700
      39    1      1  -0.14815989     1.695700   -14.166600     8.849000
      40    1      3   0.16721529     4.380700   -11.874200     7.745700
      41    1      3   0.16721529     5.833300   -14.109100     8.040400
      42    1      3   0.16721529     4.657000   -16.377700     8.850200
      43    1      3   0.16721529     2.022500   -16.419800     9.340300
      44    1      3   0.16721529     0.578300   -14.179100     9.075500
      45    1      2  -0.03989725    -8.677100     1.111600     4.096800
      46    1      1  -0.14815989    -9.723900     1.666900     5.080100
      47    1      1  -0.14815989   -11.199200     1.773700     4.654200
      48    1      1  -0.14815989   -11.625500     1.333600     3.241100
      49    1      1  -0.14815989   -10.573200     0.800800     2.250500
      50    1      1  -0.14815989    -9.095700     0.702000     2.675500
      51    1      3   0.16721529    -9.408200     1.983900     6.129200
      52    1      3   0.16721529   -11.975900     2.175300     5.385700
      53    1      3   0.16721529   -12.718900     1.405800     2.926800
      54    1      3   0.16721529   -10.887600     0.479400     1.202600
      55    1      3   0.16721529    -8.310800     0.337900     1.935200
      56    1      2  -0.03989725    -7.576400     2.393500     8.602900
      57    1      1  -0.14815989    -8.603500     3.279300     9.332500
      58    1      1  -0.14815989   -10.054800     2.795600     9.508600
      59    1      1  -0.14815989   -10.478800     1.420600     8.961600
      60    1      1  -0.14815989    -9.457300     0.543000     8.215500
      61    1      1  -0.14815989    -8.011000     1.036100     8.029600
      62    1      3   0.16721529    -8.282100     4.284600     9.763900
      63    1      3   0.16721529   -10.812100     3.451300    10.053100
      64    1      3   0.16721529   -11.548800     1.054200     9.105400
      65    1      3   0.16721529    -9.769600    -0.474300     7.806300
      66    1      3   0.16721529    -7.251700     0.387800     7.485200
      67    1      2  -0.03989725    -3.938800     4.710600    11.439000
      68    1      1  -0.14815989    -4.810900     5.950100    11.714800
      69    1      1  -0.14815989    -4.552600     6.817700    12.960700
      70    1      1  -0.14815989    -3.435900     6.434100    13.948100
      71    1      1  -0.14815989    -2.593300     5.170400    13.699700
      72    1      1  -0.14815989    -2.859900     4.298100    12.458600
      73    1      3   0.16721529    -5.640500     6.234300    10.986000
      74    1      3   0.16721529    -5.188200     7.744700    13.151100
      75    1      3   0.16721529    -3.238800     7.080500    14.866300
      76    1      3   0.16721529    -1.777000     4.875600    14.438800
      77    1      3   0.16721529    -2.262300     3.340400    12.299700
      78    1      2  -0.03989725     1.493300     2.571300    13.465600
      79    1      1  -0.14815989     1.951700     3.882600    14.131800
      80    1      1  -0.14815989     2.830300     3.841000    15.395300
      81    1      1  -0.14815989     3.256800     2.486400    15.990500
      82    1      1  -0.14815989     2.816400     1.174700    15.313300
      83    1      1  -0.14815989     1.938100     1.216800    14.047900
      84    1      3   0.16721529     1.627400     4.885100    13.696400
      85    1      3   0.16721529     3.161300     4.812400    15.891800
      86    1      3   0.16721529     3.900700     2.454400    16.930700
      87    1      3   0.16721529     3.137200     0.172200    15.751000
      88    1      3   0.16721529     1.604500     0.246100    13.552100
      89    1      2  -0.03989725   -12.101600    -1.724200    -0.067900
      90    1      1  -0.14815989   -12.854500    -1.857900     1.267800
      91    1      1  -0.14815989   -14.390000    -1.976600     1.275800
      92    1      1  -0.14815989   -15.170200    -1.965500    -0.052400
      93    1      1  -0.14815989   -14.415500    -1.832000    -1.388400
      94    1      1  -0.14815989   -12.880900    -1.708100    -1.395400
      95    1      3   0.16721529   -12.275700    -1.865500     2.250100
      96    1      3   0.16721529   -14.949100    -2.073200     2.264400
      97    1      3   0.16721529   -16.306500    -2.055600    -0.046600
      98    1      3   0.16721529   -14.992900    -1.824000    -2.371300
      99    1      3   0.16721529   -12.321200    -1.606500    -2.383400
     100    1      2  -0.03989725    -5.930500     0.053800    -3.923700
     101    1      1  -0.14815989    -6.095000     1.138700    -2.842600
     102    1      1  -0.14815989    -7.462600     1.812100    -2.628300
     103    1      1  -0.14815989    -8.662100     1.414100    -3.507500
     104    1      1  -0.14815989    -8.489800     0.351800    -4.608900
     105    1      1  -0.14815989    -7.122600    -0.324400    -4.820300
     106    1      3   0.16721529    -5.206800     1.430700    -2.190200
     107    1      3   0.16721529    -7.587300     2.604500    -1.818400
     108    1      3   0.16721529    -9.676200     1.908900    -3.345900
     109    1      3   0.16721529    -9.375400     0.064300    -5.266600
     110    1      3   0.16721529    -6.994700    -1.110400    -5.636000
     111    1      2  -0.03989725    -2.658300    -2.936000    -6.819600
     112    1      1  -0.14815989    -3.812300    -3.689400    -7.504500
     113    1      1  -0.14815989    -3.518300    -4.636900    -8.682700
     114    1      1  -0.14815989    -2.070700    -4.833900    -9.171500
     115    1      1  -0.14815989    -0.915000    -4.095600    -8.471500
     116    1      1  -0.14815989    -1.208000    -3.154800    -7.289200
     117    1      3   0.16721529    -4.884300    -3.536100    -7.148200
     118    1      3   0.16721529    -4.372900    -5.189700    -9.195900
     119    1      3   0.16721529    -1.855000    -5.528100   -10.049800
     120    1      3   0.16721529     0.156400    -4.240000    -8.833100
     121    1      3   0.16721529    -0.353900    -2.599600    -6.777200
     122    1      2  -0.03989725    -3.372900     0.070600    -7.704100
     123    1      1  -0.14815989    -3.937600     0.731000    -6.432400
     124    1      1  -0.14815989    -5.364900     1.306300    -6.429300
     125    1      1  -0.14815989    -6.227500     1.227600    -7.701800
     126    1      1  -0.14815989    -5.665000     0.564100    -8.973500
     127    1      1  -0.14815989    -4.238600    -0.018800    -8.973500
     128    1      3   0.16721529    -3.297500     0.791200    -5.490700
     129    1      3   0.16721529    -5.784000     1.787700    -5.484300
     130    1      3   0.16721529    -7.283000     1.658300    -7.702100
     131    1      3   0.16721529    -6.304400     0.505400    -9.915400
     132    1      3   0.16721529    -3.820700    -0.506100    -9.915500
     133    1      2  -0.03989725     0.875400    -2.098700   -10.078200
     134    1      1  -0.14815989    -0.009600    -2.969100   -10.990000
     135    1      1  -0.14815989     0.630900    -3.837800   -12.086700
     136    1      1  -0.14815989     2.158000    -3.828600   -12.278100
     137    1      1  -0.14815989     3.043500    -2.954300   -11.369100
     138    1      1  -0.14815989     2.402700    -2.093100   -10.264000
     139    1      3   0.16721529    -1.140600    -2.975700   -10.845900
     140    1      3   0.16721529    -0.024800    -4.485900   -12.757100
     141    1      3   0.16721529     2.634000    -4.469600   -13.091700
     142    1      3   0.16721529     4.174300    -2.947500   -11.512300
     143    1      3   0.16721529     3.058600    -1.454400    -9.585000
     144    1      2  -0.03989725    -0.633300     3.085800   -11.286800
     145    1      1  -0.14815989    -1.879300     3.333600   -10.417400
     146    1      1  -0.14815989    -3.154500     3.921100   -11.051400
     147    1      1  -0.14815989    -3.181700     4.263600   -12.553200
     148    1      1  -0.14815989    -1.929400     4.031800   -13.418700
     149    1      1  -0.14815989    -0.654000     3.447900   -12.784000
     150    1      3   0.16721529    -1.862900     3.068300    -9.308800
     151    1      3   0.16721529    -4.080000     4.098300   -10.409900
     152    1      3   0.16721529    -4.128200     4.690900   -13.023400
     153    1      3   0.16721529    -1.947500     4.289000   -14.529200
     154    1      3   0.16721529     0.270700     3.267100   -13.425900
     155    1      2  -0.03989725     2.698200     0.322400   -14.014700
     156    1      1  -0.14815989     2.445000     0.208100   -15.529400
     157    1      1  -0.14815989     1.285600    -0.657700   -16.054700
     158    1      1  -0.14815989     0.372900    -1.403100   -15.063900
     159    1      1  -0.14815989     0.609400    -1.267700   -13.548100
     160    1      1  -0.14815989     1.769800    -0.402500   -13.022100
     161    1      3   0.16721529     3.128900     0.750500   -16.262800
     162    1      3   0.16721529     1.105400    -0.750000   -17.176700
     163    1      3   0.16721529    -0.480700    -2.051400   -15.452400
     164    1      3   0.16721529    -0.072200    -1.812400   -12.814900
     165    1      3   0.16721529     1.954400    -0.317800   -11.900200
     166    1      2  -0.03989725     7.249600     2.801900   -15.099300
     167    1      1  -0.14815989     6.681400     3.302100   -16.441100
     168    1      1  -0.14815989     7.598700     4.015000   -17.452500
     169    1      1  -0.14815989     9.093100     4.206200   -17.135500
     170    1      1  -0.14815989     9.676000     3.653100   -15.822400
     171    1      1  -0.14815989     8.759900     2.930500   -14.817800
     172    1      3   0.16721529     5.574300     3.164800   -16.675600
     173    1      3   0.16721529     7.169600     4.405700   -18.433800
     174    1      3   0.16721529     9.769300     4.747900   -17.876300
     175    1      3   0.16721529    10.786800     3.774100   -15.595100
     176    1      3   0.16721529     9.204100     2.487500   -13.867300
     177    1      2  -0.03989725    12.511800     3.184700   -13.199500
     178    1      1  -0.14815989    12.904300     4.530300   -13.837000
     179    1      1  -0.14815989    14.267000     4.681900   -14.538500
     180    1      1  -0.14815989    15.239600     3.489500   -14.596700
     181    1      1  -0.14815989    14.856700     2.150800   -13.938700
     182    1      1  -0.14815989    13.494800     2.000000   -13.234500
     183    1      3   0.16721529    12.178100     5.408800   -13.805300
     184    1      3   0.16721529    14.553800     5.675200   -15.019200
     185    1      3   0.16721529    16.244300     3.598700   -15.124200
     186    1      3   0.16721529    15.579300     1.269900   -13.976600
     187    1      3   0.16721529    13.205900     1.005800   -12.757000
     188    1      2  -0.03989725    -3.164000     6.640500     7.349700
     189    1      1  -0.14815989    -2.571700     6.637000     5.926800
     190    1      1  -0.14815989    -1.571600     5.538800     5.513900
     191    1      2  -0.03989725    -1.186200     4.440000     6.522100
     192    1      1  -0.14815989    -1.643900     4.549100     7.982800
     193    1      1  -0.14815989    -2.644200     5.641300     8.399100
     194    1      3   0.16721529    -2.902900     7.421500     5.168900
     195    1      3   0.16721529    -1.169100     5.503200     4.447800
     196    1      3   0.16721529    -1.280400     3.786200     8.742000
     197    1      3   0.16721529    -3.027800     5.686000     9.472200
     198    1      2  -0.03989725    -0.506100     3.144500     6.043200
     199    1      1  -0.14815989    -0.432300     1.927100     6.986700
     200    1      1  -0.14815989    -0.314600     0.514200     6.384300
     201    1      2  -0.03989725    -0.285800     0.359800     4.852700
     202    1      1  -0.14815989     0.061000     1.579300     3.978300
     203    1      1  -0.14815989    -0.081800     2.991100     4.572800
     204    1      3   0.16721529    -0.574800     2.061800     8.110100
     205    1      3   0.16721529    -0.378800    -0.404000     7.056500
     206    1      3   0.16721529     0.279600     1.445500     2.867400
     207    1      3   0.16721529     0.032800     3.910000     3.907900
     208    1      2  -0.03989725    -0.006900    -8.943300     8.750000
     209    1      1  -0.14815989    -0.662600   -10.291300     9.095500
     210    1      1  -0.14815989     0.098300   -11.602200     8.868100
     211    1      2  -0.03989725     1.542100   -11.563200     8.350400
     212    1      1  -0.14815989     2.151600   -10.229200     7.864400
     213    1      1  -0.14815989     1.355900    -8.913200     8.031300
     214    1      3   0.16721529    -1.702800   -10.312600     9.561400
     215    1      3   0.16721529    -0.383700   -12.598600     9.141900
     216    1      3   0.16721529     3.198800   -10.210600     7.413900
     217    1      3   0.16721529     1.808500    -7.921600     7.697800
     218    1      2  -0.03989725    -1.810200     2.761700    10.286300
     219    1      1  -0.14815989    -1.146400     1.404000    10.583300
     220    1      1  -0.14815989     0.013300     1.333800    11.601100
     221    1      2  -0.03989725     0.532500     2.627700    12.262600
     222    1      1  -0.14815989     0.033500     3.993300    11.764500
     223    1      1  -0.14815989    -1.132700     4.059600    10.766900
     224    1      3   0.16721529    -1.563400     0.448600    10.121800
     225    1      3   0.16721529     0.453400     0.324800    11.897800
     226    1      3   0.16721529     0.489600     4.953600    12.176300
     227    1      3   0.16721529    -1.546900     5.070800    10.441900
     228    1      2  -0.03989725    -7.515700    -1.248900    -0.113200
     229    1      1  -0.14815989    -8.307600    -1.221700    -1.433100
     230    1      1  -0.14815989    -9.834200    -1.399400    -1.417900
     231    1      2  -0.03989725   -10.568800    -1.598200    -0.081000
     232    1      1  -0.14815989    -9.773300    -1.661700     1.237000
     233    1      1  -0.14815989    -8.241600    -1.494700     1.220600
     234    1      3   0.16721529    -7.762600    -1.053700    -2.421000
     235    1      3   0.16721529   -10.422600    -1.371000    -2.394000
     236    1      3   0.16721529   -10.319600    -1.819100     2.225100
     237    1      3   0.16721529    -7.651200    -1.527200     2.195600
     238    1      2  -0.03989725     8.128300     2.430100   -12.176800
     239    1      1  -0.14815989     9.165900     1.356100   -11.803100
     240    1      1  -0.14815989    10.662300     1.635200   -12.048100
     241    1      2  -0.03989725    11.100400     3.000400   -12.612900
     242    1      1  -0.14815989    10.088900     4.157200   -12.683800
     243    1      1  -0.14815989     8.593600     3.871000   -12.462900
     244    1      3   0.16721529     8.824600     0.325500   -11.455400
     245    1      3   0.16721529    11.433800     0.813900   -11.875100
     246    1      3   0.16721529    10.435600     5.203600   -12.974600
     247    1      3   0.16721529     7.826000     4.701200   -12.607800
     248    1      2  -0.03989725    -0.994700    -0.831000     4.185400
     249    1      2  -0.03989725    -1.775100    -1.860500     5.058600
     250    1      1  -0.14815989    -3.196200    -2.152400     4.588500
     251    1      2  -0.03989725    -3.810300    -1.128000     3.640800
     252    1      2  -0.03989725    -2.949400    -0.770400     2.417200
     253    1      1  -0.14815989    -1.437600    -0.644700     2.699500
     254    1      3   0.16721529    -3.860600    -2.867300     5.177700
     255    1      3   0.16721529    -0.716700    -0.258700     1.905300
     256    1      2  -0.03989725    -5.013500     2.018400     7.823500
     257    1      2  -0.03989725    -6.088500     2.793300     8.623200
     258    1      1  -0.14815989    -5.656900     3.870600     9.623100
     259    1      2  -0.03989725    -4.235900     3.842700    10.194500
     260    1      2  -0.03989725    -3.202400     2.841900     9.624700
     261    1      1  -0.14815989    -3.573700     1.962200     8.397600
     262    1      3   0.16721529    -6.430800     4.587000    10.056600
     263    1      3   0.16721529    -2.784600     1.301200     7.906500
     264    1      2  -0.03989725    -3.401200    -0.430000    -3.136900
     265    1      2  -0.03989725    -4.573300    -0.653800    -4.113700
     266    1      1  -0.14815989    -4.381800    -1.655400    -5.247000
     267    1      2  -0.03989725    -2.950300    -1.935800    -5.686500
     268    1      2  -0.03989725    -1.846100    -0.980900    -5.207400
     269    1      1  -0.14815989    -1.966700    -0.395600    -3.759200
     270    1      3   0.16721529    -5.271500    -2.113900    -5.792800
     271    1      3   0.16721529    -1.075300     0.052300    -3.207500
     272    1      2  -0.03989725    -1.084700    -0.391900    -6.423600
     273    1      2  -0.03989725    -1.919500    -0.437600    -7.711500
     274    1      1  -0.14815989    -1.309200    -1.105100    -8.943700
     275    1      2  -0.03989725     0.212600    -1.256700    -8.973700
     276    1      2  -0.03989725     1.016600    -0.336900    -8.034900
     277    1      1  -0.14815989     0.440600    -0.162300    -6.590300
     278    1      3   0.16721529    -1.959500    -1.465400    -9.807900
     279    1      3   0.16721529     1.102600     0.136700    -5.711900
     280    1      2  -0.03989725     4.228400     1.202700   -12.002400
     281    1      2  -0.03989725     3.941900     1.077100   -13.511000
     282    1      1  -0.14815989     4.924900     1.663900   -14.530300
     283    1      2  -0.03989725     6.292500     2.172200   -14.061300
     284    1      2  -0.03989725     6.703400     2.011700   -12.579800
     285    1      1  -0.14815989     5.672000     1.504800   -11.537000
     286    1      3   0.16721529     4.653500     1.690100   -15.637300
     287    1      3   0.16721529     5.944400     1.459000   -10.430900
     288    1      2  -0.03989725    -1.631700    -2.015300     6.587000
     289    1      1  -0.14815989    -2.682100    -1.205800     7.364500
     290    1      2  -0.03989725    -3.398000    -1.855600     8.544000
     291    1      1  -0.14815989    -2.657700    -2.912600     9.348100
     292    1      2  -0.03989725    -1.554100    -3.727500     8.658700
     293    1      1  -0.14815989    -1.040000    -3.299500     7.249400
     294    1      3   0.16721529    -3.090800    -0.242200     6.927500
     295    1      3   0.16721529    -3.058400    -3.242600    10.363200
     296    1      3   0.16721529    -0.309000    -3.960800     6.676800
     297    1      2  -0.03989725    -1.263800    -5.077100     9.346800
     298    1      1  -0.14815989    -1.985500    -5.279400    10.693100
     299    1      2  -0.03989725    -2.160200    -6.681400    11.280700
     300    1      1  -0.14815989    -1.558700    -7.882900    10.552200
     301    1      2  -0.03989725    -0.677500    -7.676700     9.309000
     302    1      1  -0.14815989    -0.506600    -6.261000     8.692600
     303    1      3   0.16721529    -2.461600    -4.385500    11.217100
     304    1      3   0.16721529    -1.725200    -8.934500    10.960400
     305    1      3   0.16721529     0.104500    -6.108700     7.742300
     306    1      2  -0.03989725    -4.786300    -0.101100     4.280100
     307    1      1  -0.14815989    -6.206200     0.141300     3.724300
     308    1      2  -0.03989725    -7.217400     0.958000     4.556600
     309    1      1  -0.14815989    -6.797900     1.589300     5.893600
     310    1      2  -0.03989725    -5.381600     1.381500     6.450300
     311    1      1  -0.14815989    -4.353700     0.600700     5.596900
     312    1      3   0.16721529    -6.529500    -0.327200     2.737700
     313    1      3   0.16721529    -7.547200     2.219000     6.476800
     314    1      3   0.16721529    -3.270200     0.531300     5.938700
     315    1      2  -0.03989725    -3.652100    -0.659200     1.041400
     316    1      1  -0.14815989    -5.165400    -0.922100     1.115000
     317    1      2  -0.03989725    -5.999000    -1.009200    -0.154700
     318    1      1  -0.14815989    -5.320100    -0.881300    -1.504500
     319    1      2  -0.03989725    -3.833500    -0.516400    -1.641400
     320    1      1  -0.14815989    -2.955400    -0.419300    -0.348700
     321    1      3   0.16721529    -5.656600    -1.100100     2.125900
     322    1      3   0.16721529    -5.934500    -1.080100    -2.439600
     323    1      3   0.16721529    -1.836700    -0.210300    -0.415000
     324    1      2  -0.03989725     1.642400     0.847300    -8.801900
     325    1      1  -0.14815989     0.622500     1.920600    -9.230400
     326    1      2  -0.03989725     0.610700     2.402600   -10.689400
     327    1      1  -0.14815989     1.798700     2.083300   -11.600400
     328    1      2  -0.03989725     3.012900     1.317100   -11.053900
     329    1      1  -0.14815989     2.936800     0.667700    -9.646300
     330    1      3   0.16721529    -0.244400     2.187800    -8.540000
     331    1      3   0.16721529     1.793900     2.439200   -12.683500
     332    1      3   0.16721529     3.768900    -0.023300    -9.286200

Bonds

       1      2        1        2
       2      4        1      188
       3      1        2        3
       4      3        2        7
       5      1        3        4
       6      3        3        8
       7      1        4        5
       8      3        4        9
       9      1        5        6
      10      3        5       10
      11      2        6        1
      12      3        6       11
      13      2       12       13
      14      4       12      290
      15      1       13       14
      16      3       13       18
      17      1       14       15
      18      3       14       19
      19      1       15       16
      20      3       15       20
      21      1       16       17
      22      3       16       21
      23      2       17       12
      24      3       17       22
      25      2       23       24
      26      4       23      299
      27      1       24       25
      28      3       24       29
      29      1       25       26
      30      3       25       30
      31      1       26       27
      32      3       26       31
      33      1       27       28
      34      3       27       32
      35      2       28       23
      36      3       28       33
      37      2       34       35
      38      4       34      211
      39      1       35       36
      40      3       35       40
      41      1       36       37
      42      3       36       41
      43      1       37       38
      44      3       37       42
      45      1       38       39
      46      3       38       43
      47      2       39       34
      48      3       39       44
      49      2       45       46
      50      4       45      308
      51      1       46       47
      52      3       46       51
      53      1       47       48
      54      3       47       52
      55      1       48       49
      56      3       48       53
      57      1       49       50
      58      3       49       54
      59      2       50       45
      60      3       50       55
      61      2       56       57
      62      4       56      257
      63      1       57       58
      64      3       57       62
      65      1       58       59
      66      3       58       63
      67      1       59       60
      68      3       59       64
      69      1       60       61
      70      3       60       65
      71      2       61       56
      72      3       61       66
      73      2       67       68
      74      4       67      259
      75      1       68       69
      76      3       68       73
      77      1       69       70
      78      3       69       74
      79      1       70       71
      80      3       70       75
      81      1       71       72
      82      3       71       76
      83      2       72       67
      84      3       72       77
      85      2       78       79
      86      4       78      221
      87      1       79       80
      88      3       79       84
      89      1       80       81
      90      3       80       85
      91      1       81       82
      92      3       81       86
      93      1       82       83
      94      3       82       87
      95      2       83       78
      96      3       83       88
      97      2       89       90
      98      4       89      231
      99      1       90       91
     100      3       90       95
     101      1       91       92
     102      3       91       96
     103      1       92       93
     104      3       92       97
     105      1       93       94
     106      3       93       98
     107      2       94       89
     108      3       94       99
     109      2      100      101
     110      4      100      265
     111      1      101      102
     112      3      101      106
     113      1      102      103
     114      3      102      107
     115      1      103      104
     116      3      103      108
     117      1      104      105
     118      3      104      109
     119      2      105      100
     120      3      105      110
     121      2      111      112
     122      4      111      267
     123      1      112      113
     124      3      112      117
     125      1      113      114
     126      3      113      118
     127      1      114      115
     128      3      114      119
     129      1      115      116
     130      3      115      120
     131      2      116      111
     132      3      116      121
     133      2      122      123
     134      4      122      273
     135      1      123      124
     136      3      123      128
     137      1      124      125
     138      3      124      129
     139      1      125      126
     140      3      125      130
     141      1      126      127
     142      3      126      131
     143      2      127      122
     144      3      127      132
     145      2      133      134
     146      4      133      275
     147      1      134      135
     148      3      134      139
     149      1      135      136
     150      3      135      140
     151      1      136      137
     152      3      136      141
     153      1      137      138
     154      3      137      142
     155      2      138      133
     156      3      138      143
     157      2      144      145
     158      4      144      326
     159      1      145      146
     160      3      145      150
     161      1      146      147
     162      3      146      151
     163      1      147      148
     164      3      147      152
     165      1      148      149
     166      3      148      153
     167      2      149      144
     168      3      149      154
     169      2      155      156
     170      4      155      281
     171      1      156      157
     172      3      156      161
     173      1      157      158
     174      3      157      162
     175      1      158      159
     176      3      158      163
     177      1      159      160
     178      3      159      164
     179      2      160      155
     180      3      160      165
     181      2      166      167
     182      4      166      283
     183      1      167      168
     184      3      167      172
     185      1      168      169
     186      3      168      173
     187      1      169      170
     188      3      169      174
     189      1      170      171
     190      3      170      175
     191      2      171      166
     192      3      171      176
     193      2      177      178
     194      4      177      241
     195      1      178      179
     196      3      178      183
     197      1      179      180
     198      3      179      184
     199      1      180      181
     200      3      180      185
     201      1      181      182
     202      3      181      186
     203      2      182      177
     204      3      182      187
     205      2      188      189
     206      1      189      190
     207      3      189      194
     208      2      190      191
     209      3      190      195
     210      2      191      192
     211      4      191      198
     212      1      192      193
     213      3      192      196
     214      2      193      188
     215      3      193      197
     216      2      198      199
     217      1      199      200
     218      3      199      204
     219      2      200      201
     220      3      200      205
     221      2      201      202
     222      4      201      248
     223      1      202      203
     224      3      202      206
     225      2      203      198
     226      3      203      207
     227      2      208      209
     228      4      208      301
     229      1      209      210
     230      3      209      214
     231      2      210      211
     232      3      210      215
     233      2      211      212
     234      1      212      213
     235      3      212      216
     236      2      213      208
     237      3      213      217
     238      2      218      219
     239      4      218      260
     240      1      219      220
     241      3      219      224
     242      2      220      221
     243      3      220      225
     244      2      221      222
     245      1      222      223
     246      3      222      226
     247      2      223      218
     248      3      223      227
     249      2      228      229
     250      4      228      317
     251      1      229      230
     252      3      229      234
     253      2      230      231
     254      3      230      235
     255      2      231      232
     256      1      232      233
     257      3      232      236
     258      2      233      228
     259      3      233      237
     260      2      238      239
     261      4      238      284
     262      1      239      240
     263      3      239      244
     264      2      240      241
     265      3      240      245
     266      2      241      242
     267      1      242      243
     268      3      242      246
     269      2      243      238
     270      3      243      247
     271      4      248      249
     272      2      249      250
     273      4      249      288
     274      2      250      251
     275      3      250      254
     276      4      251      252
     277      4      251      306
     278      2      252      253
     279      4      252      315
     280      2      253      248
     281      3      253      255
     282      4      256      257
     283      4      256      310
     284      2      257      258
     285      2      258      259
     286      3      258      262
     287      4      259      260
     288      2      260      261
     289      2      261      256
     290      3      261      263
     291      4      264      265
     292      4      264      319
     293      2      265      266
     294      2      266      267
     295      3      266      270
     296      4      267      268
     297      2      268      269
     298      4      268      272
     299      2      269      264
     300      3      269      271
     301      4      272      273
     302      2      273      274
     303      2      274      275
     304      3      274      278
     305      4      275      276
     306      2      276      277
     307      4      276      324
     308      2      277      272
     309      3      277      279
     310      4      280      281
     311      4      280      328
     312      2      281      282
     313      2      282      283
     314      3      282      286
     315      4      283      284
     316      2      284      285
     317      2      285      280
     318      3      285      287
     319      2      288      289
     320      2      289      290
     321      3      289      294
     322      2      290      291
     323      2      291      292
     324      3      291      295
     325      2      292      293
     326      4      292      297
     327      2      293      288
     328      3      293      296
     329      2      297      298
     330      2      298      299
     331      3      298      303
     332      2      299      300
     333      2      300      301
     334      3      300      304
     335      2      301      302
     336      2      302      297
     337      3      302      305
     338      2      306      307
     339      2      307      308
     340      3      307      312
     341      2      308      309
     342      2      309      310
     343      3      309      313
     344      2      310      311
     345      2      311      306
     346      3      311      314
     347      2      315      316
     348      2      316      317
     349      3      316      321
     350      2      317      318
     351      2      318      319
     352      3      318      322
     353      2      319      320
     354      2      320      315
     355      3      320      323
     356      2      324      325
     357      2      325      326
     358      3      325      330
     359      2      326      327
     360      2      327      328
     361      3      327      331
     362      2      328      329
     363      2      329      324
     364      3      329      332

Angles

       1      2        1        2        3
       2      7        1        2        7
       3      2        1        6        5
       4      7        1        6       11
       5      5        1      188      189
       6      5        1      188      193
       7      4        2        1        6
       8      5        2        1      188
       9      1        2        3        4
      10      3        2        3        8
      11      3        3        2        7
      12      1        3        4        5
      13      3        3        4        9
      14      3        4        3        8
      15      1        4        5        6
      16      3        4        5       10
      17      3        5        4        9
      18      3        5        6       11
      19      5        6        1      188
      20      3        6        5       10
      21      2       12       13       14
      22      7       12       13       18
      23      2       12       17       16
      24      7       12       17       22
      25      5       12      290      289
      26      5       12      290      291
      27      4       13       12       17
      28      5       13       12      290
      29      1       13       14       15
      30      3       13       14       19
      31      3       14       13       18
      32      1       14       15       16
      33      3       14       15       20
      34      3       15       14       19
      35      1       15       16       17
      36      3       15       16       21
      37      3       16       15       20
      38      3       16       17       22
      39      5       17       12      290
      40      3       17       16       21
      41      2       23       24       25
      42      7       23       24       29
      43      2       23       28       27
      44      7       23       28       33
      45      5       23      299      298
      46      5       23      299      300
      47      4       24       23       28
      48      5       24       23      299
      49      1       24       25       26
      50      3       24       25       30
      51      3       25       24       29
      52      1       25       26       27
      53      3       25       26       31
      54      3       26       25       30
      55      1       26       27       28
      56      3       26       27       32
      57      3       27       26       31
      58      3       27       28       33
      59      5       28       23      299
      60      3       28       27       32
      61      2       34       35       36
      62      7       34       35       40
      63      2       34       39       38
      64      7       34       39       44
      65      5       34      211      210
      66      5       34      211      212
      67      4       35       34       39
      68      5       35       34      211
      69      1       35       36       37
      70      3       35       36       41
      71      3       36       35       40
      72      1       36       37       38
      73      3       36       37       42
      74      3       37       36       41
      75      1       37       38       39
      76      3       37       38       43
      77      3       38       37       42
      78      3       38       39       44
      79      5       39       34      211
      80      3       39       38       43
      81      2       45       46       47
      82      7       45       46       51
      83      2       45       50       49
      84      7       45       50       55
      85      5       45      308      307
      86      5       45      308      309
      87      4       46       45       50
      88      5       46       45      308
      89      1       46       47       48
      90      3       46       47       52
      91      3       47       46       51
      92      1       47       48       49
      93      3       47       48       53
      94      3       48       47       52
      95      1       48       49       50
      96      3       48       49       54
      97      3       49       48       53
      98      3       49       50       55
      99      5       50       45      308
     100      3       50       49       54
     101      2       56       57       58
     102      7       56       57       62
     103      2       56       61       60
     104      7       56       61       66
     105      8       56      257      256
     106      5       56      257      258
     107      4       57       56       61
     108      5       57       56      257
     109      1       57       58       59
     110      3       57       58       63
     111      3       58       57       62
     112      1       58       59       60
     113      3       58       59       64
     114      3       59       58       63
     115      1       59       60       61
     116      3       59       60       65
     117      3       60       59       64
     118      3       60       61       66
     119      5       61       56      257
     120      3       61       60       65
     121      2       67       68       69
     122      7       67       68       73
     123      2       67       72       71
     124      7       67       72       77
     125      5       67      259      258
     126      8       67      259      260
     127      4       68       67       72
     128      5       68       67      259
     129      1       68       69       70
     130      3       68       69       74
     131      3       69       68       73
     132      1       69       70       71
     133      3       69       70       75
     134      3       70       69       74
     135      1       70       71       72
     136      3       70       71       76
     137      3       71       70       75
     138      3       71       72       77
     139      5       72       67      259
     140      3       72       71       76
     141      2       78       79       80
     142      7       78       79       84
     143      2       78       83       82
     144      7       78       83       88
     145      5       78      221      220
     146      5       78      221      222
     147      4       79       78       83
     148      5       79       78      221
     149      1       79       80       81
     150      3       79       80       85
     151      3       80       79       84
     152      1       80       81       82
     153      3       80       81       86
     154      3       81       80       85
     155      1       81       82       83
     156      3       81       82       87
     157      3       82       81       86
     158      3       82       83       88
     159      5       83       78      221
     160      3       83       82       87
     161      2       89       90       91
     162      7       89       90       95
     163      2       89       94       93
     164      7       89       94       99
     165      5       89      231      230
     166      5       89      231      232
     167      4       90       89       94
     168      5       90       89      231
     169      1       90       91       92
     170      3       90       91       96
     171      3       91       90       95
     172      1       91       92       93
     173      3       91       92       97
     174      3       92       91       96
     175      1       92       93       94
     176      3       92       93       98
     177      3       93       92       97
     178      3       93       94       99
     179      5       94       89      231
     180      3       94       93       98
     181      2      100      101      102
     182      7      100      101      106
     183      2      100      105      104
     184      7      100      105      110
     185      8      100      265      264
     186      5      100      265      266
     187      4      101      100      105
     188      5      101      100      265
     189      1      101      102      103
     190      3      101      102      107
     191      3      102      101      106
     192      1      102      103      104
     193      3      102      103      108
     194      3      103      102      107
     195      1      103      104      105
     196      3      103      104      109
     197      3      104      103      108
     198      3      104      105      110
     199      5      105      100      265
     200      3      105      104      109
     201      2      111      112      113
     202      7      111      112      117
     203      2      111      116      115
     204      7      111      116      121
     205      5      111      267      266
     206      8      111      267      268
     207      4      112      111      116
     208      5      112      111      267
     209      1      112      113      114
     210      3      112      113      118
     211      3      113      112      117
     212      1      113      114      115
     213      3      113      114      119
     214      3      114      113      118
     215      1      114      115      116
     216      3      114      115      120
     217      3      115      114      119
     218      3      115      116      121
     219      5      116      111      267
     220      3      116      115      120
     221      2      122      123      124
     222      7      122      123      128
     223      2      122      127      126
     224      7      122      127      132
     225      8      122      273      272
     226      5      122      273      274
     227      4      123      122      127
     228      5      123      122      273
     229      1      123      124      125
     230      3      123      124      129
     231      3      124      123      128
     232      1      124      125      126
     233      3      124      125      130
     234      3      125      124      129
     235      1      125      126      127
     236      3      125      126      131
     237      3      126      125      130
     238      3      126      127      132
     239      5      127      122      273
     240      3      127      126      131
     241      2      133      134      135
     242      7      133      134      139
     243      2      133      138      137
     244      7      133      138      143
     245      5      133      275      274
     246      8      133      275      276
     247      4      134      133      138
     248      5      134      133      275
     249      1      134      135      136
     250      3      134      135      140
     251      3      135      134      139
     252      1      135      136      137
     253      3      135      136      141
     254      3      136      135      140
     255      1      136      137      138
     256      3      136      137      142
     257      3      137      136      141
     258      3      137      138      143
     259      5      138      133      275
     260      3      138      137      142
     261      2      144      145      146
     262      7      144      145      150
     263      2      144      149      148
     264      7      144      149      154
     265      5      144      326      325
     266      5      144      326      327
     267      4      145      144      149
     268      5      145      144      326
     269      1      145      146      147
     270      3      145      146      151
     271      3      146      145      150
     272      1      146      147      148
     273      3      146      147      152
     274      3      147      146      151
     275      1      147      148      149
     276      3      147      148      153
     277      3      148      147      152
     278      3      148      149      154
     279      5      149      144      326
     280      3      149      148      153
     281      2      155      156      157
     282      7      155      156      161
     283      2      155      160      159
     284      7      155      160      165
     285      8      155      281      280
     286      5      155      281      282
     287      4      156      155      160
     288      5      156      155      281
     289      1      156      157      158
     290      3      156      157      162
     291      3      157      156      161
     292      1      157      158      159
     293      3      157      158      163
     294      3      158      157      162
     295      1      158      159      160
     296      3      158      159      164
     297      3      159      158      163
     298      3      159      160      165
     299      5      160      155      281
     300      3      160      159      164
     301      2      166      167      168
     302      7      166      167      172
     303      2      166      171      170
     304      7      166      171      176
     305      5      166      283      282
     306      8      166      283      284
     307      4      167      166      171
     308      5      167      166      283
     309      1      167      168      169
     310      3      167      168      173
     311      3      168      167      172
     312      1      168      169      170
     313      3      168      169      174
     314      3      169      168      173
     315      1      169      170      171
     316      3      169      170      175
     317      3      170      169      174
     318      3      170      171      176
     319      5      171      166      283
     320      3      171      170      175
     321      2      177      178      179
     322      7      177      178      183
     323      2      177      182      181
     324      7      177      182      187
     325      5      177      241      240
     326      5      177      241      242
     327      4      178      177      182
     328      5      178      177      241
     329      1      178      179      180
     330      3      178      179      184
     331      3      179      178      183
     332      1      179      180      181
     333      3      179      180      185
     334      3      180      179      184
     335      1      180      181      182
     336      3      180      181      186
     337      3      181      180      185
     338      3      181      182      187
     339      5      182      177      241
     340      3      182      181      186
     341      2      188      189      190
     342      7      188      189      194
     343      2      188      193      192
     344      7      188      193      197
     345      4      189      188      193
     346      2      189      190      191
     347      3      189      190      195
     348      3      190      189      194
     349      4      190      191      192
     350      5      190      191      198
     351      7      191      190      195
     352      2      191      192      193
     353      7      191      192      196
     354      5      191      198      199
     355      5      191      198      203
     356      5      192      191      198
     357      3      192      193      197
     358      3      193      192      196
     359      2      198      199      200
     360      7      198      199      204
     361      2      198      203      202
     362      7      198      203      207
     363      4      199      198      203
     364      2      199      200      201
     365      3      199      200      205
     366      3      200      199      204
     367      4      200      201      202
     368      5      200      201      248
     369      7      201      200      205
     370      2      201      202      203
     371      7      201      202      206
     372      8      201      248      249
     373      5      201      248      253
     374      5      202      201      248
     375      3      202      203      207
     376      3      203      202      206
     377      2      208      209      210
     378      7      208      209      214
     379      2      208      213      212
     380      7      208      213      217
     381      5      208      301      300
     382      5      208      301      302
     383      4      209      208      213
     384      5      209      208      301
     385      2      209      210      211
     386      3      209      210      215
     387      3      210      209      214
     388      4      210      211      212
     389      7      211      210      215
     390      2      211      212      213
     391      7      211      212      216
     392      3      212      213      217
     393      5      213      208      301
     394      3      213      212      216
     395      2      218      219      220
     396      7      218      219      224
     397      2      218      223      222
     398      7      218      223      227
     399      8      218      260      259
     400      5      218      260      261
     401      4      219      218      223
     402      5      219      218      260
     403      2      219      220      221
     404      3      219      220      225
     405      3      220      219      224
     406      4      220      221      222
     407      7      221      220      225
     408      2      221      222      223
     409      7      221      222      226
     410      3      222      223      227
     411      5      223      218      260
     412      3      223      222      226
     413      2      228      229      230
     414      7      228      229      234
     415      2      228      233      232
     416      7      228      233      237
     417      5      228      317      316
     418      5      228      317      318
     419      4      229      228      233
     420      5      229      228      317
     421      2      229      230      231
     422      3      229      230      235
     423      3      230      229      234
     424      4      230      231      232
     425      7      231      230      235
     426      2      231      232      233
     427      7      231      232      236
     428      3      232      233      237
     429      5      233      228      317
     430      3      233      232      236
     431      2      238      239      240
     432      7      238      239      244
     433      2      238      243      242
     434      7      238      243      247
     435      8      238      284      283
     436      5      238      284      285
     437      4      239      238      243
     438      5      239      238      284
     439      2      239      240      241
     440      3      239      240      245
     441      3      240      239      244
     442      4      240      241      242
     443      7      241      240      245
     444      2      241      242      243
     445      7      241      242      246
     446      3      242      243      247
     447      5      243      238      284
     448      3      243      242      246
     449      5      248      249      250
     450      8      248      249      288
     451      6      248      253      252
     452      7      248      253      255
     453      5      249      248      253
     454      6      249      250      251
     455      7      249      250      254
     456      5      249      288      289
     457      5      249      288      293
     458      5      250      249      288
     459      5      250      251      252
     460      5      250      251      306
     461      7      251      250      254
     462      5      251      252      253
     463      8      251      252      315
     464      5      251      306      307
     465      5      251      306      311
     466      8      252      251      306
     467      7      252      253      255
     468      5      252      315      316
     469      5      252      315      320
     470      5      253      252      315
     471      5      256      257      258
     472      6      256      261      260
     473      7      256      261      263
     474      5      256      310      309
     475      5      256      310      311
     476      5      257      256      261
     477      8      257      256      310
     478      6      257      258      259
     479      7      257      258      262
     480      5      258      259      260
     481      7      259      258      262
     482      5      259      260      261
     483      7      260      261      263
     484      5      261      256      310
     485      5      264      265      266
     486      6      264      269      268
     487      7      264      269      271
     488      5      264      319      318
     489      5      264      319      320
     490      5      265      264      269
     491      8      265      264      319
     492      6      265      266      267
     493      7      265      266      270
     494      5      266      267      268
     495      7      267      266      270
     496      5      267      268      269
     497      8      267      268      272
     498      7      268      269      271
     499      8      268      272      273
     500      5      268      272      277
     501      5      269      264      319
     502      5      269      268      272
     503      5      272      273      274
     504      6      272      277      276
     505      7      272      277      279
     506      5      273      272      277
     507      6      273      274      275
     508      7      273      274      278
     509      5      274      275      276
     510      7      275      274      278
     511      5      275      276      277
     512      8      275      276      324
     513      7      276      277      279
     514      5      276      324      325
     515      5      276      324      329
     516      5      277      276      324
     517      5      280      281      282
     518      6      280      285      284
     519      7      280      285      287
     520      5      280      328      327
     521      5      280      328      329
     522      5      281      280      285
     523      8      281      280      328
     524      6      281      282      283
     525      7      281      282      286
     526      5      282      283      284
     527      7      283      282      286
     528      5      283      284      285
     529      7      284      285      287
     530      5      285      280      328
     531      6      288      289      290
     532      7      288      289      294
     533      6      288      293      292
     534      7      288      293      296
     535      4      289      288      293
     536      4      289      290      291
     537      7      290      289      294
     538      6      290      291      292
     539      7      290      291      295
     540      4      291      292      293
     541      5      291      292      297
     542      7      292      291      295
     543      7      292      293      296
     544      5      292      297      298
     545      5      292      297      302
     546      5      293      292      297
     547      6      297      298      299
     548      7      297      298      303
     549      6      297      302      301
     550      7      297      302      305
     551      4      298      297      302
     552      4      298      299      300
     553      7      299      298      303
     554      6      299      300      301
     555      7      299      300      304
     556      4      300      301      302
     557      7      301      300      304
     558      7      301      302      305
     559      6      306      307      308
     560      7      306      307      312
     561      6      306      311      310
     562      7      306      311      314
     563      4      307      306      311
     564      4      307      308      309
     565      7      308      307      312
     566      6      308      309      310
     567      7      308      309      313
     568      4      309      310      311
     569      7      310      309      313
     570      7      310      311      314
     571      6      315      316      317
     572      7      315      316      321
     573      6      315      320      319
     574      7      315      320      323
     575      4      316      315      320
     576      4      316      317      318
     577      7      317      316      321
     578      6      317      318      319
     579      7      317      318      322
     580      4      318      319      320
     581      7      319      318      322
     582      7      319      320      323
     583      6      324      325      326
     584      7      324      325      330
     585      6      324      329      328
     586      7      324      329      332
     587      4      325      324      329
     588      4      325      326      327
     589      7      326      325      330
     590      6      326      327      328
     591      7      326      327      331
     592      4      327      328      329
     593      7      328      327      331
     594      7      328      329      332

Dihedrals

       1      2        1        2        3        4
       2     11        1        2        3        8
       3      2        1        6        5        4
       4     11        1        6        5       10
       5      5        1      188      189      190
       6     13        1      188      189      194
       7      5        1      188      193      192
       8     13        1      188      193      197
       9      4        2        1        6        5
      10      7        2        1        6       11
      11      8        2        1      188      189
      12      8        2        1      188      193
      13      1        2        3        4        5
      14      3        2        3        4        9
      15      4        3        2        1        6
      16      5        3        2        1      188
      17      1        3        4        5        6
      18      3        3        4        5       10
      19      3        4        3        2        7
      20      3        4        5        6       11
      21      3        5        4        3        8
      22      5        5        6        1      188
      23      7        6        1        2        7
      24      8        6        1      188      189
      25      8        6        1      188      193
      26      3        6        5        4        9
      27     13        7        2        1      188
      28     15        7        2        3        8
      29     15        8        3        4        9
      30     15        9        4        5       10
      31     15       10        5        6       11
      32     13       11        6        1      188
      33      2       12       13       14       15
      34     11       12       13       14       19
      35      2       12       17       16       15
      36     11       12       17       16       21
      37     12       12      290      289      288
      38     13       12      290      289      294
      39     12       12      290      291      292
      40     13       12      290      291      295
      41      4       13       12       17       16
      42      7       13       12       17       22
      43      8       13       12      290      289
      44      8       13       12      290      291
      45      1       13       14       15       16
      46      3       13       14       15       20
      47      4       14       13       12       17
      48      5       14       13       12      290
      49      1       14       15       16       17
      50      3       14       15       16       21
      51      3       15       14       13       18
      52      3       15       16       17       22
      53      3       16       15       14       19
      54      5       16       17       12      290
      55      7       17       12       13       18
      56      8       17       12      290      289
      57      8       17       12      290      291
      58      3       17       16       15       20
      59     13       18       13       12      290
      60     15       18       13       14       19
      61     15       19       14       15       20
      62     15       20       15       16       21
      63     15       21       16       17       22
      64     13       22       17       12      290
      65      2       23       24       25       26
      66     11       23       24       25       30
      67      2       23       28       27       26
      68     11       23       28       27       32
      69     12       23      299      298      297
      70     13       23      299      298      303
      71     12       23      299      300      301
      72     13       23      299      300      304
      73      4       24       23       28       27
      74      7       24       23       28       33
      75      8       24       23      299      298
      76      8       24       23      299      300
      77      1       24       25       26       27
      78      3       24       25       26       31
      79      4       25       24       23       28
      80      5       25       24       23      299
      81      1       25       26       27       28
      82      3       25       26       27       32
      83      3       26       25       24       29
      84      3       26       27       28       33
      85      3       27       26       25       30
      86      5       27       28       23      299
      87      7       28       23       24       29
      88      8       28       23      299      298
      89      8       28       23      299      300
      90      3       28       27       26       31
      91     13       29       24       23      299
      92     15       29       24       25       30
      93     15       30       25       26       31
      94     15       31       26       27       32
      95     15       32       27       28       33
      96     13       33       28       23      299
      97      2       34       35       36       37
      98     11       34       35       36       41
      99      2       34       39       38       37
     100     11       34       39       38       43
     101      5       34      211      210      209
     102     13       34      211      210      215
     103      5       34      211      212      213
     104     13       34      211      212      216
     105      4       35       34       39       38
     106      7       35       34       39       44
     107      8       35       34      211      210
     108      8       35       34      211      212
     109      1       35       36       37       38
     110      3       35       36       37       42
     111      4       36       35       34       39
     112      5       36       35       34      211
     113      1       36       37       38       39
     114      3       36       37       38       43
     115      3       37       36       35       40
     116      3       37       38       39       44
     117      3       38       37       36       41
     118      5       38       39       34      211
     119      7       39       34       35       40
     120      8       39       34      211      210
     121      8       39       34      211      212
     122      3       39       38       37       42
     123     13       40       35       34      211
     124     15       40       35       36       41
     125     15       41       36       37       42
     126     15       42       37       38       43
     127     15       43       38       39       44
     128     13       44       39       34      211
     129      2       45       46       47       48
     130     11       45       46       47       52
     131      2       45       50       49       48
     132     11       45       50       49       54
     133     12       45      308      307      306
     134     13       45      308      307      312
     135     12       45      308      309      310
     136     13       45      308      309      313
     137      4       46       45       50       49
     138      7       46       45       50       55
     139      8       46       45      308      307
     140      8       46       45      308      309
     141      1       46       47       48       49
     142      3       46       47       48       53
     143      4       47       46       45       50
     144      5       47       46       45      308
     145      1       47       48       49       50
     146      3       47       48       49       54
     147      3       48       47       46       51
     148      3       48       49       50       55
     149      3       49       48       47       52
     150      5       49       50       45      308
     151      7       50       45       46       51
     152      8       50       45      308      307
     153      8       50       45      308      309
     154      3       50       49       48       53
     155     13       51       46       45      308
     156     15       51       46       47       52
     157     15       52       47       48       53
     158     15       53       48       49       54
     159     15       54       49       50       55
     160     13       55       50       45      308
     161      2       56       57       58       59
     162     11       56       57       58       63
     163      2       56       61       60       59
     164     11       56       61       60       65
     165      9       56      257      256      261
     166     14       56      257      256      310
     167     12       56      257      258      259
     168     13       56      257      258      262
     169      4       57       56       61       60
     170      7       57       56       61       66
     171      9       57       56      257      256
     172      8       57       56      257      258
     173      1       57       58       59       60
     174      3       57       58       59       64
     175      4       58       57       56       61
     176      5       58       57       56      257
     177      1       58       59       60       61
     178      3       58       59       60       65
     179      3       59       58       57       62
     180      3       59       60       61       66
     181      3       60       59       58       63
     182      5       60       61       56      257
     183      7       61       56       57       62
     184      9       61       56      257      256
     185      8       61       56      257      258
     186      3       61       60       59       64
     187     13       62       57       56      257
     188     15       62       57       58       63
     189     15       63       58       59       64
     190     15       64       59       60       65
     191     15       65       60       61       66
     192     13       66       61       56      257
     193      2       67       68       69       70
     194     11       67       68       69       74
     195      2       67       72       71       70
     196     11       67       72       71       76
     197     12       67      259      258      257
     198     13       67      259      258      262
     199     14       67      259      260      218
     200      9       67      259      260      261
     201      4       68       67       72       71
     202      7       68       67       72       77
     203      8       68       67      259      258
     204      9       68       67      259      260
     205      1       68       69       70       71
     206      3       68       69       70       75
     207      4       69       68       67       72
     208      5       69       68       67      259
     209      1       69       70       71       72
     210      3       69       70       71       76
     211      3       70       69       68       73
     212      3       70       71       72       77
     213      3       71       70       69       74
     214      5       71       72       67      259
     215      7       72       67       68       73
     216      8       72       67      259      258
     217      9       72       67      259      260
     218      3       72       71       70       75
     219     13       73       68       67      259
     220     15       73       68       69       74
     221     15       74       69       70       75
     222     15       75       70       71       76
     223     15       76       71       72       77
     224     13       77       72       67      259
     225      2       78       79       80       81
     226     11       78       79       80       85
     227      2       78       83       82       81
     228     11       78       83       82       87
     229      5       78      221      220      219
     230     13       78      221      220      225
     231      5       78      221      222      223
     232     13       78      221      222      226
     233      4       79       78       83       82
     234      7       79       78       83       88
     235      8       79       78      221      220
     236      8       79       78      221      222
     237      1       79       80       81       82
     238      3       79       80       81       86
     239      4       80       79       78       83
     240      5       80       79       78      221
     241      1       80       81       82       83
     242      3       80       81       82       87
     243      3       81       80       79       84
     244      3       81       82       83       88
     245      3       82       81       80       85
     246      5       82       83       78      221
     247      7       83       78       79       84
     248      8       83       78      221      220
     249      8       83       78      221      222
     250      3       83       82       81       86
     251     13       84       79       78      221
     252     15       84       79       80       85
     253     15       85       80       81       86
     254     15       86       81       82       87
     255     15       87       82       83       88
     256     13       88       83       78      221
     257      2       89       90       91       92
     258     11       89       90       91       96
     259      2       89       94       93       92
     260     11       89       94       93       98
     261      5       89      231      230      229
     262     13       89      231      230      235
     263      5       89      231      232      233
     264     13       89      231      232      236
     265      4       90       89       94       93
     266      7       90       89       94       99
     267      8       90       89      231      230
     268      8       90       89      231      232
     269      1       90       91       92       93
     270      3       90       91       92       97
     271      4       91       90       89       94
     272      5       91       90       89      231
     273      1       91       92       93       94
     274      3       91       92       93       98
     275      3       92       91       90       95
     276      3       92       93       94       99
     277      3       93       92       91       96
     278      5       93       94       89      231
     279      7       94       89       90       95
     280      8       94       89      231      230
     281      8       94       89      231      232
     282      3       94       93       92       97
     283     13       95       90       89      231
     284     15       95       90       91       96
     285     15       96       91       92       97
     286     15       97       92       93       98
     287     15       98       93       94       99
     288     13       99       94       89      231
     289      2      100      101      102      103
     290     11      100      101      102      107
     291      2      100      105      104      103
     292     11      100      105      104      109
     293      9      100      265      264      269
     294     14      100      265      264      319
     295     12      100      265      266      267
     296     13      100      265      266      270
     297      4      101      100      105      104
     298      7      101      100      105      110
     299      9      101      100      265      264
     300      8      101      100      265      266
     301      1      101      102      103      104
     302      3      101      102      103      108
     303      4      102      101      100      105
     304      5      102      101      100      265
     305      1      102      103      104      105
     306      3      102      103      104      109
     307      3      103      102      101      106
     308      3      103      104      105      110
     309      3      104      103      102      107
     310      5      104      105      100      265
     311      7      105      100      101      106
     312      9      105      100      265      264
     313      8      105      100      265      266
     314      3      105      104      103      108
     315     13      106      101      100      265
     316     15      106      101      102      107
     317     15      107      102      103      108
     318     15      108      103      104      109
     319     15      109      104      105      110
     320     13      110      105      100      265
     321      2      111      112      113      114
     322     11      111      112      113      118
     323      2      111      116      115      114
     324     11      111      116      115      120
     325     12      111      267      266      265
     326     13      111      267      266      270
     327      9      111      267      268      269
     328     14      111      267      268      272
     329      4      112      111      116      115
     330      7      112      111      116      121
     331      8      112      111      267      266
     332      9      112      111      267      268
     333      1      112      113      114      115
     334      3      112      113      114      119
     335      4      113      112      111      116
     336      5      113      112      111      267
     337      1      113      114      115      116
     338      3      113      114      115      120
     339      3      114      113      112      117
     340      3      114      115      116      121
     341      3      115      114      113      118
     342      5      115      116      111      267
     343      7      116      111      112      117
     344      8      116      111      267      266
     345      9      116      111      267      268
     346      3      116      115      114      119
     347     13      117      112      111      267
     348     15      117      112      113      118
     349     15      118      113      114      119
     350     15      119      114      115      120
     351     15      120      115      116      121
     352     13      121      116      111      267
     353      2      122      123      124      125
     354     11      122      123      124      129
     355      2      122      127      126      125
     356     11      122      127      126      131
     357     14      122      273      272      268
     358      9      122      273      272      277
     359     12      122      273      274      275
     360     13      122      273      274      278
     361      4      123      122      127      126
     362      7      123      122      127      132
     363      9      123      122      273      272
     364      8      123      122      273      274
     365      1      123      124      125      126
     366      3      123      124      125      130
     367      4      124      123      122      127
     368      5      124      123      122      273
     369      1      124      125      126      127
     370      3      124      125      126      131
     371      3      125      124      123      128
     372      3      125      126      127      132
     373      3      126      125      124      129
     374      5      126      127      122      273
     375      7      127      122      123      128
     376      9      127      122      273      272
     377      8      127      122      273      274
     378      3      127      126      125      130
     379     13      128      123      122      273
     380     15      128      123      124      129
     381     15      129      124      125      130
     382     15      130      125      126      131
     383     15      131      126      127      132
     384     13      132      127      122      273
     385      2      133      134      135      136
     386     11      133      134      135      140
     387      2      133      138      137      136
     388     11      133      138      137      142
     389     12      133      275      274      273
     390     13      133      275      274      278
     391      9      133      275      276      277
     392     14      133      275      276      324
     393      4      134      133      138      137
     394      7      134      133      138      143
     395      8      134      133      275      274
     396      9      134      133      275      276
     397      1      134      135      136      137
     398      3      134      135      136      141
     399      4      135      134      133      138
     400      5      135      134      133      275
     401      1      135      136      137      138
     402      3      135      136      137      142
     403      3      136      135      134      139
     404      3      136      137      138      143
     405      3      137      136      135      140
     406      5      137      138      133      275
     407      7      138      133      134      139
     408      8      138      133      275      274
     409      9      138      133      275      276
     410      3      138      137      136      141
     411     13      139      134      133      275
     412     15      139      134      135      140
     413     15      140      135      136      141
     414     15      141      136      137      142
     415     15      142      137      138      143
     416     13      143      138      133      275
     417      2      144      145      146      147
     418     11      144      145      146      151
     419      2      144      149      148      147
     420     11      144      149      148      153
     421     12      144      326      325      324
     422     13      144      326      325      330
     423     12      144      326      327      328
     424     13      144      326      327      331
     425      4      145      144      149      148
     426      7      145      144      149      154
     427      8      145      144      326      325
     428      8      145      144      326      327
     429      1      145      146      147      148
     430      3      145      146      147      152
     431      4      146      145      144      149
     432      5      146      145      144      326
     433      1      146      147      148      149
     434      3      146      147      148      153
     435      3      147      146      145      150
     436      3      147      148      149      154
     437      3      148      147      146      151
     438      5      148      149      144      326
     439      7      149      144      145      150
     440      8      149      144      326      325
     441      8      149      144      326      327
     442      3      149      148      147      152
     443     13      150      145      144      326
     444     15      150      145      146      151
     445     15      151      146      147      152
     446     15      152      147      148      153
     447     15      153      148      149      154
     448     13      154      149      144      326
     449      2      155      156      157      158
     450     11      155      156      157      162
     451      2      155      160      159      158
     452     11      155      160      159      164
     453      9      155      281      280      285
     454     14      155      281      280      328
     455     12      155      281      282      283
     456     13      155      281      282      286
     457      4      156      155      160      159
     458      7      156      155      160      165
     459      9      156      155      281      280
     460      8      156      155      281      282
     461      1      156      157      158      159
     462      3      156      157      158      163
     463      4      157      156      155      160
     464      5      157      156      155      281
     465      1      157      158      159      160
     466      3      157      158      159      164
     467      3      158      157      156      161
     468      3      158      159      160      165
     469      3      159      158      157      162
     470      5      159      160      155      281
     471      7      160      155      156      161
     472      9      160      155      281      280
     473      8      160      155      281      282
     474      3      160      159      158      163
     475     13      161      156      155      281
     476     15      161      156      157      162
     477     15      162      157      158      163
     478     15      163      158      159      164
     479     15      164      159      160      165
     480     13      165      160      155      281
     481      2      166      167      168      169
     482     11      166      167      168      173
     483      2      166      171      170      169
     484     11      166      171      170      175
     485     12      166      283      282      281
     486     13      166      283      282      286
     487     14      166      283      284      238
     488      9      166      283      284      285
     489      4      167      166      171      170
     490      7      167      166      171      176
     491      8      167      166      283      282
     492      9      167      166      283      284
     493      1      167      168      169      170
     494      3      167      168      169      174
     495      4      168      167      166      171
     496      5      168      167      166      283
     497      1      168      169      170      171
     498      3      168      169      170      175
     499      3      169      168      167      172
     500      3      169      170      171      176
     501      3      170      169      168      173
     502      5      170      171      166      283
     503      7      171      166      167      172
     504      8      171      166      283      282
     505      9      171      166      283      284
     506      3      171      170      169      174
     507     13      172      167      166      283
     508     15      172      167      168      173
     509     15      173      168      169      174
     510     15      174      169      170      175
     511     15      175      170      171      176
     512     13      176      171      166      283
     513      2      177      178      179      180
     514     11      177      178      179      184
     515      2      177      182      181      180
     516     11      177      182      181      186
     517      5      177      241      240      239
     518     13      177      241      240      245
     519      5      177      241      242      243
     520     13      177      241      242      246
     521      4      178      177      182      181
     522      7      178      177      182      187
     523      8      178      177      241      240
     524      8      178      177      241      242
     525      1      178      179      180      181
     526      3      178      179      180      185
     527      4      179      178      177      182
     528      5      179      178      177      241
     529      1      179      180      181      182
     530      3      179      180      181      186
     531      3      180      179      178      183
     532      3      180      181      182      187
     533      3      181      180      179      184
     534      5      181      182      177      241
     535      7      182      177      178      183
     536      8      182      177      241      240
     537      8      182      177      241      242
     538      3      182      181      180      185
     539     13      183      178      177      241
     540     15      183      178      179      184
     541     15      184      179      180      185
     542     15      185      180      181      186
     543     15      186      181      182      187
     544     13      187      182      177      241
     545     10      188      189      190      191
     546     11      188      189      190      195
     547     10      188      193      192      191
     548     11      188      193      192      196
     549      4      189      188      193      192
     550      7      189      188      193      197
     551      4      189      190      191      192
     552      5      189      190      191      198
     553      4      190      189      188      193
     554      4      190      191      192      193
     555      7      190      191      192      196
     556      8      190      191      198      199
     557      8      190      191      198      203
     558     11      191      190      189      194
     559     11      191      192      193      197
     560      5      191      198      199      200
     561     13      191      198      199      204
     562      5      191      198      203      202
     563     13      191      198      203      207
     564      7      192      191      190      195
     565      8      192      191      198      199
     566      8      192      191      198      203
     567      7      193      188      189      194
     568      5      193      192      191      198
     569     15      194      189      190      195
     570     13      195      190      191      198
     571     13      196      192      191      198
     572     15      196      192      193      197
     573     10      198      199      200      201
     574     11      198      199      200      205
     575     10      198      203      202      201
     576     11      198      203      202      206
     577      4      199      198      203      202
     578      7      199      198      203      207
     579      4      199      200      201      202
     580      5      199      200      201      248
     581      4      200      199      198      203
     582      4      200      201      202      203
     583      7      200      201      202      206
     584      9      200      201      248      249
     585      8      200      201      248      253
     586     11      201      200      199      204
     587     11      201      202      203      207
     588      9      201      248      249      250
     589     14      201      248      249      288
     590     12      201      248      253      252
     591     13      201      248      253      255
     592      7      202      201      200      205
     593      9      202      201      248      249
     594      8      202      201      248      253
     595      7      203      198      199      204
     596      5      203      202      201      248
     597     15      204      199      200      205
     598     13      205      200      201      248
     599     13      206      202      201      248
     600     15      206      202      203      207
     601     10      208      209      210      211
     602     11      208      209      210      215
     603     10      208      213      212      211
     604     11      208      213      212      216
     605     12      208      301      300      299
     606     13      208      301      300      304
     607     12      208      301      302      297
     608     13      208      301      302      305
     609      4      209      208      213      212
     610      7      209      208      213      217
     611      8      209      208      301      300
     612      8      209      208      301      302
     613      4      209      210      211      212
     614      4      210      209      208      213
     615      5      210      209      208      301
     616      4      210      211      212      213
     617      7      210      211      212      216
     618     11      211      210      209      214
     619     11      211      212      213      217
     620      7      212      211      210      215
     621      5      212      213      208      301
     622      7      213      208      209      214
     623      8      213      208      301      300
     624      8      213      208      301      302
     625     13      214      209      208      301
     626     15      214      209      210      215
     627     15      216      212      213      217
     628     13      217      213      208      301
     629     10      218      219      220      221
     630     11      218      219      220      225
     631     10      218      223      222      221
     632     11      218      223      222      226
     633      9      218      260      259      258
     634     12      218      260      261      256
     635     13      218      260      261      263
     636      4      219      218      223      222
     637      7      219      218      223      227
     638      9      219      218      260      259
     639      8      219      218      260      261
     640      4      219      220      221      222
     641      4      220      219      218      223
     642      5      220      219      218      260
     643      4      220      221      222      223
     644      7      220      221      222      226
     645     11      221      220      219      224
     646     11      221      222      223      227
     647      7      222      221      220      225
     648      5      222      223      218      260
     649      7      223      218      219      224
     650      9      223      218      260      259
     651      8      223      218      260      261
     652     13      224      219      218      260
     653     15      224      219      220      225
     654     15      226      222      223      227
     655     13      227      223      218      260
     656     10      228      229      230      231
     657     11      228      229      230      235
     658     10      228      233      232      231
     659     11      228      233      232      236
     660     12      228      317      316      315
     661     13      228      317      316      321
     662     12      228      317      318      319
     663     13      228      317      318      322
     664      4      229      228      233      232
     665      7      229      228      233      237
     666      8      229      228      317      316
     667      8      229      228      317      318
     668      4      229      230      231      232
     669      4      230      229      228      233
     670      5      230      229      228      317
     671      4      230      231      232      233
     672      7      230      231      232      236
     673     11      231      230      229      234
     674     11      231      232      233      237
     675      7      232      231      230      235
     676      5      232      233      228      317
     677      7      233      228      229      234
     678      8      233      228      317      316
     679      8      233      228      317      318
     680     13      234      229      228      317
     681     15      234      229      230      235
     682     15      236      232      233      237
     683     13      237      233      228      317
     684     10      238      239      240      241
     685     11      238      239      240      245
     686     10      238      243      242      241
     687     11      238      243      242      246
     688      9      238      284      283      282
     689     12      238      284      285      280
     690     13      238      284      285      287
     691      4      239      238      243      242
     692      7      239      238      243      247
     693      9      239      238      284      283
     694      8      239      238      284      285
     695      4      239      240      241      242
     696      4      240      239      238      243
     697      5      240      239      238      284
     698      4      240      241      242      243
     699      7      240      241      242      246
     700     11      241      240      239      244
     701     11      241      242      243      247
     702      7      242      241      240      245
     703      5      242      243      238      284
     704      7      243      238      239      244
     705      9      243      238      284      283
     706      8      243      238      284      285
     707     13      244      239      238      284
     708     15      244      239      240      245
     709     15      246      242      243      247
     710     13      247      243      238      284
     711     12      248      249      250      251
     712     13      248      249      250      254
     713      9      248      249      288      289
     714      9      248      249      288      293
     715     12      248      253      252      251
     716     12      248      253      252      315
     717     12      249      248      253      252
     718     13      249      248      253      255
     719     12      249      250      251      252
     720     12      249      250      251      306
     721     12      249      288      289      290
     722     13      249      288      289      294
     723     12      249      288      293      292
     724     13      249      288      293      296
     725      8      250      249      248      253
     726      8      250      249      288      289
     727      8      250      249      288      293
     728      8      250      251      252      253
     729      9      250      251      252      315
     730      8      250      251      306      307
     731      8      250      251      306      311
     732     12      251      250      249      288
     733     13      251      252      253      255
     734      9      251      252      315      316
     735      9      251      252      315      320
     736     12      251      306      307      308
     737     13      251      306      307      312
     738     12      251      306      311      310
     739     13      251      306      311      314
     740     13      252      251      250      254
     741      9      252      251      306      307
     742      9      252      251      306      311
     743     12      252      315      316      317
     744     13      252      315      316      321
     745     12      252      315      320      319
     746     13      252      315      320      323
     747      9      253      248      249      288
     748      9      253      252      251      306
     749      8      253      252      315      316
     750      8      253      252      315      320
     751     13      254      250      249      288
     752     13      254      250      251      306
     753     13      255      253      252      315
     754     12      256      257      258      259
     755     13      256      257      258      262
     756     12      256      261      260      259
     757     12      256      310      309      308
     758     13      256      310      309      313
     759     12      256      310      311      306
     760     13      256      310      311      314
     761     12      257      256      261      260
     762     13      257      256      261      263
     763      9      257      256      310      309
     764      9      257      256      310      311
     765     12      257      258      259      260
     766      8      258      257      256      261
     767      9      258      257      256      310
     768      8      258      259      260      261
     769     13      259      260      261      263
     770     13      260      259      258      262
     771     12      260      261      256      310
     772      8      261      256      310      309
     773      8      261      256      310      311
     774     13      263      261      256      310
     775     12      264      265      266      267
     776     13      264      265      266      270
     777     12      264      269      268      267
     778     12      264      269      268      272
     779     12      264      319      318      317
     780     13      264      319      318      322
     781     12      264      319      320      315
     782     13      264      319      320      323
     783     12      265      264      269      268
     784     13      265      264      269      271
     785      9      265      264      319      318
     786      9      265      264      319      320
     787     12      265      266      267      268
     788      8      266      265      264      269
     789      9      266      265      264      319
     790      8      266      267      268      269
     791      9      266      267      268      272
     792     13      267      268      269      271
     793     14      267      268      272      273
     794      9      267      268      272      277
     795     13      268      267      266      270
     796     12      268      269      264      319
     797      9      268      272      273      274
     798     12      268      272      277      276
     799     13      268      272      277      279
     800      8      269      264      319      318
     801      8      269      264      319      320
     802      9      269      268      272      273
     803      8      269      268      272      277
     804     13      271      269      264      319
     805     13      271      269      268      272
     806     12      272      273      274      275
     807     13      272      273      274      278
     808     12      272      277      276      275
     809     12      272      277      276      324
     810     12      273      272      277      276
     811     13      273      272      277      279
     812     12      273      274      275      276
     813      8      274      273      272      277
     814      8      274      275      276      277
     815      9      274      275      276      324
     816     13      275      276      277      279
     817      9      275      276      324      325
     818      9      275      276      324      329
     819     13      276      275      274      278
     820     12      276      324      325      326
     821     13      276      324      325      330
     822     12      276      324      329      328
     823     13      276      324      329      332
     824      8      277      276      324      325
     825      8      277      276      324      329
     826     13      279      277      276      324
     827     12      280      281      282      283
     828     13      280      281      282      286
     829     12      280      285      284      283
     830     12      280      328      327      326
     831     13      280      328      327      331
     832     12      280      328      329      324
     833     13      280      328      329      332
     834     12      281      280      285      284
     835     13      281      280      285      287
     836      9      281      280      328      327
     837      9      281      280      328      329
     838     12      281      282      283      284
     839      8      282      281      280      285
     840      9      282      281      280      328
     841      8      282      283      284      285
     842     13      283      284      285      287
     843     13      284      283      282      286
     844     12      284      285      280      328
     845      8      285      280      328      327
     846      8      285      280      328      329
     847     13      287      285      280      328
     848      6      288      289      290      291
     849      6      288      293      292      291
     850     12      288      293      292      297
     851      6      289      288      293      292
     852      7      289      288      293      296
     853      6      289      290      291      292
     854      7      289      290      291      295
     855      6      290      289      288      293
     856      6      290      291      292      293
     857     12      290      291      292      297
     858      7      291      290      289      294
     859      7      291      292      293      296
     860      8      291      292      297      298
     861      8      291      292      297      302
     862     12      292      297      298      299
     863     13      292      297      298      303
     864     12      292      297      302      301
     865     13      292      297      302      305
     866      7      293      288      289      294
     867      7      293      292      291      295
     868      8      293      292      297      298
     869      8      293      292      297      302
     870     13      295      291      292      297
     871     13      296      293      292      297
     872      6      297      298      299      300
     873      6      297      302      301      300
     874      6      298      297      302      301
     875      7      298      297      302      305
     876      6      298      299      300      301
     877      7      298      299      300      304
     878      6      299      298      297      302
     879      6      299      300      301      302
     880      7      300      299      298      303
     881      7      300      301      302      305
     882      7      302      297      298      303
     883      7      302      301      300      304
     884     14      306      251      252      315
     885      6      306      307      308      309
     886      6      306      311      310      309
     887      6      307      306      311      310
     888      7      307      306      311      314
     889      6      307      308      309      310
     890      7      307      308      309      313
     891      6      308      307      306      311
     892      6      308      309      310      311
     893      7      309      308      307      312
     894      7      309      310      311      314
     895      7      311      306      307      312
     896      7      311      310      309      313
     897      6      315      316      317      318
     898      6      315      320      319      318
     899      6      316      315      320      319
     900      7      316      315      320      323
     901      6      316      317      318      319
     902      7      316      317      318      322
     903      6      317      316      315      320
     904      6      317      318      319      320
     905      7      318      317      316      321
     906      7      318      319      320      323
     907      7      320      315      316      321
     908      7      320      319      318      322
     909      6      324      325      326      327
     910      6      324      329      328      327
     911      6      325      324      329      328
     912      7      325      324      329      332
     913      6      325      326      327      328
     914      7      325      326      327      331
     915      6      326      325      324      329
     916      6      326      327      328      329
     917      7      327      326      325      330
     918      7      327      328      329      332
     919      7      329      324      325      330
     920      7      329      328      327      331

Impropers

       1      4        2        1        6      188
       2      2        1        2        3        7
       3      1        2        3        4        8
       4      1        3        4        5        9
       5      1        4        5        6       10
       6      2        1        6        5       11
       7      4       13       12       17      290
       8      2       12       13       14       18
       9      1       13       14       15       19
      10      1       14       15       16       20
      11      1       15       16       17       21
      12      2       12       17       16       22
      13      4       24       23       28      299
      14      2       23       24       25       29
      15      1       24       25       26       30
      16      1       25       26       27       31
      17      1       26       27       28       32
      18      2       23       28       27       33
      19      4       35       34       39      211
      20      2       34       35       36       40
      21      1       35       36       37       41
      22      1       36       37       38       42
      23      1       37       38       39       43
      24      2       34       39       38       44
      25      4       46       45       50      308
      26      2       45       46       47       51
      27      1       46       47       48       52
      28      1       47       48       49       53
      29      1       48       49       50       54
      30      2       45       50       49       55
      31      4       57       56       61      257
      32      2       56       57       58       62
      33      1       57       58       59       63
      34      1       58       59       60       64
      35      1       59       60       61       65
      36      2       56       61       60       66
      37      4       68       67       72      259
      38      2       67       68       69       73
      39      1       68       69       70       74
      40      1       69       70       71       75
      41      1       70       71       72       76
      42      2       67       72       71       77
      43      4       79       78       83      221
      44      2       78       79       80       84
      45      1       79       80       81       85
      46      1       80       81       82       86
      47      1       81       82       83       87
      48      2       78       83       82       88
      49      4       90       89       94      231
      50      2       89       90       91       95
      51      1       90       91       92       96
      52      1       91       92       93       97
      53      1       92       93       94       98
      54      2       89       94       93       99
      55      4      101      100      105      265
      56      2      100      101      102      106
      57      1      101      102      103      107
      58      1      102      103      104      108
      59      1      103      104      105      109
      60      2      100      105      104      110
      61      4      112      111      116      267
      62      2      111      112      113      117
      63      1      112      113      114      118
      64      1      113      114      115      119
      65      1      114      115      116      120
      66      2      111      116      115      121
      67      4      123      122      127      273
      68      2      122      123      124      128
      69      1      123      124      125      129
      70      1      124      125      126      130
      71      1      125      126      127      131
      72      2      122      127      126      132
      73      4      134      133      138      275
      74      2      133      134      135      139
      75      1      134      135      136      140
      76      1      135      136      137      141
      77      1      136      137      138      142
      78      2      133      138      137      143
      79      4      145      144      149      326
      80      2      144      145      146      150
      81      1      145      146      147      151
      82      1      146      147      148      152
      83      1      147      148      149      153
      84      2      144      149      148      154
      85      4      156      155      160      281
      86      2      155      156      157      161
      87      1      156      157      158      162
      88      1      157      158      159      163
      89      1      158      159      160      164
      90      2      155      160      159      165
      91      4      167      166      171      283
      92      2      166      167      168      172
      93      1      167      168      169      173
      94      1      168      169      170      174
      95      1      169      170      171      175
      96      2      166      171      170      176
      97      4      178      177      182      241
      98      2      177      178      179      183
      99      1      178      179      180      184
     100      1      179      180      181      185
     101      1      180      181      182      186
     102      2      177      182      181      187
     103      4        1      188      189      193
     104      2      188      189      190      194
     105      2      189      190      191      195
     106      4      190      191      192      198
     107      2      191      192      193      196
     108      2      188      193      192      197
     109      4      191      198      199      203
     110      2      198      199      200      204
     111      2      199      200      201      205
     112      4      200      201      202      248
     113      2      201      202      203      206
     114      2      198      203      202      207
     115      4      209      208      213      301
     116      2      208      209      210      214
     117      2      209      210      211      215
     118      4       34      211      210      212
     119      2      211      212      213      216
     120      2      208      213      212      217
     121      4      219      218      223      260
     122      2      218      219      220      224
     123      2      219      220      221      225
     124      4       78      221      220      222
     125      2      221      222      223      226
     126      2      218      223      222      227
     127      4      229      228      233      317
     128      2      228      229      230      234
     129      2      229      230      231      235
     130      4       89      231      230      232
     131      2      231      232      233      236
     132      2      228      233      232      237
     133      4      239      238      243      284
     134      2      238      239      240      244
     135      2      239      240      241      245
     136      4      177      241      240      242
     137      2      241      242      243      246
     138      2      238      243      242      247
     139      5      201      248      249      253
     140      5      248      249      250      288
     141      3      249      250      251      254
     142      5      250      251      252      306
     143      5      251      252      253      315
     144      3      248      253      252      255
     145      5      257      256      261      310
     146      5       56      257      256      258
     147      3      257      258      259      262
     148      5       67      259      258      260
     149      5      218      260      259      261
     150      3      256      261      260      263
     151      5      265      264      269      319
     152      5      100      265      264      266
     153      3      265      266      267      270
     154      5      111      267      266      268
     155      5      267      268      269      272
     156      3      264      269      268      271
     157      5      268      272      273      277
     158      5      122      273      272      274
     159      3      273      274      275      278
     160      5      133      275      274      276
     161      5      275      276      277      324
     162      3      272      277      276      279
     163      5      281      280      285      328
     164      5      155      281      280      282
     165      3      281      282      283      286
     166      5      166      283      282      284
     167      5      238      284      283      285
     168      3      280      285      284      287
     169      4      249      288      289      293
     170      3      288      289      290      294
     171      4       12      290      289      291
     172      3      290      291      292      295
     173      4      291      292      293      297
     174      3      288      293      292      296
     175      4      292      297      298      302
     176      3      297      298      299      303
     177      4       23      299      298      300
     178      3      299      300      301      304
     179      4      208      301      300      302
     180      3      297      302      301      305
     181      4      251      306      307      311
     182      3      306      307      308      312
     183      4       45      308      307      309
     184      3      308      309      310      313
     185      4      256      310      309      311
     186      3      306      311      310      314
     187      4      252      315      316      320
     188      3      315      316      317      321
     189      4      228      317      316      318
     190      3      317      318      319      322
     191      4      264      319      318      320
     192      3      315      320      319      323
     193      4      276      324      325      329
     194      3      324      325      326      330
     195      4      144      326      325      327
     196      3      326      327      328      331
     197      4      280      328      327      329
     198      3      324      329      328      332

