LAMMPS data file generated by clean-room 1-hop pipeline

     146 atoms
     145 bonds
     288 angles
     423 dihedrals
       0 impropers

       4 atom types
       6 bond types
      11 angle types
      13 dihedral types
       0 improper types

  -26.847000    25.473200 xlo xhi
  -35.049700    36.139500 ylo yhi
  -35.656600    33.593800 zlo zhi

Masses

       1    12.011000
       2    12.011000
       3    12.011000
       4     1.008000

Pair Coeffs

       1     0.066000     3.500000
       2     0.066000     3.500000
       3     0.066000     3.500000
       4     0.030000     2.500000

Bond Coeffs

       1   268.000000     1.529000
       2   340.000000     1.090000
       3   268.000000     1.529000
       4   268.000000     1.529000
       5   340.000000     1.090000
       6   340.000000     1.090000

Angle Coeffs

       1    58.350000   112.700000
       2    37.500000   110.700000
       3    37.500000   110.700000
       4    58.350000   112.700000
       5    58.350000   112.700000
       6    37.500000   110.700000
       7    58.350000   112.700000
       8    37.500000   110.700000
       9    37.500000   110.700000
      10    33.000000   107.800000
      11    33.000000   107.800000

Dihedral Coeffs

       1     0.850000    -0.200000     0.200000     0.000000
       2     0.000000     0.000000     0.300000     0.000000
       3     0.000000     0.000000     0.300000     0.000000
       4     0.850000    -0.200000     0.200000     0.000000
       5     0.850000    -0.200000     0.200000     0.000000
       6     0.000000     0.000000     0.300000     0.000000
       7     0.850000    -0.200000     0.200000     0.000000
       8     0.000000     0.000000     0.300000     0.000000
       9     0.000000     0.000000     0.300000     0.000000
      10     0.000000     0.000000     0.300000     0.000000
      11     0.000000     0.000000     0.300000     0.000000
      12     0.000000     0.000000     0.300000     0.000000
      13     0.000000     0.000000     0.300000     0.000000

Improper Coeffs


Atoms

       1    1      1  -0.26512287     1.334800    15.448100    12.933700
       2    1      2  -0.19447150     0.561200    14.846500    11.744300
       3    1      4   0.09673809     1.805900    14.608100    13.543800
       4    1      4   0.09673809     2.153500    16.139500    12.545600
       5    1      4   0.09673809     0.619000    16.041100    13.593800
       6    1      4   0.09673809     0.093900    15.687200    11.132000
       7    1      4   0.09673809    -0.259300    14.156800    12.132000
       8    1      1  -0.26512287    -5.442300   -10.715900   -14.762600
       9    1      2  -0.19447150    -6.023500    -9.705800   -13.754100
      10    1      4   0.09673809    -5.010500   -10.155800   -15.656600
      11    1      4   0.09673809    -4.618300   -11.321700   -14.259200
      12    1      4   0.09673809    -6.268300   -11.417400   -15.115700
      13    1      4   0.09673809    -6.456500   -10.270400   -12.863000
      14    1      4   0.09673809    -6.847000    -9.097600   -14.255700
      15    1      1  -0.26512287     4.684400   -13.999900     1.259400
      16    1      2  -0.19447150     3.278900   -13.478900     1.614200
      17    1      4   0.09673809     4.820000   -15.049700     1.684000
      18    1      4   0.09673809     4.803800   -14.033200     0.126300
      19    1      4   0.09673809     5.473200   -13.306900     1.702900
      20    1      4   0.09673809     3.150400   -13.447000     2.746200
      21    1      4   0.09673809     2.497600   -14.177600     1.165400
      22    1      2  -0.19447150     1.537300    14.049900    10.858900
      23    1      2  -0.19447150     0.809000    13.439800     9.645800
      24    1      4   0.09673809     2.003900    13.212700    11.476200
      25    1      4   0.09673809     2.360100    14.747100    10.490000
      26    1      4   0.09673809     0.350000    14.273600     9.018500
      27    1      4   0.09673809    -0.008600    12.726100     9.994600
      28    1      2  -0.19447150     1.856400    12.680200     8.810200
      29    1      2  -0.19447150     1.271100    12.050900     7.529300
      30    1      4   0.09673809     2.314500    11.857100     9.451800
      31    1      4   0.09673809     2.673900    13.415400     8.507700
      32    1      4   0.09673809     0.823000    12.869000     6.874300
      33    1      4   0.09673809     0.474600    11.275400     7.783100
      34    1      2  -0.19447150     2.463900    11.394200     6.808600
      35    1      2  -0.19447150     2.135100    10.775400     5.435100
      36    1      4   0.09673809     2.909100    10.591200     7.484000
      37    1      4   0.09673809     3.247000    12.205600     6.640700
      38    1      4   0.09673809     1.711000    11.577000     4.744300
      39    1      4   0.09673809     3.119100    10.401500     4.997900
      40    1      2  -0.19447150     1.170800     9.572900     5.479900
      41    1      2  -0.19447150     1.165800     9.009800     4.043800
      42    1      4   0.09673809     0.129300     9.897700     5.810400
      43    1      4   0.09673809     1.575300     8.779600     6.191800
      44    1      4   0.09673809     0.800900     9.821100     3.330700
      45    1      4   0.09673809     2.243800     8.749800     3.779600
      46    1      2  -0.19447150     0.310000     7.744200     3.827700
      47    1      2  -0.19447150     0.576100     7.336800     2.364500
      48    1      4   0.09673809    -0.792300     7.981600     3.995300
      49    1      4   0.09673809     0.641700     6.911200     4.531800
      50    1      4   0.09673809     0.305900     8.227400     1.705900
      51    1      4   0.09673809     1.691600     7.131400     2.252000
      52    1      2  -0.19447150    -0.206500     6.115500     1.837200
      53    1      2  -0.19447150     0.251200     5.996600     0.368900
      54    1      4   0.09673809    -1.324700     6.332000     1.885600
      55    1      4   0.09673809     0.032600     5.166600     2.422400
      56    1      4   0.09673809     0.100700     7.027400    -0.094500
      57    1      4   0.09673809     1.363600     5.749300     0.340000
      58    1      2  -0.19447150    -0.515600     5.009000    -0.535300
      59    1      2  -0.19447150    -0.397700     3.488800    -0.294400
      60    1      4   0.09673809    -0.125900     5.183900    -1.592200
      61    1      4   0.09673809    -1.620500     5.288600    -0.511000
      62    1      4   0.09673809     0.688000     3.147900    -0.360800
      63    1      4   0.09673809    -0.855100     3.187300     0.705400
      64    1      2  -0.19447150    -2.711400     0.123000    -3.627600
      65    1      2  -0.19447150    -3.669000     0.542500    -4.759300
      66    1      4   0.09673809    -3.264300    -0.543900    -2.888200
      67    1      4   0.09673809    -1.799300    -0.421300    -4.040600
      68    1      4   0.09673809    -4.513100     1.124800    -4.261900
      69    1      4   0.09673809    -3.122500     1.234500    -5.482300
      70    1      2  -0.19447150    -4.316800    -0.607700    -5.555700
      71    1      2  -0.19447150    -3.342900    -1.396000    -6.452000
      72    1      4   0.09673809    -5.094600    -0.138900    -6.244600
      73    1      4   0.09673809    -4.843500    -1.319000    -4.836900
      74    1      4   0.09673809    -2.829900    -0.678000    -7.174300
      75    1      4   0.09673809    -2.561800    -1.947100    -5.831200
      76    1      2  -0.19447150    -4.227500    -2.379300    -7.243600
      77    1      2  -0.19447150    -3.455100    -3.206600    -8.289100
      78    1      4   0.09673809    -5.025700    -1.778700    -7.792600
      79    1      4   0.09673809    -4.738000    -3.085400    -6.508000
      80    1      4   0.09673809    -2.963400    -2.514300    -9.049900
      81    1      4   0.09673809    -2.660300    -3.843100    -7.776200
      82    1      2  -0.19447150    -4.491000    -4.108500    -8.989100
      83    1      2  -0.19447150    -3.848700    -4.996200   -10.071400
      84    1      4   0.09673809    -5.290300    -3.455200    -9.473300
      85    1      4   0.09673809    -4.980000    -4.775800    -8.205100
      86    1      4   0.09673809    -3.379700    -4.350200   -10.885300
      87    1      4   0.09673809    -3.047900    -5.653100    -9.595000
      88    1      2  -0.19447150    -4.952200    -5.890900   -10.670200
      89    1      2  -0.19447150    -4.364400    -6.844400   -11.728100
      90    1      4   0.09673809    -5.755600    -5.239100   -11.149200
      91    1      4   0.09673809    -5.418400    -6.510400    -9.834300
      92    1      4   0.09673809    -3.917700    -6.246900   -12.590200
      93    1      4   0.09673809    -3.551700    -7.480800   -11.244500
      94    1      2  -0.19447150    -5.483500    -7.764400   -12.250700
      95    1      2  -0.19447150    -4.906100    -8.760600   -13.272400
      96    1      4   0.09673809    -6.300000    -7.138900   -12.741800
      97    1      4   0.09673809    -5.927400    -8.343400   -11.374700
      98    1      4   0.09673809    -4.470700    -8.192500   -14.159900
      99    1      4   0.09673809    -4.084800    -9.377000   -12.777900
     100    1      2  -0.19447150    -2.897500    -0.475200    -0.813400
     101    1      2  -0.19447150    -2.128000    -1.722200    -1.298200
     102    1      4   0.09673809    -3.654900    -0.205100    -1.621300
     103    1      4   0.09673809    -3.472400    -0.785800     0.120800
     104    1      4   0.09673809    -2.930800    -2.490400    -1.552000
     105    1      4   0.09673809    -1.523200    -1.503000    -2.239700
     106    1      2  -0.19447150    -1.244400    -2.383700    -0.222000
     107    1      2  -0.19447150    -0.985000    -3.818200    -0.724000
     108    1      4   0.09673809    -1.845900    -2.469300     0.742700
     109    1      4   0.09673809    -0.288500    -1.792900    -0.031600
     110    1      4   0.09673809    -2.012700    -4.276100    -0.906900
     111    1      4   0.09673809    -0.411800    -3.804200    -1.709300
     112    1      2  -0.19447150    -0.269500    -4.733100     0.290400
     113    1      2  -0.19447150    -0.464200    -6.167600    -0.241200
     114    1      4   0.09673809    -0.792400    -4.658400     1.300600
     115    1      4   0.09673809     0.829500    -4.451100     0.401800
     116    1      4   0.09673809    -0.003100    -6.266500    -1.279000
     117    1      4   0.09673809    -1.589600    -6.330100    -0.325500
     118    1      2  -0.19447150     0.090200    -7.280100     0.673000
     119    1      2  -0.19447150    -0.481700    -8.593500     0.101900
     120    1      4   0.09673809    -0.303200    -7.145000     1.734200
     121    1      4   0.09673809     1.230500    -7.269800     0.678500
     122    1      4   0.09673809    -0.158700    -8.710700    -0.984800
     123    1      4   0.09673809    -1.617800    -8.503300     0.136500
     124    1      2  -0.19447150    -0.086100    -9.865100     0.878400
     125    1      2  -0.19447150     1.404600   -10.205500     0.694500
     126    1      4   0.09673809    -0.684900   -10.732500     0.443400
     127    1      4   0.09673809    -0.342200    -9.756400     1.983800
     128    1      4   0.09673809     2.073100    -9.406700     1.158500
     129    1      4   0.09673809     1.622100   -10.283000    -0.421700
     130    1      2  -0.19447150     1.659200   -11.582500     1.339200
     131    1      2  -0.19447150     3.090000   -12.063700     1.035600
     132    1      4   0.09673809     0.929300   -12.332300     0.886400
     133    1      4   0.09673809     1.492700   -11.527100     2.465600
     134    1      4   0.09673809     3.849800   -11.345900     1.491000
     135    1      4   0.09673809     3.233300   -12.103100    -0.094500
     136    1      3  -0.12821812    -1.413100     1.430200    -1.722000
     137    1      2  -0.19447150    -1.202900     2.941500    -1.489600
     138    1      2  -0.19447150    -2.317900     1.460900    -2.971500
     139    1      2  -0.19447150    -2.129300     0.825300    -0.495100
     140    1      4   0.09673809    -0.440600     0.882800    -1.952900
     141    1      4   0.09673809    -2.247700     3.387900    -1.395900
     142    1      4   0.09673809    -0.721500     3.360800    -2.433800
     143    1      4   0.09673809    -3.274100     2.011100    -2.684500
     144    1      4   0.09673809    -1.780000     2.068700    -3.771700
     145    1      4   0.09673809    -2.922000     1.578800    -0.173300
     146    1      4   0.09673809    -1.392000     0.681700     0.362800

Bonds

       1      1        1        2
       2      2        1        3
       3      2        1        4
       4      2        1        5
       5      5        2        6
       6      5        2        7
       7      3        2       22
       8      1        8        9
       9      2        8       10
      10      2        8       11
      11      2        8       12
      12      5        9       13
      13      5        9       14
      14      3        9       95
      15      1       15       16
      16      2       15       17
      17      2       15       18
      18      2       15       19
      19      5       16       20
      20      5       16       21
      21      3       16      131
      22      3       22       23
      23      5       22       24
      24      5       22       25
      25      5       23       26
      26      5       23       27
      27      3       23       28
      28      3       28       29
      29      5       28       30
      30      5       28       31
      31      5       29       32
      32      5       29       33
      33      3       29       34
      34      3       34       35
      35      5       34       36
      36      5       34       37
      37      5       35       38
      38      5       35       39
      39      3       35       40
      40      3       40       41
      41      5       40       42
      42      5       40       43
      43      5       41       44
      44      5       41       45
      45      3       41       46
      46      3       46       47
      47      5       46       48
      48      5       46       49
      49      5       47       50
      50      5       47       51
      51      3       47       52
      52      3       52       53
      53      5       52       54
      54      5       52       55
      55      5       53       56
      56      5       53       57
      57      3       53       58
      58      3       58       59
      59      5       58       60
      60      5       58       61
      61      5       59       62
      62      5       59       63
      63      3       59      137
      64      3       64       65
      65      5       64       66
      66      5       64       67
      67      3       64      138
      68      5       65       68
      69      5       65       69
      70      3       65       70
      71      3       70       71
      72      5       70       72
      73      5       70       73
      74      5       71       74
      75      5       71       75
      76      3       71       76
      77      3       76       77
      78      5       76       78
      79      5       76       79
      80      5       77       80
      81      5       77       81
      82      3       77       82
      83      3       82       83
      84      5       82       84
      85      5       82       85
      86      5       83       86
      87      5       83       87
      88      3       83       88
      89      3       88       89
      90      5       88       90
      91      5       88       91
      92      5       89       92
      93      5       89       93
      94      3       89       94
      95      3       94       95
      96      5       94       96
      97      5       94       97
      98      5       95       98
      99      5       95       99
     100      3      100      101
     101      5      100      102
     102      5      100      103
     103      3      100      139
     104      5      101      104
     105      5      101      105
     106      3      101      106
     107      3      106      107
     108      5      106      108
     109      5      106      109
     110      5      107      110
     111      5      107      111
     112      3      107      112
     113      3      112      113
     114      5      112      114
     115      5      112      115
     116      5      113      116
     117      5      113      117
     118      3      113      118
     119      3      118      119
     120      5      118      120
     121      5      118      121
     122      5      119      122
     123      5      119      123
     124      3      119      124
     125      3      124      125
     126      5      124      126
     127      5      124      127
     128      5      125      128
     129      5      125      129
     130      3      125      130
     131      3      130      131
     132      5      130      132
     133      5      130      133
     134      5      131      134
     135      5      131      135
     136      4      136      137
     137      4      136      138
     138      4      136      139
     139      6      136      140
     140      5      137      141
     141      5      137      142
     142      5      138      143
     143      5      138      144
     144      5      139      145
     145      5      139      146

Angles

       1      2        1        2        6
       2      2        1        2        7
       3      1        1        2       22
       4      3        2        1        3
       5      3        2        1        4
       6      3        2        1        5
       7      4        2       22       23
       8      6        2       22       24
       9      6        2       22       25
      10     10        3        1        4
      11     10        3        1        5
      12     10        4        1        5
      13     11        6        2        7
      14      6        6        2       22
      15      6        7        2       22
      16      2        8        9       13
      17      2        8        9       14
      18      1        8        9       95
      19      3        9        8       10
      20      3        9        8       11
      21      3        9        8       12
      22      4        9       95       94
      23      6        9       95       98
      24      6        9       95       99
      25     10       10        8       11
      26     10       10        8       12
      27     10       11        8       12
      28     11       13        9       14
      29      6       13        9       95
      30      6       14        9       95
      31      2       15       16       20
      32      2       15       16       21
      33      1       15       16      131
      34      3       16       15       17
      35      3       16       15       18
      36      3       16       15       19
      37      4       16      131      130
      38      6       16      131      134
      39      6       16      131      135
      40     10       17       15       18
      41     10       17       15       19
      42     10       18       15       19
      43     11       20       16       21
      44      6       20       16      131
      45      6       21       16      131
      46      6       22       23       26
      47      6       22       23       27
      48      4       22       23       28
      49      6       23       22       24
      50      6       23       22       25
      51      4       23       28       29
      52      6       23       28       30
      53      6       23       28       31
      54     11       24       22       25
      55     11       26       23       27
      56      6       26       23       28
      57      6       27       23       28
      58      6       28       29       32
      59      6       28       29       33
      60      4       28       29       34
      61      6       29       28       30
      62      6       29       28       31
      63      4       29       34       35
      64      6       29       34       36
      65      6       29       34       37
      66     11       30       28       31
      67     11       32       29       33
      68      6       32       29       34
      69      6       33       29       34
      70      6       34       35       38
      71      6       34       35       39
      72      4       34       35       40
      73      6       35       34       36
      74      6       35       34       37
      75      4       35       40       41
      76      6       35       40       42
      77      6       35       40       43
      78     11       36       34       37
      79     11       38       35       39
      80      6       38       35       40
      81      6       39       35       40
      82      6       40       41       44
      83      6       40       41       45
      84      4       40       41       46
      85      6       41       40       42
      86      6       41       40       43
      87      4       41       46       47
      88      6       41       46       48
      89      6       41       46       49
      90     11       42       40       43
      91     11       44       41       45
      92      6       44       41       46
      93      6       45       41       46
      94      6       46       47       50
      95      6       46       47       51
      96      4       46       47       52
      97      6       47       46       48
      98      6       47       46       49
      99      4       47       52       53
     100      6       47       52       54
     101      6       47       52       55
     102     11       48       46       49
     103     11       50       47       51
     104      6       50       47       52
     105      6       51       47       52
     106      6       52       53       56
     107      6       52       53       57
     108      4       52       53       58
     109      6       53       52       54
     110      6       53       52       55
     111      4       53       58       59
     112      6       53       58       60
     113      6       53       58       61
     114     11       54       52       55
     115     11       56       53       57
     116      6       56       53       58
     117      6       57       53       58
     118      6       58       59       62
     119      6       58       59       63
     120      4       58       59      137
     121      6       59       58       60
     122      6       59       58       61
     123      5       59      137      136
     124      6       59      137      141
     125      6       59      137      142
     126     11       60       58       61
     127     11       62       59       63
     128      6       62       59      137
     129      6       63       59      137
     130      6       64       65       68
     131      6       64       65       69
     132      4       64       65       70
     133      5       64      138      136
     134      6       64      138      143
     135      6       64      138      144
     136      6       65       64       66
     137      6       65       64       67
     138      4       65       64      138
     139      4       65       70       71
     140      6       65       70       72
     141      6       65       70       73
     142     11       66       64       67
     143      6       66       64      138
     144      6       67       64      138
     145     11       68       65       69
     146      6       68       65       70
     147      6       69       65       70
     148      6       70       71       74
     149      6       70       71       75
     150      4       70       71       76
     151      6       71       70       72
     152      6       71       70       73
     153      4       71       76       77
     154      6       71       76       78
     155      6       71       76       79
     156     11       72       70       73
     157     11       74       71       75
     158      6       74       71       76
     159      6       75       71       76
     160      6       76       77       80
     161      6       76       77       81
     162      4       76       77       82
     163      6       77       76       78
     164      6       77       76       79
     165      4       77       82       83
     166      6       77       82       84
     167      6       77       82       85
     168     11       78       76       79
     169     11       80       77       81
     170      6       80       77       82
     171      6       81       77       82
     172      6       82       83       86
     173      6       82       83       87
     174      4       82       83       88
     175      6       83       82       84
     176      6       83       82       85
     177      4       83       88       89
     178      6       83       88       90
     179      6       83       88       91
     180     11       84       82       85
     181     11       86       83       87
     182      6       86       83       88
     183      6       87       83       88
     184      6       88       89       92
     185      6       88       89       93
     186      4       88       89       94
     187      6       89       88       90
     188      6       89       88       91
     189      4       89       94       95
     190      6       89       94       96
     191      6       89       94       97
     192     11       90       88       91
     193     11       92       89       93
     194      6       92       89       94
     195      6       93       89       94
     196      6       94       95       98
     197      6       94       95       99
     198      6       95       94       96
     199      6       95       94       97
     200     11       96       94       97
     201     11       98       95       99
     202      6      100      101      104
     203      6      100      101      105
     204      4      100      101      106
     205      5      100      139      136
     206      6      100      139      145
     207      6      100      139      146
     208      6      101      100      102
     209      6      101      100      103
     210      4      101      100      139
     211      4      101      106      107
     212      6      101      106      108
     213      6      101      106      109
     214     11      102      100      103
     215      6      102      100      139
     216      6      103      100      139
     217     11      104      101      105
     218      6      104      101      106
     219      6      105      101      106
     220      6      106      107      110
     221      6      106      107      111
     222      4      106      107      112
     223      6      107      106      108
     224      6      107      106      109
     225      4      107      112      113
     226      6      107      112      114
     227      6      107      112      115
     228     11      108      106      109
     229     11      110      107      111
     230      6      110      107      112
     231      6      111      107      112
     232      6      112      113      116
     233      6      112      113      117
     234      4      112      113      118
     235      6      113      112      114
     236      6      113      112      115
     237      4      113      118      119
     238      6      113      118      120
     239      6      113      118      121
     240     11      114      112      115
     241     11      116      113      117
     242      6      116      113      118
     243      6      117      113      118
     244      6      118      119      122
     245      6      118      119      123
     246      4      118      119      124
     247      6      119      118      120
     248      6      119      118      121
     249      4      119      124      125
     250      6      119      124      126
     251      6      119      124      127
     252     11      120      118      121
     253     11      122      119      123
     254      6      122      119      124
     255      6      123      119      124
     256      6      124      125      128
     257      6      124      125      129
     258      4      124      125      130
     259      6      125      124      126
     260      6      125      124      127
     261      4      125      130      131
     262      6      125      130      132
     263      6      125      130      133
     264     11      126      124      127
     265     11      128      125      129
     266      6      128      125      130
     267      6      129      125      130
     268      6      130      131      134
     269      6      130      131      135
     270      6      131      130      132
     271      6      131      130      133
     272     11      132      130      133
     273     11      134      131      135
     274      9      136      137      141
     275      9      136      137      142
     276      9      136      138      143
     277      9      136      138      144
     278      9      136      139      145
     279      9      136      139      146
     280      7      137      136      138
     281      7      137      136      139
     282      8      137      136      140
     283      7      138      136      139
     284      8      138      136      140
     285      8      139      136      140
     286     11      141      137      142
     287     11      143      138      144
     288     11      145      139      146

Dihedrals

       1      1        1        2       22       23
       2      2        1        2       22       24
       3      2        1        2       22       25
       4      6        2       22       23       26
       5      6        2       22       23       27
       6      4        2       22       23       28
       7     11        3        1        2        6
       8     11        3        1        2        7
       9      3        3        1        2       22
      10     11        4        1        2        6
      11     11        4        1        2        7
      12      3        4        1        2       22
      13     11        5        1        2        6
      14     11        5        1        2        7
      15      3        5        1        2       22
      16      6        6        2       22       23
      17     12        6        2       22       24
      18     12        6        2       22       25
      19      6        7        2       22       23
      20     12        7        2       22       24
      21     12        7        2       22       25
      22      1        8        9       95       94
      23      2        8        9       95       98
      24      2        8        9       95       99
      25      4        9       95       94       89
      26      6        9       95       94       96
      27      6        9       95       94       97
      28     11       10        8        9       13
      29     11       10        8        9       14
      30      3       10        8        9       95
      31     11       11        8        9       13
      32     11       11        8        9       14
      33      3       11        8        9       95
      34     11       12        8        9       13
      35     11       12        8        9       14
      36      3       12        8        9       95
      37      6       13        9       95       94
      38     12       13        9       95       98
      39     12       13        9       95       99
      40      6       14        9       95       94
      41     12       14        9       95       98
      42     12       14        9       95       99
      43      1       15       16      131      130
      44      2       15       16      131      134
      45      2       15       16      131      135
      46      4       16      131      130      125
      47      6       16      131      130      132
      48      6       16      131      130      133
      49     11       17       15       16       20
      50     11       17       15       16       21
      51      3       17       15       16      131
      52     11       18       15       16       20
      53     11       18       15       16       21
      54      3       18       15       16      131
      55     11       19       15       16       20
      56     11       19       15       16       21
      57      3       19       15       16      131
      58      6       20       16      131      130
      59     12       20       16      131      134
      60     12       20       16      131      135
      61      6       21       16      131      130
      62     12       21       16      131      134
      63     12       21       16      131      135
      64      4       22       23       28       29
      65      6       22       23       28       30
      66      6       22       23       28       31
      67      6       23       28       29       32
      68      6       23       28       29       33
      69      4       23       28       29       34
      70     12       24       22       23       26
      71     12       24       22       23       27
      72      6       24       22       23       28
      73     12       25       22       23       26
      74     12       25       22       23       27
      75      6       25       22       23       28
      76      6       26       23       28       29
      77     12       26       23       28       30
      78     12       26       23       28       31
      79      6       27       23       28       29
      80     12       27       23       28       30
      81     12       27       23       28       31
      82      4       28       29       34       35
      83      6       28       29       34       36
      84      6       28       29       34       37
      85      6       29       34       35       38
      86      6       29       34       35       39
      87      4       29       34       35       40
      88     12       30       28       29       32
      89     12       30       28       29       33
      90      6       30       28       29       34
      91     12       31       28       29       32
      92     12       31       28       29       33
      93      6       31       28       29       34
      94      6       32       29       34       35
      95     12       32       29       34       36
      96     12       32       29       34       37
      97      6       33       29       34       35
      98     12       33       29       34       36
      99     12       33       29       34       37
     100      4       34       35       40       41
     101      6       34       35       40       42
     102      6       34       35       40       43
     103      6       35       40       41       44
     104      6       35       40       41       45
     105      4       35       40       41       46
     106     12       36       34       35       38
     107     12       36       34       35       39
     108      6       36       34       35       40
     109     12       37       34       35       38
     110     12       37       34       35       39
     111      6       37       34       35       40
     112      6       38       35       40       41
     113     12       38       35       40       42
     114     12       38       35       40       43
     115      6       39       35       40       41
     116     12       39       35       40       42
     117     12       39       35       40       43
     118      4       40       41       46       47
     119      6       40       41       46       48
     120      6       40       41       46       49
     121      6       41       46       47       50
     122      6       41       46       47       51
     123      4       41       46       47       52
     124     12       42       40       41       44
     125     12       42       40       41       45
     126      6       42       40       41       46
     127     12       43       40       41       44
     128     12       43       40       41       45
     129      6       43       40       41       46
     130      6       44       41       46       47
     131     12       44       41       46       48
     132     12       44       41       46       49
     133      6       45       41       46       47
     134     12       45       41       46       48
     135     12       45       41       46       49
     136      4       46       47       52       53
     137      6       46       47       52       54
     138      6       46       47       52       55
     139      6       47       52       53       56
     140      6       47       52       53       57
     141      4       47       52       53       58
     142     12       48       46       47       50
     143     12       48       46       47       51
     144      6       48       46       47       52
     145     12       49       46       47       50
     146     12       49       46       47       51
     147      6       49       46       47       52
     148      6       50       47       52       53
     149     12       50       47       52       54
     150     12       50       47       52       55
     151      6       51       47       52       53
     152     12       51       47       52       54
     153     12       51       47       52       55
     154      4       52       53       58       59
     155      6       52       53       58       60
     156      6       52       53       58       61
     157      6       53       58       59       62
     158      6       53       58       59       63
     159      4       53       58       59      137
     160     12       54       52       53       56
     161     12       54       52       53       57
     162      6       54       52       53       58
     163     12       55       52       53       56
     164     12       55       52       53       57
     165      6       55       52       53       58
     166      6       56       53       58       59
     167     12       56       53       58       60
     168     12       56       53       58       61
     169      6       57       53       58       59
     170     12       57       53       58       60
     171     12       57       53       58       61
     172      5       58       59      137      136
     173      6       58       59      137      141
     174      6       58       59      137      142
     175      7       59      137      136      138
     176      7       59      137      136      139
     177      8       59      137      136      140
     178     12       60       58       59       62
     179     12       60       58       59       63
     180      6       60       58       59      137
     181     12       61       58       59       62
     182     12       61       58       59       63
     183      6       61       58       59      137
     184     10       62       59      137      136
     185     12       62       59      137      141
     186     12       62       59      137      142
     187     10       63       59      137      136
     188     12       63       59      137      141
     189     12       63       59      137      142
     190      4       64       65       70       71
     191      6       64       65       70       72
     192      6       64       65       70       73
     193      7       64      138      136      137
     194      7       64      138      136      139
     195      8       64      138      136      140
     196      5       65       64      138      136
     197      6       65       64      138      143
     198      6       65       64      138      144
     199      6       65       70       71       74
     200      6       65       70       71       75
     201      4       65       70       71       76
     202     12       66       64       65       68
     203     12       66       64       65       69
     204      6       66       64       65       70
     205     10       66       64      138      136
     206     12       66       64      138      143
     207     12       66       64      138      144
     208     12       67       64       65       68
     209     12       67       64       65       69
     210      6       67       64       65       70
     211     10       67       64      138      136
     212     12       67       64      138      143
     213     12       67       64      138      144
     214      6       68       65       64      138
     215      6       68       65       70       71
     216     12       68       65       70       72
     217     12       68       65       70       73
     218      6       69       65       64      138
     219      6       69       65       70       71
     220     12       69       65       70       72
     221     12       69       65       70       73
     222      4       70       65       64      138
     223      4       70       71       76       77
     224      6       70       71       76       78
     225      6       70       71       76       79
     226      6       71       76       77       80
     227      6       71       76       77       81
     228      4       71       76       77       82
     229     12       72       70       71       74
     230     12       72       70       71       75
     231      6       72       70       71       76
     232     12       73       70       71       74
     233     12       73       70       71       75
     234      6       73       70       71       76
     235      6       74       71       76       77
     236     12       74       71       76       78
     237     12       74       71       76       79
     238      6       75       71       76       77
     239     12       75       71       76       78
     240     12       75       71       76       79
     241      4       76       77       82       83
     242      6       76       77       82       84
     243      6       76       77       82       85
     244      6       77       82       83       86
     245      6       77       82       83       87
     246      4       77       82       83       88
     247     12       78       76       77       80
     248     12       78       76       77       81
     249      6       78       76       77       82
     250     12       79       76       77       80
     251     12       79       76       77       81
     252      6       79       76       77       82
     253      6       80       77       82       83
     254     12       80       77       82       84
     255     12       80       77       82       85
     256      6       81       77       82       83
     257     12       81       77       82       84
     258     12       81       77       82       85
     259      4       82       83       88       89
     260      6       82       83       88       90
     261      6       82       83       88       91
     262      6       83       88       89       92
     263      6       83       88       89       93
     264      4       83       88       89       94
     265     12       84       82       83       86
     266     12       84       82       83       87
     267      6       84       82       83       88
     268     12       85       82       83       86
     269     12       85       82       83       87
     270      6       85       82       83       88
     271      6       86       83       88       89
     272     12       86       83       88       90
     273     12       86       83       88       91
     274      6       87       83       88       89
     275     12       87       83       88       90
     276     12       87       83       88       91
     277      4       88       89       94       95
     278      6       88       89       94       96
     279      6       88       89       94       97
     280      6       89       94       95       98
     281      6       89       94       95       99
     282     12       90       88       89       92
     283     12       90       88       89       93
     284      6       90       88       89       94
     285     12       91       88       89       92
     286     12       91       88       89       93
     287      6       91       88       89       94
     288      6       92       89       94       95
     289     12       92       89       94       96
     290     12       92       89       94       97
     291      6       93       89       94       95
     292     12       93       89       94       96
     293     12       93       89       94       97
     294     12       96       94       95       98
     295     12       96       94       95       99
     296     12       97       94       95       98
     297     12       97       94       95       99
     298      4      100      101      106      107
     299      6      100      101      106      108
     300      6      100      101      106      109
     301      7      100      139      136      137
     302      7      100      139      136      138
     303      8      100      139      136      140
     304      5      101      100      139      136
     305      6      101      100      139      145
     306      6      101      100      139      146
     307      6      101      106      107      110
     308      6      101      106      107      111
     309      4      101      106      107      112
     310     12      102      100      101      104
     311     12      102      100      101      105
     312      6      102      100      101      106
     313     10      102      100      139      136
     314     12      102      100      139      145
     315     12      102      100      139      146
     316     12      103      100      101      104
     317     12      103      100      101      105
     318      6      103      100      101      106
     319     10      103      100      139      136
     320     12      103      100      139      145
     321     12      103      100      139      146
     322      6      104      101      100      139
     323      6      104      101      106      107
     324     12      104      101      106      108
     325     12      104      101      106      109
     326      6      105      101      100      139
     327      6      105      101      106      107
     328     12      105      101      106      108
     329     12      105      101      106      109
     330      4      106      101      100      139
     331      4      106      107      112      113
     332      6      106      107      112      114
     333      6      106      107      112      115
     334      6      107      112      113      116
     335      6      107      112      113      117
     336      4      107      112      113      118
     337     12      108      106      107      110
     338     12      108      106      107      111
     339      6      108      106      107      112
     340     12      109      106      107      110
     341     12      109      106      107      111
     342      6      109      106      107      112
     343      6      110      107      112      113
     344     12      110      107      112      114
     345     12      110      107      112      115
     346      6      111      107      112      113
     347     12      111      107      112      114
     348     12      111      107      112      115
     349      4      112      113      118      119
     350      6      112      113      118      120
     351      6      112      113      118      121
     352      6      113      118      119      122
     353      6      113      118      119      123
     354      4      113      118      119      124
     355     12      114      112      113      116
     356     12      114      112      113      117
     357      6      114      112      113      118
     358     12      115      112      113      116
     359     12      115      112      113      117
     360      6      115      112      113      118
     361      6      116      113      118      119
     362     12      116      113      118      120
     363     12      116      113      118      121
     364      6      117      113      118      119
     365     12      117      113      118      120
     366     12      117      113      118      121
     367      4      118      119      124      125
     368      6      118      119      124      126
     369      6      118      119      124      127
     370      6      119      124      125      128
     371      6      119      124      125      129
     372      4      119      124      125      130
     373     12      120      118      119      122
     374     12      120      118      119      123
     375      6      120      118      119      124
     376     12      121      118      119      122
     377     12      121      118      119      123
     378      6      121      118      119      124
     379      6      122      119      124      125
     380     12      122      119      124      126
     381     12      122      119      124      127
     382      6      123      119      124      125
     383     12      123      119      124      126
     384     12      123      119      124      127
     385      4      124      125      130      131
     386      6      124      125      130      132
     387      6      124      125      130      133
     388      6      125      130      131      134
     389      6      125      130      131      135
     390     12      126      124      125      128
     391     12      126      124      125      129
     392      6      126      124      125      130
     393     12      127      124      125      128
     394     12      127      124      125      129
     395      6      127      124      125      130
     396      6      128      125      130      131
     397     12      128      125      130      132
     398     12      128      125      130      133
     399      6      129      125      130      131
     400     12      129      125      130      132
     401     12      129      125      130      133
     402     12      132      130      131      134
     403     12      132      130      131      135
     404     12      133      130      131      134
     405     12      133      130      131      135
     406      9      137      136      138      143
     407      9      137      136      138      144
     408      9      137      136      139      145
     409      9      137      136      139      146
     410      9      138      136      137      141
     411      9      138      136      137      142
     412      9      138      136      139      145
     413      9      138      136      139      146
     414      9      139      136      137      141
     415      9      139      136      137      142
     416      9      139      136      138      143
     417      9      139      136      138      144
     418     13      140      136      137      141
     419     13      140      136      137      142
     420     13      140      136      138      143
     421     13      140      136      138      144
     422     13      140      136      139      145
     423     13      140      136      139      146

Impropers


