LAMMPS data file generated by clean-room 1-hop pipeline

     227 atoms
     238 bonds
     426 angles
     634 dihedrals
      72 impropers

       9 atom types
      17 bond types
      38 angle types
      69 dihedral types
      10 improper types

  -42.920500    38.358000 xlo xhi
  -32.034600    32.403400 ylo yhi
  -31.195100    31.115100 zlo zhi

Masses

       1    12.011000
       2    12.011000
       3    12.011000
       4    12.011000
       5    12.011000
       6    12.011000
       7    12.011000
       8     1.008000
       9     1.008000

Pair Coeffs

       1     0.070000     3.550000
       2     0.070000     3.550000
       3     0.070000     3.550000
       4     0.066000     3.500000
       5     0.066000     3.500000
       6     0.066000     3.500000
       7     0.066000     3.500000
       8     0.030000     2.420000
       9     0.030000     2.500000

Bond Coeffs

       1   469.000000     1.400000
       2   469.000000     1.400000
       3   469.000000     1.400000
       4   317.000000     1.510000
       5   469.000000     1.400000
       6   469.000000     1.400000
       7   367.000000     1.080000
       8   385.000000     1.460000
       9   268.000000     1.529000
      10   268.000000     1.529000
      11   268.000000     1.529000
      12   340.000000     1.090000
      13   268.000000     1.529000
      14   340.000000     1.090000
      15   268.000000     1.529000
      16   268.000000     1.529000
      17   340.000000     1.090000

Angle Coeffs

       1    63.000000   120.000000
       2    70.000000   120.000000
       3    63.000000   120.000000
       4    63.000000   120.000000
       5    63.000000   120.000000
       6    35.000000   120.000000
       7    63.000000   120.000000
       8    63.000000   120.000000
       9    63.000000   114.000000
      10    63.000000   114.000000
      11    63.000000   114.000000
      12    35.000000   109.500000
      13    63.000000   120.000000
      14    63.000000   120.000000
      15    70.000000   120.000000
      16    63.000000   120.000000
      17    63.000000   120.000000
      18    35.000000   120.000000
      19    63.000000   120.000000
      20    63.000000   120.000000
      21    70.000000   120.000000
      22    35.000000   120.000000
      23    37.500000   110.700000
      24    37.500000   110.700000
      25    58.350000   112.700000
      26    58.350000   112.700000
      27    37.500000   110.700000
      28    58.350000   112.700000
      29    37.500000   110.700000
      30    37.500000   110.700000
      31    58.350000   112.700000
      32    37.500000   110.700000
      33    58.350000   112.700000
      34    37.500000   110.700000
      35    37.500000   110.700000
      36    33.000000   107.800000
      37    33.000000   107.800000
      38    33.000000   107.800000

Dihedral Coeffs

       1     0.000000     7.250000     0.000000     0.000000
       2     0.000000     7.250000     0.000000     0.000000
       3     0.000000     7.250000     0.000000     0.000000
       4    -0.250000     0.000000     0.000000     0.000000
       5    -0.250000     0.000000     0.000000     0.000000
       6     0.000000     0.000000     0.000000     0.000000
       7     0.000000     7.250000     0.000000     0.000000
       8     0.000000     7.250000     0.000000     0.000000
       9     0.000000     7.250000     0.000000     0.000000
      10     0.000000     7.250000     0.000000     0.000000
      11     0.000000     7.250000     0.000000     0.000000
      12     0.000000     7.250000     0.000000     0.000000
      13     0.000000     7.250000     0.000000     0.000000
      14     0.000000     7.250000     0.000000     0.000000
      15     0.000000     7.250000     0.000000     0.000000
      16     0.000000     7.250000     0.000000     0.000000
      17     0.000000     7.250000     0.000000     0.000000
      18     0.000000     1.650000     0.000000    -0.050000
      19     0.000000     0.000000     0.000000     0.000000
      20     0.000000     0.000000     0.462000     0.000000
      21     0.000000     0.000000     0.462000     0.000000
      22     0.000000     0.000000     0.000000     0.000000
      23     0.000000     0.000000     0.000000     0.000000
      24     0.000000     7.250000     0.000000     0.000000
      25     0.000000     7.250000     0.000000     0.000000
      26     0.000000     7.250000     0.000000     0.000000
      27     0.000000     7.250000     0.000000     0.000000
      28     0.000000     7.250000     0.000000     0.000000
      29     0.000000     7.250000     0.000000     0.000000
      30     0.000000     7.250000     0.000000     0.000000
      31    -0.250000     0.000000     0.000000     0.000000
      32    -0.250000     0.000000     0.000000     0.000000
      33    -0.250000     0.000000     0.000000     0.000000
      34     0.000000     0.000000     0.000000     0.000000
      35     0.000000     7.250000     0.000000     0.000000
      36     0.000000     7.250000     0.000000     0.000000
      37     0.000000     7.250000     0.000000     0.000000
      38     0.000000     7.250000     0.000000     0.000000
      39     0.000000     7.250000     0.000000     0.000000
      40     0.000000     7.250000     0.000000     0.000000
      41     0.000000     7.250000     0.000000     0.000000
      42     0.000000     7.250000     0.000000     0.000000
      43     0.000000     1.650000     0.000000    -0.050000
      44     0.000000     7.250000     0.000000     0.000000
      45    -0.250000     0.000000     0.000000     0.000000
      46     0.000000     0.000000     0.000000     0.000000
      47     0.000000     7.250000     0.000000     0.000000
      48     0.000000     7.250000     0.000000     0.000000
      49     0.000000     7.250000     0.000000     0.000000
      50     0.000000     7.250000     0.000000     0.000000
      51     0.000000     7.250000     0.000000     0.000000
      52     0.000000     7.250000     0.000000     0.000000
      53     0.000000     7.250000     0.000000     0.000000
      54     0.000000     0.000000     0.300000     0.000000
      55     0.850000    -0.200000     0.200000     0.000000
      56     0.000000     0.000000     0.300000     0.000000
      57     0.850000    -0.200000     0.200000     0.000000
      58     0.000000     0.000000     0.300000     0.000000
      59     0.000000     0.000000     0.300000     0.000000
      60     0.850000    -0.200000     0.200000     0.000000
      61     0.000000     0.000000     0.300000     0.000000
      62     0.000000     0.000000     0.300000     0.000000
      63     0.850000    -0.200000     0.200000     0.000000
      64     0.000000     0.000000     0.300000     0.000000
      65     0.000000     7.250000     0.000000     0.000000
      66     0.000000     0.000000     0.300000     0.000000
      67     0.000000     0.000000     0.300000     0.000000
      68     0.000000     0.000000     0.300000     0.000000
      69     0.000000     0.000000     0.300000     0.000000

Improper Coeffs

       1     2.500000   -1    2
       2     2.500000   -1    2
       3     2.500000   -1    2
       4     2.500000   -1    2
       5     2.500000   -1    2
       6     2.500000   -1    2
       7     2.500000   -1    2
       8     2.500000   -1    2
       9     2.500000   -1    2
      10     2.500000   -1    2

Atoms

       1    1      1  -0.09060460    -9.669000     2.442600    -2.902500
       2    1      2  -0.15059224    -9.188600     3.839300    -2.468200
       3    1      2  -0.15059224   -10.126600     5.052200    -2.601800
       4    1      2  -0.15059224   -11.548800     4.867600    -3.163500
       5    1      2  -0.15059224   -12.035600     3.467300    -3.581900
       6    1      2  -0.15059224   -11.097200     2.253700    -3.447700
       7    1      8   0.16478294    -8.136200     3.974000    -2.052200
       8    1      8   0.16478294    -9.768300     6.087600    -2.285900
       9    1      8   0.16478294   -12.240900     5.767200    -3.267100
      10    1      8   0.16478294   -13.090800     3.331000    -3.991600
      11    1      8   0.16478294   -11.457000     1.217200    -3.755600
      12    1      3  -0.04232960   -10.244600    -6.910800    -7.568900
      13    1      2  -0.15059224   -10.275700    -6.481700    -9.046500
      14    1      2  -0.15059224   -10.893300    -7.413200   -10.105900
      15    1      2  -0.15059224   -11.438600    -8.792600    -9.691800
      16    1      2  -0.15059224   -11.332800    -9.250500    -8.225000
      17    1      2  -0.15059224   -10.713000    -8.316300    -7.171400
      18    1      8   0.16478294    -9.863500    -5.464600    -9.354500
      19    1      8   0.16478294   -10.948900    -7.083300   -11.195100
      20    1      8   0.16478294   -11.909100    -9.479700   -10.471600
      21    1      8   0.16478294   -11.714900   -10.280700    -7.921800
      22    1      8   0.16478294   -10.576500    -8.673300    -6.098800
      23    1      1  -0.09060460   -14.096500    -7.743900    -7.640300
      24    1      2  -0.15059224   -15.218200    -7.136300    -8.504600
      25    1      2  -0.15059224   -16.200800    -8.055200    -9.254100
      26    1      2  -0.15059224   -16.048100    -9.583900    -9.160700
      27    1      2  -0.15059224   -14.905500   -10.192200    -8.327600
      28    1      2  -0.15059224   -13.926900    -9.272800    -7.574400
      29    1      8   0.16478294   -15.330600    -6.004600    -8.576100
      30    1      8   0.16478294   -17.042400    -7.602200    -9.877000
      31    1      8   0.16478294   -16.777400   -10.264100    -9.711700
      32    1      8   0.16478294   -14.783400   -11.323500    -8.267300
      33    1      8   0.16478294   -13.079700    -9.723500    -6.957300
      34    1      3  -0.04232960   -19.414000    -9.111500    -6.834700
      35    1      2  -0.15059224   -20.145100    -8.411700    -7.996300
      36    1      2  -0.15059224   -21.425400    -9.032800    -8.586700
      37    1      2  -0.15059224   -21.973500   -10.354300    -8.017700
      38    1      2  -0.15059224   -21.242200   -11.055000    -6.857800
      39    1      2  -0.15059224   -19.963900   -10.433000    -6.264900
      40    1      8   0.16478294   -19.736900    -7.433800    -8.417800
      41    1      8   0.16478294   -21.965300    -8.512400    -9.445300
      42    1      8   0.16478294   -22.920500   -10.813500    -8.455500
      43    1      8   0.16478294   -21.647000   -12.034600    -6.437000
      44    1      8   0.16478294   -19.422600   -10.950400    -5.405700
      45    1      4  -0.14308168    -8.720200     1.238000    -2.771400
      46    1      4  -0.14308168    -7.470600     1.713800    -2.007700
      47    1      9   0.09973049    -8.418100     0.877300    -3.808200
      48    1      9   0.09973049    -9.225700     0.391400    -2.201500
      49    1      9   0.09973049    -7.767600     2.052600    -0.960800
      50    1      9   0.09973049    -7.002800     2.587900    -2.568400
      51    1      4  -0.14308168    -6.075600    -3.256700    -3.205600
      52    1      4  -0.14308168    -7.607500    -3.186600    -3.425700
      53    1      9   0.09973049    -5.788800    -4.164500    -2.577400
      54    1      9   0.09973049    -5.549100    -3.296400    -4.216800
      55    1      9   0.09973049    -8.138500    -3.230000    -2.418900
      56    1      9   0.09973049    -7.815100    -2.166800    -3.891800
      57    1      1  -0.09060460    -6.443900     0.571300    -1.919600
      58    1      2  -0.15059224    -5.075400     0.821600    -1.272400
      59    1      3  -0.04232960    -4.006300    -0.285900    -1.247700
      60    1      2  -0.15059224    -4.317500    -1.668000    -1.878400
      61    1      1  -0.09060460    -5.709600    -1.918300    -2.524300
      62    1      2  -0.15059224    -6.769700    -0.803300    -2.519500
      63    1      8   0.16478294    -4.841700     1.840400    -0.816600
      64    1      8   0.16478294    -3.531100    -2.493000    -1.874000
      65    1      8   0.16478294    -7.792600    -0.989000    -2.986700
      66    1      1  -0.09060460     7.072200     6.552900     4.211200
      67    1      2  -0.15059224     7.814100     6.062100     5.470900
      68    1      1  -0.09060460     8.673900     7.033800     6.294900
      69    1      2  -0.15059224     8.755800     8.517500     5.902400
      70    1      1  -0.09060460     7.967000     9.029400     4.685500
      71    1      2  -0.15059224     7.132100     8.048700     3.839700
      72    1      8   0.16478294     7.745000     4.973400     5.789400
      73    1      8   0.16478294     9.392400     9.238100     6.515500
      74    1      8   0.16478294     6.560600     8.429000     2.929700
      75    1      3  -0.04232960    -2.651900     0.063800    -0.583400
      76    1      2  -0.15059224    -1.431900    -0.884600    -0.604100
      77    1      2  -0.15059224    -0.089500    -0.433700     0.032400
      78    1      3  -0.04232960     0.016300     0.946700     0.724100
      79    1      2  -0.15059224    -1.217100     1.863700     0.773400
      80    1      2  -0.15059224    -2.533400     1.434500     0.105900
      81    1      8   0.16478294    -1.513300    -1.907500    -1.101400
      82    1      8   0.16478294     0.820300    -1.118600    -0.010300
      83    1      8   0.16478294    -1.146700     2.878800     1.287100
      84    1      8   0.16478294    -3.431800     2.136700     0.122300
      85    1      3  -0.04232960     1.339200     1.476500     1.332400
      86    1      2  -0.15059224     2.690900     0.757700     1.125600
      87    1      2  -0.15059224     4.010000     1.458000     1.542000
      88    1      1  -0.09060460     3.971100     2.862000     2.189300
      89    1      2  -0.15059224     2.611700     3.483500     2.553900
      90    1      2  -0.15059224     1.303400     2.806400     2.106200
      91    1      8   0.16478294     2.721800    -0.263600     0.619700
      92    1      8   0.16478294     5.012400     0.961600     1.322800
      93    1      8   0.16478294     2.572700     4.487400     3.093000
      94    1      8   0.16478294     0.303100     3.312600     2.317800
      95    1      1  -0.09060460     6.137200     3.923500     6.040600
      96    1      2  -0.15059224     7.149500     2.882800     6.563100
      97    1      2  -0.15059224     7.893300     3.123500     7.892500
      98    1      1  -0.09060460     7.599100     4.383400     8.728500
      99    1      2  -0.15059224     6.560600     5.405300     8.226700
     100    1      2  -0.15059224     5.821500     5.169400     6.891800
     101    1      8   0.16478294     7.359300     1.941400     5.955600
     102    1      8   0.16478294     8.653500     2.359100     8.264200
     103    1      8   0.16478294     6.329300     6.333800     8.846900
     104    1      8   0.16478294     5.046000     5.922800     6.531000
     105    1      1  -0.09060460    12.016900     4.182500     2.557400
     106    1      2  -0.15059224    12.852400     3.039000     1.951800
     107    1      2  -0.15059224    14.364700     3.227400     1.728300
     108    1      1  -0.09060460    15.032500     4.571500     2.075300
     109    1      2  -0.15059224    14.180700     5.742700     2.594800
     110    1      2  -0.15059224    12.671500     5.552000     2.823500
     111    1      8   0.16478294    12.356700     2.045400     1.693500
     112    1      8   0.16478294    14.990500     2.370900     1.310900
     113    1      8   0.16478294    14.668700     6.748800     2.816200
     114    1      8   0.16478294    12.039000     6.419100     3.208400
     115    1      1  -0.09060460   -15.485100    -7.325600    -5.163900
     116    1      2  -0.15059224   -16.103400    -8.581600    -4.515800
     117    1      2  -0.15059224   -17.407800    -9.181200    -5.076500
     118    1      3  -0.04232960   -18.130700    -8.492800    -6.247600
     119    1      2  -0.15059224   -17.572800    -7.180600    -6.825700
     120    1      2  -0.15059224   -16.261700    -6.589600    -6.272100
     121    1      8   0.16478294   -15.590200    -9.076700    -3.626700
     122    1      8   0.16478294   -17.838100   -10.134500    -4.622300
     123    1      8   0.16478294   -18.124300    -6.650400    -7.670700
     124    1      8   0.16478294   -15.849900    -5.617700    -6.703100
     125    1      7  -0.05175194     6.120200     4.053700     3.419700
     126    1      4  -0.14308168     5.213300     3.786100     2.193200
     127    1      4  -0.14308168     5.374000     3.671100     4.721100
     128    1      4  -0.14308168     6.286700     5.589800     3.281900
     129    1      6  -0.19147910     7.479800     3.336900     3.219500
     130    1      9   0.09973049     5.863800     3.600400     1.278100
     131    1      9   0.09973049     4.722400     4.800100     2.031200
     132    1      9   0.09973049     5.136900     2.556300     4.669100
     133    1      9   0.09973049     4.389400     4.247500     4.753200
     134    1      9   0.09973049     6.723100     5.754800     2.240800
     135    1      9   0.09973049     5.223000     6.000700     3.267400
     136    1      9   0.09973049     7.840000     3.524800     2.152200
     137    1      9   0.09973049     7.392000     2.214300     3.404800
     138    1      7  -0.05175194     9.981700     3.676300     4.181900
     139    1      6  -0.19147910     8.482800     4.016200     4.164100
     140    1      6  -0.19147910    10.510200     4.670600     5.237300
     141    1      6  -0.19147910    10.120500     2.209200     4.645900
     142    1      4  -0.14308168    10.499500     4.017200     2.764100
     143    1      9   0.09973049     8.446800     5.118600     3.894900
     144    1      9   0.09973049     8.109000     3.869900     5.224900
     145    1      9   0.09973049    10.280600     5.725500     4.868500
     146    1      9   0.09973049     9.946600     4.495000     6.213100
     147    1      9   0.09973049     9.373200     2.058400     5.493800
     148    1      9   0.09973049     9.824000     1.528600     3.779000
     149    1      9   0.09973049    10.054600     5.035700     2.504300
     150    1      9   0.09973049    10.087700     3.253400     2.024300
     151    1      7  -0.05175194   -12.876700    -7.078300    -5.386100
     152    1      4  -0.14308168   -11.823700    -6.079100    -4.828600
     153    1      4  -0.14308168   -13.114100    -6.816900    -6.894500
     154    1      6  -0.19147910   -12.479200    -8.521500    -4.998800
     155    1      4  -0.14308168   -14.172900    -6.709900    -4.620600
     156    1      9   0.09973049   -12.340000    -5.070800    -4.966600
     157    1      9   0.09973049   -11.825400    -6.288600    -3.707300
     158    1      9   0.09973049   -13.475900    -5.741300    -7.012800
     159    1      9   0.09973049   -12.125600    -6.911500    -7.444500
     160    1      9   0.09973049   -11.778100    -8.975500    -5.763500
     161    1      9   0.09973049   -11.958700    -8.487900    -3.984200
     162    1      9   0.09973049   -14.045800    -6.966500    -3.515200
     163    1      9   0.09973049   -14.300300    -5.579900    -4.715900
     164    1      5  -0.26213047     9.404300     5.592300    10.076700
     165    1      4  -0.14308168     8.259700     4.561300    10.114200
     166    1      9   0.09973049    10.200800     5.251100     9.336500
     167    1      9   0.09973049     8.992900     6.603200     9.747200
     168    1      9   0.09973049     9.866100     5.691900    11.115100
     169    1      9   0.09973049     7.472300     4.910800    10.860400
     170    1      9   0.09973049     8.678100     3.558300    10.456600
     171    1      5  -0.26213047    10.535200     7.550500     7.906300
     172    1      4  -0.14308168     9.483300     6.506900     7.490200
     173    1      9   0.09973049    11.120400     7.159900     8.804000
     174    1      9   0.09973049    11.249700     7.735300     7.037000
     175    1      9   0.09973049    10.012800     8.525100     8.184500
     176    1      9   0.09973049    10.004100     5.533400     7.207500
     177    1      9   0.09973049     8.761500     6.318200     8.350200
     178    1      5  -0.26213047     8.678400    11.290100     5.484900
     179    1      4  -0.14308168     7.987400    10.529200     4.337400
     180    1      9   0.09973049     9.741400    10.901800     5.607500
     181    1      9   0.09973049     8.703900    12.403400     5.245800
     182    1      9   0.09973049     8.100900    11.121200     6.451000
     183    1      9   0.09973049     6.920600    10.908900     4.215000
     184    1      9   0.09973049     8.565000    10.691000     3.368200
     185    1      5  -0.26213047    12.381400     5.674600     6.541100
     186    1      6  -0.19147910    12.019700     4.571900     5.528700
     187    1      9   0.09973049    13.496400     5.624800     6.778500
     188    1      9   0.09973049    12.131100     6.696200     6.097300
     189    1      9   0.09973049    11.778900     5.523900     7.498400
     190    1      9   0.09973049    12.273600     3.556100     5.971800
     191    1      9   0.09973049    12.621400     4.720300     4.576600
     192    1      5  -0.26213047    12.669700     1.979900     4.275100
     193    1      6  -0.19147910    11.482600     1.779500     5.229200
     194    1      9   0.09973049    13.623800     1.599300     4.774100
     195    1      9   0.09973049    12.489000     1.403400     3.307100
     196    1      9   0.09973049    12.786400     3.092500     4.052700
     197    1      9   0.09973049    11.676500     2.377500     6.179100
     198    1      9   0.09973049    11.416000     0.675700     5.504000
     199    1      5  -0.26213047    17.239000     4.857600     3.238400
     200    1      4  -0.14308168    16.545700     4.759000     1.866100
     201    1      9   0.09973049    18.358000     4.999700     3.087600
     202    1      9   0.09973049    16.817200     5.745400     3.813100
     203    1      9   0.09973049    17.053400     3.901900     3.827300
     204    1      9   0.09973049    16.964000     3.870100     1.288600
     205    1      9   0.09973049    16.731400     5.718200     1.277500
     206    1      5  -0.26213047    -6.455900    -3.152600    -7.636300
     207    1      4  -0.14308168    -6.337600    -3.624800    -6.176000
     208    1      9   0.09973049    -7.361200    -2.464700    -7.738600
     209    1      9   0.09973049    -5.511600    -2.586100    -7.932700
     210    1      9   0.09973049    -6.589000    -4.058000    -8.318200
     211    1      9   0.09973049    -6.215300    -2.723600    -5.488000
     212    1      9   0.09973049    -5.436200    -4.313200    -6.065100
     213    1      5  -0.26213047   -13.180300   -10.880500    -4.503100
     214    1      6  -0.19147910   -13.682900    -9.458000    -4.808400
     215    1      9   0.09973049   -12.568300   -11.262800    -5.385900
     216    1      9   0.09973049   -12.527000   -10.860700    -3.566700
     217    1      9   0.09973049   -14.071500   -11.569800    -4.330800
     218    1      9   0.09973049   -14.279500    -9.074900    -3.920100
     219    1      9   0.09973049   -14.346500    -9.479400    -5.729700
     220    1      1  -0.09060460    -8.234400    -4.208900    -4.403400
     221    1      1  -0.09060460    -7.619000    -4.388100    -5.797900
     222    1      2  -0.15059224    -8.342200    -5.239100    -6.854000
     223    1      3  -0.04232960    -9.656100    -5.965800    -6.509400
     224    1      1  -0.09060460   -10.332200    -5.728500    -5.131000
     225    1      2  -0.15059224    -9.558600    -4.927100    -4.053400
     226    1      8   0.16478294    -7.888600    -5.352900    -7.894200
     227    1      8   0.16478294   -10.014800    -4.790600    -3.017500

Bonds

       1      2        1        2
       2      4        1       45
       3      5        2        3
       4      7        2        7
       5      5        3        4
       6      7        3        8
       7      5        4        5
       8      7        4        9
       9      5        5        6
      10      7        5       10
      11      2        6        1
      12      7        6       11
      13      6       12       13
      14      8       12      223
      15      5       13       14
      16      7       13       18
      17      5       14       15
      18      7       14       19
      19      5       15       16
      20      7       15       20
      21      5       16       17
      22      7       16       21
      23      6       17       12
      24      7       17       22
      25      2       23       24
      26      4       23      153
      27      5       24       25
      28      7       24       29
      29      5       25       26
      30      7       25       30
      31      5       26       27
      32      7       26       31
      33      5       27       28
      34      7       27       32
      35      2       28       23
      36      7       28       33
      37      6       34       35
      38      8       34      118
      39      5       35       36
      40      7       35       40
      41      5       36       37
      42      7       36       41
      43      5       37       38
      44      7       37       42
      45      5       38       39
      46      7       38       43
      47      6       39       34
      48      7       39       44
      49      9       45       46
      50     12       45       47
      51     12       45       48
      52     12       46       49
      53     12       46       50
      54      4       46       57
      55      9       51       52
      56     12       51       53
      57     12       51       54
      58      4       51       61
      59     12       52       55
      60     12       52       56
      61      4       52      220
      62      2       57       58
      63      6       58       59
      64      7       58       63
      65      6       59       60
      66      8       59       75
      67      2       60       61
      68      7       60       64
      69      2       61       62
      70      2       62       57
      71      7       62       65
      72      2       66       67
      73      4       66      128
      74      2       67       68
      75      7       67       72
      76      2       68       69
      77      4       68      172
      78      2       69       70
      79      7       69       73
      80      2       70       71
      81      4       70      179
      82      2       71       66
      83      7       71       74
      84      6       75       76
      85      5       76       77
      86      7       76       81
      87      6       77       78
      88      7       77       82
      89      6       78       79
      90      8       78       85
      91      5       79       80
      92      7       79       83
      93      6       80       75
      94      7       80       84
      95      6       85       86
      96      5       86       87
      97      7       86       91
      98      2       87       88
      99      7       87       92
     100      2       88       89
     101      4       88      126
     102      5       89       90
     103      7       89       93
     104      6       90       85
     105      7       90       94
     106      2       95       96
     107      4       95      127
     108      5       96       97
     109      7       96      101
     110      2       97       98
     111      7       97      102
     112      2       98       99
     113      4       98      165
     114      5       99      100
     115      7       99      103
     116      2      100       95
     117      7      100      104
     118      2      105      106
     119      4      105      142
     120      5      106      107
     121      7      106      111
     122      2      107      108
     123      7      107      112
     124      2      108      109
     125      4      108      200
     126      5      109      110
     127      7      109      113
     128      2      110      105
     129      7      110      114
     130      2      115      116
     131      4      115      155
     132      5      116      117
     133      7      116      121
     134      6      117      118
     135      7      117      122
     136      6      118      119
     137      5      119      120
     138      7      119      123
     139      2      120      115
     140      7      120      124
     141     11      125      126
     142     11      125      127
     143     11      125      128
     144     16      125      129
     145     12      126      130
     146     12      126      131
     147     12      127      132
     148     12      127      133
     149     12      128      134
     150     12      128      135
     151     17      129      136
     152     17      129      137
     153     15      129      139
     154     16      138      139
     155     16      138      140
     156     16      138      141
     157     11      138      142
     158     17      139      143
     159     17      139      144
     160     17      140      145
     161     17      140      146
     162     15      140      186
     163     17      141      147
     164     17      141      148
     165     15      141      193
     166     12      142      149
     167     12      142      150
     168     11      151      152
     169     11      151      153
     170     16      151      154
     171     11      151      155
     172     12      152      156
     173     12      152      157
     174      4      152      224
     175     12      153      158
     176     12      153      159
     177     17      154      160
     178     17      154      161
     179     15      154      214
     180     12      155      162
     181     12      155      163
     182     10      164      165
     183     14      164      166
     184     14      164      167
     185     14      164      168
     186     12      165      169
     187     12      165      170
     188     10      171      172
     189     14      171      173
     190     14      171      174
     191     14      171      175
     192     12      172      176
     193     12      172      177
     194     10      178      179
     195     14      178      180
     196     14      178      181
     197     14      178      182
     198     12      179      183
     199     12      179      184
     200     13      185      186
     201     14      185      187
     202     14      185      188
     203     14      185      189
     204     17      186      190
     205     17      186      191
     206     13      192      193
     207     14      192      194
     208     14      192      195
     209     14      192      196
     210     17      193      197
     211     17      193      198
     212     10      199      200
     213     14      199      201
     214     14      199      202
     215     14      199      203
     216     12      200      204
     217     12      200      205
     218     10      206      207
     219     14      206      208
     220     14      206      209
     221     14      206      210
     222     12      207      211
     223     12      207      212
     224      4      207      221
     225     13      213      214
     226     14      213      215
     227     14      213      216
     228     14      213      217
     229     17      214      218
     230     17      214      219
     231      1      220      221
     232      2      221      222
     233      6      222      223
     234      7      222      226
     235      3      223      224
     236      2      224      225
     237      2      225      220
     238      7      225      227

Angles

       1      4        1        2        3
       2      6        1        2        7
       3      4        1        6        5
       4      6        1        6       11
       5      9        1       45       46
       6     12        1       45       47
       7     12        1       45       48
       8     13        2        1        6
       9     15        2        1       45
      10     16        2        3        4
      11     18        2        3        8
      12     18        3        2        7
      13     16        3        4        5
      14     18        3        4        9
      15     18        4        3        8
      16     16        4        5        6
      17     18        4        5       10
      18     18        5        4        9
      19     18        5        6       11
      20     15        6        1       45
      21     18        6        5       10
      22     17       12       13       14
      23     22       12       13       18
      24     17       12       17       16
      25     22       12       17       22
      26     20       12      223      222
      27      8       12      223      224
      28     19       13       12       17
      29     20       13       12      223
      30     16       13       14       15
      31     18       13       14       19
      32     18       14       13       18
      33     16       14       15       16
      34     18       14       15       20
      35     18       15       14       19
      36     16       15       16       17
      37     18       15       16       21
      38     18       16       15       20
      39     18       16       17       22
      40     20       17       12      223
      41     18       17       16       21
      42      4       23       24       25
      43      6       23       24       29
      44      4       23       28       27
      45      6       23       28       33
      46     11       23      153      151
      47     12       23      153      158
      48     12       23      153      159
      49     13       24       23       28
      50     15       24       23      153
      51     16       24       25       26
      52     18       24       25       30
      53     18       25       24       29
      54     16       25       26       27
      55     18       25       26       31
      56     18       26       25       30
      57     16       26       27       28
      58     18       26       27       32
      59     18       27       26       31
      60     18       27       28       33
      61     15       28       23      153
      62     18       28       27       32
      63     17       34       35       36
      64     22       34       35       40
      65     17       34       39       38
      66     22       34       39       44
      67     20       34      118      117
      68     20       34      118      119
      69     19       35       34       39
      70     20       35       34      118
      71     16       35       36       37
      72     18       35       36       41
      73     18       36       35       40
      74     16       36       37       38
      75     18       36       37       42
      76     18       37       36       41
      77     16       37       38       39
      78     18       37       38       43
      79     18       38       37       42
      80     18       38       39       44
      81     20       39       34      118
      82     18       39       38       43
      83     23       45       46       49
      84     23       45       46       50
      85      9       45       46       57
      86     23       46       45       47
      87     23       46       45       48
      88     15       46       57       58
      89     15       46       57       62
      90     36       47       45       48
      91     36       49       46       50
      92     12       49       46       57
      93     12       50       46       57
      94     23       51       52       55
      95     23       51       52       56
      96      9       51       52      220
      97     15       51       61       60
      98     15       51       61       62
      99     23       52       51       53
     100     23       52       51       54
     101      9       52       51       61
     102      2       52      220      221
     103     15       52      220      225
     104     36       53       51       54
     105     12       53       51       61
     106     12       54       51       61
     107     36       55       52       56
     108     12       55       52      220
     109     12       56       52      220
     110      5       57       58       59
     111      6       57       58       63
     112      3       57       62       61
     113      6       57       62       65
     114     13       58       57       62
     115     19       58       59       60
     116     20       58       59       75
     117     22       59       58       63
     118      5       59       60       61
     119     22       59       60       64
     120     20       59       75       76
     121     20       59       75       80
     122     20       60       59       75
     123     13       60       61       62
     124      6       61       60       64
     125      6       61       62       65
     126      3       66       67       68
     127      6       66       67       72
     128      3       66       71       70
     129      6       66       71       74
     130     11       66      128      125
     131     12       66      128      134
     132     12       66      128      135
     133     13       67       66       71
     134     15       67       66      128
     135     13       67       68       69
     136     15       67       68      172
     137      6       68       67       72
     138      3       68       69       70
     139      6       68       69       73
     140     10       68      172      171
     141     12       68      172      176
     142     12       68      172      177
     143     15       69       68      172
     144     13       69       70       71
     145     15       69       70      179
     146      6       70       69       73
     147      6       70       71       74
     148     10       70      179      178
     149     12       70      179      183
     150     12       70      179      184
     151     15       71       66      128
     152     15       71       70      179
     153     17       75       76       77
     154     22       75       76       81
     155     17       75       80       79
     156     22       75       80       84
     157     19       76       75       80
     158     17       76       77       78
     159     18       76       77       82
     160     18       77       76       81
     161     19       77       78       79
     162     20       77       78       85
     163     22       78       77       82
     164     17       78       79       80
     165     22       78       79       83
     166     20       78       85       86
     167     20       78       85       90
     168     20       79       78       85
     169     18       79       80       84
     170     18       80       79       83
     171     17       85       86       87
     172     22       85       86       91
     173     17       85       90       89
     174     22       85       90       94
     175     19       86       85       90
     176      4       86       87       88
     177     18       86       87       92
     178     18       87       86       91
     179     13       87       88       89
     180     15       87       88      126
     181      6       88       87       92
     182      4       88       89       90
     183      6       88       89       93
     184     11       88      126      125
     185     12       88      126      130
     186     12       88      126      131
     187     15       89       88      126
     188     18       89       90       94
     189     18       90       89       93
     190      4       95       96       97
     191      6       95       96      101
     192      4       95      100       99
     193      6       95      100      104
     194     11       95      127      125
     195     12       95      127      132
     196     12       95      127      133
     197     13       96       95      100
     198     15       96       95      127
     199      4       96       97       98
     200     18       96       97      102
     201     18       97       96      101
     202     13       97       98       99
     203     15       97       98      165
     204      6       98       97      102
     205      4       98       99      100
     206      6       98       99      103
     207     10       98      165      164
     208     12       98      165      169
     209     12       98      165      170
     210     15       99       98      165
     211     18       99      100      104
     212     15      100       95      127
     213     18      100       99      103
     214      4      105      106      107
     215      6      105      106      111
     216      4      105      110      109
     217      6      105      110      114
     218     11      105      142      138
     219     12      105      142      149
     220     12      105      142      150
     221     13      106      105      110
     222     15      106      105      142
     223      4      106      107      108
     224     18      106      107      112
     225     18      107      106      111
     226     13      107      108      109
     227     15      107      108      200
     228      6      108      107      112
     229      4      108      109      110
     230      6      108      109      113
     231     10      108      200      199
     232     12      108      200      204
     233     12      108      200      205
     234     15      109      108      200
     235     18      109      110      114
     236     15      110      105      142
     237     18      110      109      113
     238      4      115      116      117
     239      6      115      116      121
     240      4      115      120      119
     241      6      115      120      124
     242     11      115      155      151
     243     12      115      155      162
     244     12      115      155      163
     245     13      116      115      120
     246     15      116      115      155
     247     17      116      117      118
     248     18      116      117      122
     249     18      117      116      121
     250     19      117      118      119
     251     22      118      117      122
     252     17      118      119      120
     253     22      118      119      123
     254     18      119      120      124
     255     15      120      115      155
     256     18      120      119      123
     257     34      125      126      130
     258     34      125      126      131
     259     34      125      127      132
     260     34      125      127      133
     261     34      125      128      134
     262     34      125      128      135
     263     35      125      129      136
     264     35      125      129      137
     265     31      125      129      139
     266     25      126      125      127
     267     25      126      125      128
     268     26      126      125      129
     269     25      127      125      128
     270     26      127      125      129
     271     26      128      125      129
     272     31      129      139      138
     273     32      129      139      143
     274     32      129      139      144
     275     36      130      126      131
     276     36      132      127      133
     277     36      134      128      135
     278     38      136      129      137
     279     32      136      129      139
     280     32      137      129      139
     281     35      138      139      143
     282     35      138      139      144
     283     35      138      140      145
     284     35      138      140      146
     285     31      138      140      186
     286     35      138      141      147
     287     35      138      141      148
     288     31      138      141      193
     289     34      138      142      149
     290     34      138      142      150
     291     33      139      138      140
     292     33      139      138      141
     293     26      139      138      142
     294     33      140      138      141
     295     26      140      138      142
     296     28      140      186      185
     297     32      140      186      190
     298     32      140      186      191
     299     26      141      138      142
     300     28      141      193      192
     301     32      141      193      197
     302     32      141      193      198
     303     38      143      139      144
     304     38      145      140      146
     305     32      145      140      186
     306     32      146      140      186
     307     38      147      141      148
     308     32      147      141      193
     309     32      148      141      193
     310     36      149      142      150
     311     34      151      152      156
     312     34      151      152      157
     313     11      151      152      224
     314     34      151      153      158
     315     34      151      153      159
     316     35      151      154      160
     317     35      151      154      161
     318     31      151      154      214
     319     34      151      155      162
     320     34      151      155      163
     321     25      152      151      153
     322     26      152      151      154
     323     25      152      151      155
     324     21      152      224      223
     325     15      152      224      225
     326     26      153      151      154
     327     25      153      151      155
     328     26      154      151      155
     329     28      154      214      213
     330     32      154      214      218
     331     32      154      214      219
     332     36      156      152      157
     333     12      156      152      224
     334     12      157      152      224
     335     36      158      153      159
     336     38      160      154      161
     337     32      160      154      214
     338     32      161      154      214
     339     36      162      155      163
     340     27      164      165      169
     341     27      164      165      170
     342     24      165      164      166
     343     24      165      164      167
     344     24      165      164      168
     345     37      166      164      167
     346     37      166      164      168
     347     37      167      164      168
     348     36      169      165      170
     349     27      171      172      176
     350     27      171      172      177
     351     24      172      171      173
     352     24      172      171      174
     353     24      172      171      175
     354     37      173      171      174
     355     37      173      171      175
     356     37      174      171      175
     357     36      176      172      177
     358     27      178      179      183
     359     27      178      179      184
     360     24      179      178      180
     361     24      179      178      181
     362     24      179      178      182
     363     37      180      178      181
     364     37      180      178      182
     365     37      181      178      182
     366     36      183      179      184
     367     29      185      186      190
     368     29      185      186      191
     369     30      186      185      187
     370     30      186      185      188
     371     30      186      185      189
     372     37      187      185      188
     373     37      187      185      189
     374     37      188      185      189
     375     38      190      186      191
     376     29      192      193      197
     377     29      192      193      198
     378     30      193      192      194
     379     30      193      192      195
     380     30      193      192      196
     381     37      194      192      195
     382     37      194      192      196
     383     37      195      192      196
     384     38      197      193      198
     385     27      199      200      204
     386     27      199      200      205
     387     24      200      199      201
     388     24      200      199      202
     389     24      200      199      203
     390     37      201      199      202
     391     37      201      199      203
     392     37      202      199      203
     393     36      204      200      205
     394     27      206      207      211
     395     27      206      207      212
     396     10      206      207      221
     397     24      207      206      208
     398     24      207      206      209
     399     24      207      206      210
     400      2      207      221      220
     401     15      207      221      222
     402     37      208      206      209
     403     37      208      206      210
     404     37      209      206      210
     405     36      211      207      212
     406     12      211      207      221
     407     12      212      207      221
     408     29      213      214      218
     409     29      213      214      219
     410     30      214      213      215
     411     30      214      213      216
     412     30      214      213      217
     413     37      215      213      216
     414     37      215      213      217
     415     37      216      213      217
     416     38      218      214      219
     417      1      220      221      222
     418      3      220      225      224
     419      6      220      225      227
     420      1      221      220      225
     421      5      221      222      223
     422      6      221      222      226
     423      7      222      223      224
     424     22      223      222      226
     425     14      223      224      225
     426      6      224      225      227

Dihedrals

       1     11        1        2        3        4
       2     13        1        2        3        8
       3     11        1        6        5        4
       4     13        1        6        5       10
       5     20        1       45       46       49
       6     20        1       45       46       50
       7     19        1       45       46       57
       8     26        2        1        6        5
       9     28        2        1        6       11
      10     31        2        1       45       46
      11     34        2        1       45       47
      12     34        2        1       45       48
      13     36        2        3        4        5
      14     38        2        3        4        9
      15     26        3        2        1        6
      16     35        3        2        1       45
      17     36        3        4        5        6
      18     38        3        4        5       10
      19     38        4        3        2        7
      20     38        4        5        6       11
      21     38        5        4        3        8
      22     35        5        6        1       45
      23     28        6        1        2        7
      24     31        6        1       45       46
      25     34        6        1       45       47
      26     34        6        1       45       48
      27     38        6        5        4        9
      28     53        7        2        1       45
      29     65        7        2        3        8
      30     65        8        3        4        9
      31     65        9        4        5       10
      32     65       10        5        6       11
      33     53       11        6        1       45
      34     37       12       13       14       15
      35     49       12       13       14       19
      36     37       12       17       16       15
      37     49       12       17       16       21
      38     16       12      223      222      221
      39     51       12      223      222      226
      40     50       12      223      224      152
      41     30       12      223      224      225
      42     39       13       12       17       16
      43     42       13       12       17       22
      44     43       13       12      223      222
      45     18       13       12      223      224
      46     36       13       14       15       16
      47     38       13       14       15       20
      48     39       14       13       12       17
      49     40       14       13       12      223
      50     36       14       15       16       17
      51     38       14       15       16       21
      52     38       15       14       13       18
      53     38       15       16       17       22
      54     38       16       15       14       19
      55     40       16       17       12      223
      56     42       17       12       13       18
      57     43       17       12      223      222
      58     18       17       12      223      224
      59     38       17       16       15       20
      60     51       18       13       12      223
      61     65       18       13       14       19
      62     65       19       14       15       20
      63     65       20       15       16       21
      64     65       21       16       17       22
      65     51       22       17       12      223
      66     11       23       24       25       26
      67     13       23       24       25       30
      68     11       23       28       27       26
      69     13       23       28       27       32
      70     22       23      153      151      152
      71     23       23      153      151      154
      72     22       23      153      151      155
      73     26       24       23       28       27
      74     28       24       23       28       33
      75     33       24       23      153      151
      76     34       24       23      153      158
      77     34       24       23      153      159
      78     36       24       25       26       27
      79     38       24       25       26       31
      80     26       25       24       23       28
      81     35       25       24       23      153
      82     36       25       26       27       28
      83     38       25       26       27       32
      84     38       26       25       24       29
      85     38       26       27       28       33
      86     38       27       26       25       30
      87     35       27       28       23      153
      88     28       28       23       24       29
      89     33       28       23      153      151
      90     34       28       23      153      158
      91     34       28       23      153      159
      92     38       28       27       26       31
      93     53       29       24       23      153
      94     65       29       24       25       30
      95     65       30       25       26       31
      96     65       31       26       27       32
      97     65       32       27       28       33
      98     53       33       28       23      153
      99     37       34       35       36       37
     100     49       34       35       36       41
     101     37       34       39       38       37
     102     49       34       39       38       43
     103     40       34      118      117      116
     104     51       34      118      117      122
     105     40       34      118      119      120
     106     51       34      118      119      123
     107     39       35       34       39       38
     108     42       35       34       39       44
     109     43       35       34      118      117
     110     43       35       34      118      119
     111     36       35       36       37       38
     112     38       35       36       37       42
     113     39       36       35       34       39
     114     40       36       35       34      118
     115     36       36       37       38       39
     116     38       36       37       38       43
     117     38       37       36       35       40
     118     38       37       38       39       44
     119     38       38       37       36       41
     120     40       38       39       34      118
     121     42       39       34       35       40
     122     43       39       34      118      117
     123     43       39       34      118      119
     124     38       39       38       37       42
     125     51       40       35       34      118
     126     65       40       35       36       41
     127     65       41       36       37       42
     128     65       42       37       38       43
     129     65       43       38       39       44
     130     51       44       39       34      118
     131     31       45       46       57       58
     132     31       45       46       57       62
     133     47       46       57       58       59
     134     53       46       57       58       63
     135      9       46       57       62       61
     136     53       46       57       62       65
     137     66       47       45       46       49
     138     66       47       45       46       50
     139     20       47       45       46       57
     140     66       48       45       46       49
     141     66       48       45       46       50
     142     20       48       45       46       57
     143     34       49       46       57       58
     144     34       49       46       57       62
     145     34       50       46       57       58
     146     34       50       46       57       62
     147      4       51       52      220      221
     148     31       51       52      220      225
     149     47       51       61       60       59
     150     53       51       61       60       64
     151      9       51       61       62       57
     152     53       51       61       62       65
     153     31       52       51       61       60
     154     31       52       51       61       62
     155     52       52      220      221      207
     156     25       52      220      221      222
     157      9       52      220      225      224
     158     53       52      220      225      227
     159     66       53       51       52       55
     160     66       53       51       52       56
     161     20       53       51       52      220
     162     34       53       51       61       60
     163     34       53       51       61       62
     164     66       54       51       52       55
     165     66       54       51       52       56
     166     20       54       51       52      220
     167     34       54       51       61       60
     168     34       54       51       61       62
     169     20       55       52       51       61
     170      6       55       52      220      221
     171     34       55       52      220      225
     172     20       56       52       51       61
     173      6       56       52      220      221
     174     34       56       52      220      225
     175     15       57       58       59       60
     176     16       57       58       59       75
     177      7       57       62       61       60
     178      7       58       57       62       61
     179     28       58       57       62       65
     180     15       58       59       60       61
     181     42       58       59       60       64
     182     43       58       59       75       76
     183     43       58       59       75       80
     184     27       59       58       57       62
     185     27       59       60       61       62
     186     40       59       75       76       77
     187     51       59       75       76       81
     188     40       59       75       80       79
     189     51       59       75       80       84
     190     42       60       59       58       63
     191     43       60       59       75       76
     192     43       60       59       75       80
     193     28       60       61       62       65
     194     19       61       51       52      220
     195     16       61       60       59       75
     196     28       62       57       58       63
     197     28       62       61       60       64
     198     51       63       58       59       75
     199     51       64       60       59       75
     200      7       66       67       68       69
     201      9       66       67       68      172
     202      7       66       71       70       69
     203      9       66       71       70      179
     204     22       66      128      125      126
     205     22       66      128      125      127
     206     23       66      128      125      129
     207      7       67       66       71       70
     208     28       67       66       71       74
     209     33       67       66      128      125
     210     34       67       66      128      134
     211     34       67       66      128      135
     212      7       67       68       69       70
     213     28       67       68       69       73
     214     32       67       68      172      171
     215     34       67       68      172      176
     216     34       67       68      172      177
     217      7       68       67       66       71
     218      9       68       67       66      128
     219      7       68       69       70       71
     220      9       68       69       70      179
     221     21       68      172      171      173
     222     21       68      172      171      174
     223     21       68      172      171      175
     224     28       69       68       67       72
     225     32       69       68      172      171
     226     34       69       68      172      176
     227     34       69       68      172      177
     228     28       69       70       71       74
     229     32       69       70      179      178
     230     34       69       70      179      183
     231     34       69       70      179      184
     232      9       70       69       68      172
     233      9       70       71       66      128
     234     21       70      179      178      180
     235     21       70      179      178      181
     236     21       70      179      178      182
     237     28       71       66       67       72
     238     33       71       66      128      125
     239     34       71       66      128      134
     240     34       71       66      128      135
     241     28       71       70       69       73
     242     32       71       70      179      178
     243     34       71       70      179      183
     244     34       71       70      179      184
     245     53       72       67       66      128
     246     53       72       67       68      172
     247     53       73       69       68      172
     248     53       73       69       70      179
     249     53       74       71       66      128
     250     53       74       71       70      179
     251     48       75       76       77       78
     252     49       75       76       77       82
     253     48       75       80       79       78
     254     49       75       80       79       83
     255     39       76       75       80       79
     256     42       76       75       80       84
     257     39       76       77       78       79
     258     40       76       77       78       85
     259     39       77       76       75       80
     260     39       77       78       79       80
     261     42       77       78       79       83
     262     43       77       78       85       86
     263     43       77       78       85       90
     264     49       78       77       76       81
     265     49       78       79       80       84
     266     40       78       85       86       87
     267     51       78       85       86       91
     268     40       78       85       90       89
     269     51       78       85       90       94
     270     42       79       78       77       82
     271     43       79       78       85       86
     272     43       79       78       85       90
     273     42       80       75       76       81
     274     40       80       79       78       85
     275     65       81       76       77       82
     276     51       82       77       78       85
     277     51       83       79       78       85
     278     65       83       79       80       84
     279     12       85       86       87       88
     280     49       85       86       87       92
     281     12       85       90       89       88
     282     49       85       90       89       93
     283     39       86       85       90       89
     284     42       86       85       90       94
     285     26       86       87       88       89
     286     35       86       87       88      126
     287     39       87       86       85       90
     288     26       87       88       89       90
     289     28       87       88       89       93
     290     33       87       88      126      125
     291     34       87       88      126      130
     292     34       87       88      126      131
     293     13       88       87       86       91
     294     13       88       89       90       94
     295     22       88      126      125      127
     296     22       88      126      125      128
     297     23       88      126      125      129
     298     28       89       88       87       92
     299     33       89       88      126      125
     300     34       89       88      126      130
     301     34       89       88      126      131
     302     42       90       85       86       91
     303     35       90       89       88      126
     304     65       91       86       87       92
     305     53       92       87       88      126
     306     53       93       89       88      126
     307     65       93       89       90       94
     308     10       95       96       97       98
     309     13       95       96       97      102
     310     10       95      100       99       98
     311     13       95      100       99      103
     312     22       95      127      125      126
     313     22       95      127      125      128
     314     23       95      127      125      129
     315     26       96       95      100       99
     316     28       96       95      100      104
     317     33       96       95      127      125
     318     34       96       95      127      132
     319     34       96       95      127      133
     320     26       96       97       98       99
     321     35       96       97       98      165
     322     26       97       96       95      100
     323     35       97       96       95      127
     324     26       97       98       99      100
     325     28       97       98       99      103
     326     32       97       98      165      164
     327     34       97       98      165      169
     328     34       97       98      165      170
     329     13       98       97       96      101
     330     13       98       99      100      104
     331     21       98      165      164      166
     332     21       98      165      164      167
     333     21       98      165      164      168
     334     28       99       98       97      102
     335     32       99       98      165      164
     336     34       99       98      165      169
     337     34       99       98      165      170
     338     35       99      100       95      127
     339     28      100       95       96      101
     340     33      100       95      127      125
     341     34      100       95      127      132
     342     34      100       95      127      133
     343     35      100       99       98      165
     344     53      101       96       95      127
     345     65      101       96       97      102
     346     53      102       97       98      165
     347     53      103       99       98      165
     348     65      103       99      100      104
     349     53      104      100       95      127
     350     10      105      106      107      108
     351     13      105      106      107      112
     352     10      105      110      109      108
     353     13      105      110      109      113
     354     23      105      142      138      139
     355     23      105      142      138      140
     356     23      105      142      138      141
     357     26      106      105      110      109
     358     28      106      105      110      114
     359     33      106      105      142      138
     360     34      106      105      142      149
     361     34      106      105      142      150
     362     26      106      107      108      109
     363     35      106      107      108      200
     364     26      107      106      105      110
     365     35      107      106      105      142
     366     26      107      108      109      110
     367     28      107      108      109      113
     368     32      107      108      200      199
     369     34      107      108      200      204
     370     34      107      108      200      205
     371     13      108      107      106      111
     372     13      108      109      110      114
     373     21      108      200      199      201
     374     21      108      200      199      202
     375     21      108      200      199      203
     376     28      109      108      107      112
     377     32      109      108      200      199
     378     34      109      108      200      204
     379     34      109      108      200      205
     380     35      109      110      105      142
     381     28      110      105      106      111
     382     33      110      105      142      138
     383     34      110      105      142      149
     384     34      110      105      142      150
     385     35      110      109      108      200
     386     53      111      106      105      142
     387     65      111      106      107      112
     388     53      112      107      108      200
     389     53      113      109      108      200
     390     65      113      109      110      114
     391     53      114      110      105      142
     392     12      115      116      117      118
     393     13      115      116      117      122
     394     12      115      120      119      118
     395     13      115      120      119      123
     396     22      115      155      151      152
     397     22      115      155      151      153
     398     23      115      155      151      154
     399     26      116      115      120      119
     400     28      116      115      120      124
     401     33      116      115      155      151
     402     34      116      115      155      162
     403     34      116      115      155      163
     404     39      116      117      118      119
     405     26      117      116      115      120
     406     35      117      116      115      155
     407     39      117      118      119      120
     408     42      117      118      119      123
     409     49      118      117      116      121
     410     49      118      119      120      124
     411     42      119      118      117      122
     412     35      119      120      115      155
     413     28      120      115      116      121
     414     33      120      115      155      151
     415     34      120      115      155      162
     416     34      120      115      155      163
     417     53      121      116      115      155
     418     65      121      116      117      122
     419     65      123      119      120      124
     420     53      124      120      115      155
     421     63      125      129      139      138
     422     64      125      129      139      143
     423     64      125      129      139      144
     424     54      126      125      127      132
     425     54      126      125      127      133
     426     54      126      125      128      134
     427     54      126      125      128      135
     428     56      126      125      129      136
     429     56      126      125      129      137
     430     55      126      125      129      139
     431     54      127      125      126      130
     432     54      127      125      126      131
     433     54      127      125      128      134
     434     54      127      125      128      135
     435     56      127      125      129      136
     436     56      127      125      129      137
     437     55      127      125      129      139
     438     54      128      125      126      130
     439     54      128      125      126      131
     440     54      128      125      127      132
     441     54      128      125      127      133
     442     56      128      125      129      136
     443     56      128      125      129      137
     444     55      128      125      129      139
     445     61      129      125      126      130
     446     61      129      125      126      131
     447     61      129      125      127      132
     448     61      129      125      127      133
     449     61      129      125      128      134
     450     61      129      125      128      135
     451     60      129      139      138      140
     452     60      129      139      138      141
     453     55      129      139      138      142
     454     64      136      129      139      138
     455     69      136      129      139      143
     456     69      136      129      139      144
     457     64      137      129      139      138
     458     69      137      129      139      143
     459     69      137      129      139      144
     460     57      138      140      186      185
     461     64      138      140      186      190
     462     64      138      140      186      191
     463     57      138      141      193      192
     464     64      138      141      193      197
     465     64      138      141      193      198
     466     62      139      138      140      145
     467     62      139      138      140      146
     468     60      139      138      140      186
     469     62      139      138      141      147
     470     62      139      138      141      148
     471     60      139      138      141      193
     472     61      139      138      142      149
     473     61      139      138      142      150
     474     62      140      138      139      143
     475     62      140      138      139      144
     476     62      140      138      141      147
     477     62      140      138      141      148
     478     60      140      138      141      193
     479     61      140      138      142      149
     480     61      140      138      142      150
     481     59      140      186      185      187
     482     59      140      186      185      188
     483     59      140      186      185      189
     484     62      141      138      139      143
     485     62      141      138      139      144
     486     62      141      138      140      145
     487     62      141      138      140      146
     488     60      141      138      140      186
     489     61      141      138      142      149
     490     61      141      138      142      150
     491     59      141      193      192      194
     492     59      141      193      192      195
     493     59      141      193      192      196
     494     56      142      138      139      143
     495     56      142      138      139      144
     496     56      142      138      140      145
     497     56      142      138      140      146
     498     55      142      138      140      186
     499     56      142      138      141      147
     500     56      142      138      141      148
     501     55      142      138      141      193
     502     58      145      140      186      185
     503     69      145      140      186      190
     504     69      145      140      186      191
     505     58      146      140      186      185
     506     69      146      140      186      190
     507     69      146      140      186      191
     508     58      147      141      193      192
     509     69      147      141      193      197
     510     69      147      141      193      198
     511     58      148      141      193      192
     512     69      148      141      193      197
     513     69      148      141      193      198
     514     45      151      152      224      223
     515     33      151      152      224      225
     516     57      151      154      214      213
     517     64      151      154      214      218
     518     64      151      154      214      219
     519     54      152      151      153      158
     520     54      152      151      153      159
     521     56      152      151      154      160
     522     56      152      151      154      161
     523     55      152      151      154      214
     524     54      152      151      155      162
     525     54      152      151      155      163
     526     41      152      224      223      222
     527      9      152      224      225      220
     528     53      152      224      225      227
     529     54      153      151      152      156
     530     54      153      151      152      157
     531     22      153      151      152      224
     532     56      153      151      154      160
     533     56      153      151      154      161
     534     55      153      151      154      214
     535     54      153      151      155      162
     536     54      153      151      155      163
     537     61      154      151      152      156
     538     61      154      151      152      157
     539     23      154      151      152      224
     540     61      154      151      153      158
     541     61      154      151      153      159
     542     61      154      151      155      162
     543     61      154      151      155      163
     544     59      154      214      213      215
     545     59      154      214      213      216
     546     59      154      214      213      217
     547     54      155      151      152      156
     548     54      155      151      152      157
     549     22      155      151      152      224
     550     54      155      151      153      158
     551     54      155      151      153      159
     552     56      155      151      154      160
     553     56      155      151      154      161
     554     55      155      151      154      214
     555     46      156      152      224      223
     556     34      156      152      224      225
     557     46      157      152      224      223
     558     34      157      152      224      225
     559     58      160      154      214      213
     560     69      160      154      214      218
     561     69      160      154      214      219
     562     58      161      154      214      213
     563     69      161      154      214      218
     564     69      161      154      214      219
     565     67      166      164      165      169
     566     67      166      164      165      170
     567     67      167      164      165      169
     568     67      167      164      165      170
     569     67      168      164      165      169
     570     67      168      164      165      170
     571     67      173      171      172      176
     572     67      173      171      172      177
     573     67      174      171      172      176
     574     67      174      171      172      177
     575     67      175      171      172      176
     576     67      175      171      172      177
     577     67      180      178      179      183
     578     67      180      178      179      184
     579     67      181      178      179      183
     580     67      181      178      179      184
     581     67      182      178      179      183
     582     67      182      178      179      184
     583     68      187      185      186      190
     584     68      187      185      186      191
     585     68      188      185      186      190
     586     68      188      185      186      191
     587     68      189      185      186      190
     588     68      189      185      186      191
     589     68      194      192      193      197
     590     68      194      192      193      198
     591     68      195      192      193      197
     592     68      195      192      193      198
     593     68      196      192      193      197
     594     68      196      192      193      198
     595     67      201      199      200      204
     596     67      201      199      200      205
     597     67      202      199      200      204
     598     67      202      199      200      205
     599     67      203      199      200      204
     600     67      203      199      200      205
     601      5      206      207      221      220
     602     32      206      207      221      222
     603     25      207      221      220      225
     604     47      207      221      222      223
     605     53      207      221      222      226
     606     67      208      206      207      211
     607     67      208      206      207      212
     608     21      208      206      207      221
     609     67      209      206      207      211
     610     67      209      206      207      212
     611     21      209      206      207      221
     612     67      210      206      207      211
     613     67      210      206      207      212
     614     21      210      206      207      221
     615      6      211      207      221      220
     616     34      211      207      221      222
     617      6      212      207      221      220
     618     34      212      207      221      222
     619     68      215      213      214      218
     620     68      215      213      214      219
     621     68      216      213      214      218
     622     68      216      213      214      219
     623     68      217      213      214      218
     624     68      217      213      214      219
     625      2      220      221      222      223
     626      3      220      221      222      226
     627      8      220      225      224      223
     628      1      221      220      225      224
     629      3      221      220      225      227
     630     14      221      222      223      224
     631     24      222      221      220      225
     632     29      222      223      224      225
     633     44      223      224      225      227
     634     17      224      223      222      226

Impropers

       1      2        2        1        6       45
       2      5        1        2        3        7
       3      7        2        3        4        8
       4      7        3        4        5        9
       5      7        4        5        6       10
       6      5        1        6        5       11
       7     10       13       12       17      223
       8      8       12       13       14       18
       9      7       13       14       15       19
      10      7       14       15       16       20
      11      7       15       16       17       21
      12      8       12       17       16       22
      13      2       24       23       28      153
      14      5       23       24       25       29
      15      7       24       25       26       30
      16      7       25       26       27       31
      17      7       26       27       28       32
      18      5       23       28       27       33
      19     10       35       34       39      118
      20      8       34       35       36       40
      21      7       35       36       37       41
      22      7       36       37       38       42
      23      7       37       38       39       43
      24      8       34       39       38       44
      25      2       46       57       58       62
      26      6       57       58       59       63
      27     10       58       59       60       75
      28      6       59       60       61       64
      29      2       51       61       60       62
      30      4       57       62       61       65
      31      2       67       66       71      128
      32      4       66       67       68       72
      33      2       67       68       69      172
      34      4       68       69       70       73
      35      2       69       70       71      179
      36      4       66       71       70       74
      37     10       59       75       76       80
      38      8       75       76       77       81
      39      8       76       77       78       82
      40     10       77       78       79       85
      41      8       78       79       80       83
      42      8       75       80       79       84
      43     10       78       85       86       90
      44      8       85       86       87       91
      45      5       86       87       88       92
      46      2       87       88       89      126
      47      5       88       89       90       93
      48      8       85       90       89       94
      49      2       96       95      100      127
      50      5       95       96       97      101
      51      5       96       97       98      102
      52      2       97       98       99      165
      53      5       98       99      100      103
      54      5       95      100       99      104
      55      2      106      105      110      142
      56      5      105      106      107      111
      57      5      106      107      108      112
      58      2      107      108      109      200
      59      5      108      109      110      113
      60      5      105      110      109      114
      61      2      116      115      120      155
      62      5      115      116      117      121
      63      8      116      117      118      122
      64     10       34      118      117      119
      65      8      118      119      120      123
      66      5      115      120      119      124
      67      1       52      220      221      225
      68      1      207      221      220      222
      69      6      221      222      223      226
      70      9       12      223      222      224
      71      3      152      224      223      225
      72      4      220      225      224      227

