LAMMPS data file generated by clean-room 1-hop pipeline

     196 atoms
     212 bonds
     360 angles
     553 dihedrals
      96 impropers

       7 atom types
      11 bond types
      20 angle types
      31 dihedral types
       4 improper types

  -36.883700    32.800600 xlo xhi
  -35.310800    29.293100 ylo yhi
  -26.690400    34.420700 zlo zhi

Masses

       1    12.011000
       2    12.011000
       3    12.011000
       4    12.011000
       5    12.011000
       6     1.008000
       7     1.008000

Pair Coeffs

       1     0.070000     3.550000
       2     0.070000     3.550000
       3     0.070000     3.550000
       4     0.066000     3.500000
       5     0.066000     3.500000
       6     0.030000     2.420000
       7     0.030000     2.500000

Bond Coeffs

       1   469.000000     1.400000
       2   317.000000     1.510000
       3   469.000000     1.400000
       4   469.000000     1.400000
       5   367.000000     1.080000
       6   385.000000     1.460000
       7   268.000000     1.529000
       8   268.000000     1.529000
       9   340.000000     1.090000
      10   268.000000     1.529000
      11   340.000000     1.090000

Angle Coeffs

       1    63.000000   120.000000
       2    35.000000   120.000000
       3    63.000000   114.000000
       4    63.000000   114.000000
       5    35.000000   109.500000
       6    63.000000   120.000000
       7    70.000000   120.000000
       8    63.000000   120.000000
       9    35.000000   120.000000
      10    63.000000   120.000000
      11    63.000000   120.000000
      12    35.000000   120.000000
      13    37.500000   110.700000
      14    58.350000   112.700000
      15    37.500000   110.700000
      16    37.500000   110.700000
      17    58.350000   112.700000
      18    37.500000   110.700000
      19    33.000000   107.800000
      20    33.000000   107.800000

Dihedral Coeffs

       1     0.000000     7.250000     0.000000     0.000000
       2     0.000000     7.250000     0.000000     0.000000
       3     0.000000     7.250000     0.000000     0.000000
       4     0.000000     0.000000     0.000000     0.000000
       5     0.000000     0.000000     0.462000     0.000000
       6     0.000000     0.000000     0.000000     0.000000
       7     0.000000     0.000000     0.462000     0.000000
       8     0.000000     7.250000     0.000000     0.000000
       9     0.000000     7.250000     0.000000     0.000000
      10    -0.250000     0.000000     0.000000     0.000000
      11    -0.250000     0.000000     0.000000     0.000000
      12     0.000000     0.000000     0.000000     0.000000
      13     0.000000     7.250000     0.000000     0.000000
      14     0.000000     7.250000     0.000000     0.000000
      15     0.000000     7.250000     0.000000     0.000000
      16     0.000000     7.250000     0.000000     0.000000
      17     0.000000     1.650000     0.000000    -0.050000
      18     0.000000     7.250000     0.000000     0.000000
      19     0.000000     7.250000     0.000000     0.000000
      20     0.000000     7.250000     0.000000     0.000000
      21     0.000000     7.250000     0.000000     0.000000
      22     0.850000    -0.200000     0.200000     0.000000
      23     0.850000    -0.200000     0.200000     0.000000
      24     0.000000     0.000000     0.300000     0.000000
      25     0.000000     0.000000     0.300000     0.000000
      26     0.850000    -0.200000     0.200000     0.000000
      27     0.000000     0.000000     0.300000     0.000000
      28     0.000000     7.250000     0.000000     0.000000
      29     0.000000     0.000000     0.300000     0.000000
      30     0.000000     0.000000     0.300000     0.000000
      31     0.000000     0.000000     0.300000     0.000000

Improper Coeffs

       1     2.500000   -1    2
       2     2.500000   -1    2
       3     2.500000   -1    2
       4     2.500000   -1    2

Atoms

       1    1      3  -0.04054478     8.026600    -7.582300     8.199500
       2    1      2  -0.14880742     8.793700    -8.387700     7.134100
       3    1      2  -0.14880742     9.689800    -7.658000     6.116800
       4    1      3  -0.04054478     9.832300    -6.126000     6.180300
       5    1      2  -0.14880742     9.109400    -5.328700     7.280700
       6    1      2  -0.14880742     8.196200    -6.055300     8.283900
       7    1      6   0.16656776     8.687600    -9.522100     7.090600
       8    1      6   0.16656776    10.236200    -8.249600     5.309900
       9    1      6   0.16656776     9.232100    -4.196600     7.336600
      10    1      6   0.16656776     7.642500    -5.463600     9.086000
      11    1      3  -0.04054478     7.077400    -8.304200     9.171400
      12    1      2  -0.14880742     6.952100    -9.836600     9.117600
      13    1      2  -0.14880742     5.953400   -10.558000    10.040200
      14    1      3  -0.04054478     5.074400    -9.743800    11.008100
      15    1      2  -0.14880742     5.237300    -8.216200    11.099600
      16    1      2  -0.14880742     6.244200    -7.495900    10.184000
      17    1      6   0.16656776     7.590800   -10.434200     8.386200
      18    1      6   0.16656776     5.845400   -11.691700     9.988100
      19    1      6   0.16656776     4.596500    -7.616900    11.827600
      20    1      6   0.16656776     6.359300    -6.363200    10.242100
      21    1      3  -0.04054478     3.969100   -10.451300    11.810500
      22    1      2  -0.14880742     3.751300   -11.962400    11.624400
      23    1      2  -0.14880742     2.480200   -12.625100    12.178200
      24    1      3  -0.04054478     1.438700   -11.776500    12.922900
      25    1      2  -0.14880742     1.754100   -10.311100    13.285200
      26    1      2  -0.14880742     3.018700    -9.640400    12.713100
      27    1      6   0.16656776     4.501700   -12.577500    11.025800
      28    1      6   0.16656776     2.281500   -13.730600    11.984200
      29    1      6   0.16656776     1.020800    -9.706200    13.914700
      30    1      6   0.16656776     3.223200    -8.536700    12.914100
      31    1      3  -0.04054478     0.032500   -12.350600    13.158700
      32    1      2  -0.14880742    -0.358400   -13.704400    12.533100
      33    1      2  -0.14880742    -1.842100   -14.110100    12.456700
      34    1      3  -0.04054478    -2.916900   -13.183900    13.054900
      35    1      2  -0.14880742    -2.500300   -11.941800    13.862300
      36    1      2  -0.14880742    -1.024000   -11.509700    13.893500
      37    1      6   0.16656776     0.440400   -14.372200    12.068400
      38    1      6   0.16656776    -2.145400   -15.075500    11.931200
      39    1      6   0.16656776    -3.292600   -11.309600    14.384100
      40    1      6   0.16656776    -0.720400   -10.545700    14.420700
      41    1      3  -0.04054478    -4.408100   -13.440800    12.779000
      42    1      2  -0.14880742    -4.830700   -14.493500    11.737700
      43    1      2  -0.14880742    -6.302800   -14.577600    11.284800
      44    1      3  -0.04054478    -7.351600   -13.644200    11.922500
      45    1      2  -0.14880742    -6.947800   -12.699300    13.066800
      46    1      2  -0.14880742    -5.472500   -12.579900    13.480800
      47    1      6   0.16656776    -4.047300   -15.176200    11.268600
      48    1      6   0.16656776    -6.609200   -15.310800    10.467300
      49    1      6   0.16656776    -7.736200   -12.049600    13.573000
      50    1      6   0.16656776    -5.164500   -11.839800    14.291500
      51    1      3  -0.04054478    -8.788400   -13.566800    11.382800
      52    1      2  -0.14880742    -9.185400   -14.273700    10.072500
      53    1      2  -0.14880742   -10.536000   -13.942400     9.404900
      54    1      3  -0.04054478   -11.486200   -12.925300    10.062100
      55    1      2  -0.14880742   -11.164300   -12.366800    11.460600
      56    1      2  -0.14880742    -9.805300   -12.671600    12.112400
      57    1      6   0.16656776    -8.460400   -14.993800     9.567300
      58    1      6   0.16656776   -10.809900   -14.412300     8.403100
      59    1      6   0.16656776   -11.907700   -11.679100    11.984500
      60    1      6   0.16656776    -9.533600   -12.200500    13.114700
      61    1      3  -0.04054478   -12.689700   -12.356600     9.284600
      62    1      2  -0.14880742   -12.955600   -12.755900     7.817600
      63    1      2  -0.14880742   -13.948900   -11.929700     6.971300
      64    1      3  -0.04054478   -14.666400   -10.719400     7.603700
      65    1      2  -0.14880742   -14.538200   -10.450400     9.110000
      66    1      2  -0.14880742   -13.552400   -11.273200     9.951500
      67    1      6   0.16656776   -12.380300   -13.619500     7.344800
      68    1      6   0.16656776   -14.107000   -12.177300     5.869200
      69    1      6   0.16656776   -15.129000    -9.601600     9.589100
      70    1      6   0.16656776   -13.415200   -11.039700    11.058600
      71    1      3  -0.04054478   -15.393400    -9.693300     6.719000
      72    1      2  -0.14880742   -15.433100    -9.889800     5.195000
      73    1      2  -0.14880742   -15.868900    -8.725800     4.285400
      74    1      3  -0.04054478   -16.246300    -7.367400     4.905700
      75    1      2  -0.14880742   -16.386600    -7.236300     6.434300
      76    1      2  -0.14880742   -15.958300    -8.402600     7.345100
      77    1      6   0.16656776   -15.085600   -10.874600     4.737800
      78    1      6   0.16656776   -15.857000    -8.851600     3.152600
      79    1      6   0.16656776   -16.753100    -6.258600     6.892000
      80    1      6   0.16656776   -16.003700    -8.288600     8.478900
      81    1      3  -0.04054478   -16.353700    -6.114400     4.012700
      82    1      2  -0.14880742   -16.086900    -6.215400     2.497500
      83    1      2  -0.14880742   -15.864200    -4.933300     1.672000
      84    1      3  -0.04054478   -15.922100    -3.559100     2.361900
      85    1      2  -0.14880742   -16.378300    -3.456200     3.829700
      86    1      2  -0.14880742   -16.596900    -4.736600     4.655900
      87    1      6   0.16656776   -15.999600    -7.237400     1.999900
      88    1      6   0.16656776   -15.604300    -5.004600     0.564400
      89    1      6   0.16656776   -16.500600    -2.433500     4.318300
      90    1      6   0.16656776   -16.883700    -4.662500     5.756700
      91    1      3  -0.04054478   -15.418300    -2.303500     1.622900
      92    1      2  -0.14880742   -14.850800    -2.417400     0.194400
      93    1      2  -0.14880742   -14.162700    -1.201600    -0.461800
      94    1      3  -0.04054478   -14.042900     0.125600     0.316000
      95    1      2  -0.14880742   -14.691000     0.259100     1.707000
      96    1      2  -0.14880742   -15.382700    -0.952400     2.356900
      97    1      6   0.16656776   -14.910500    -3.409700    -0.363700
      98    1      6   0.16656776   -13.727000    -1.290500    -1.511600
      99    1      6   0.16656776   -14.646600     1.253600     2.262600
     100    1      6   0.16656776   -15.835700    -0.859600     3.398800
     101    1      3  -0.04054478   -13.284000     1.329100    -0.281100
     102    1      2  -0.14880742   -12.663700     1.250600    -1.690800
     103    1      2  -0.14880742   -12.008900     2.502400    -2.317200
     104    1      1  -0.08881978   -11.991100     3.833700    -1.538100
     105    1      2  -0.14880742   -12.486400     3.868400    -0.080500
     106    1      2  -0.14880742   -13.150000     2.624500     0.540600
     107    1      6   0.16656776   -12.712300     0.275900    -2.280500
     108    1      6   0.16656776   -11.579300     2.453100    -3.371900
     109    1      6   0.16656776   -12.407700     4.832000     0.523300
     110    1      6   0.16656776   -13.562200     2.670100     1.602700
     111    1      1  -0.08881978    -6.744800     5.762900    -4.073700
     112    1      2  -0.14880742    -5.765500     4.643500    -4.474400
     113    1      2  -0.14880742    -4.261600     4.947600    -4.616600
     114    1      3  -0.04054478    -3.728400     6.368200    -4.354300
     115    1      2  -0.14880742    -4.696400     7.476900    -3.901600
     116    1      2  -0.14880742    -6.204500     7.176300    -3.767200
     117    1      6   0.16656776    -6.157100     3.595600    -4.694600
     118    1      6   0.16656776    -3.541000     4.120900    -4.927700
     119    1      6   0.16656776    -4.301000     8.523000    -3.681200
     120    1      6   0.16656776    -6.925000     8.007000    -3.465900
     121    1      3  -0.04054478    -2.224000     6.656900    -4.538200
     122    1      2  -0.14880742    -1.298900     5.529800    -5.029000
     123    1      2  -0.14880742     0.220000     5.757900    -5.110500
     124    1      1  -0.08881978     0.819800     7.104100    -4.668700
     125    1      2  -0.14880742    -0.110900     8.273700    -4.291000
     126    1      2  -0.14880742    -1.636900     8.047200    -4.220300
     127    1      6   0.16656776    -1.739300     4.518400    -5.315900
     128    1      6   0.16656776     0.906700     4.916300    -5.457700
     129    1      6   0.16656776     0.328200     9.293100    -4.030300
     130    1      6   0.16656776    -2.326400     8.900100    -3.909300
     131    1      1  -0.08881978     4.450200     6.051200    -5.275900
     132    1      2  -0.14880742     5.060400     4.698000    -5.687200
     133    1      2  -0.14880742     6.344700     4.192600    -5.004700
     134    1      1  -0.08881978     7.003000     5.034400    -3.897400
     135    1      2  -0.14880742     6.490300     6.458800    -3.609200
     136    1      2  -0.14880742     5.203600     6.963200    -4.290100
     137    1      6   0.16656776     4.533100     4.047900    -6.461000
     138    1      6   0.16656776     6.774700     3.172900    -5.279000
     139    1      6   0.16656776     7.031300     7.118200    -2.852800
     140    1      6   0.16656776     4.781600     7.988800    -4.026600
     141    1      1  -0.08881978    12.178200    -1.422300    -1.156500
     142    1      2  -0.14880742    12.400500    -2.947200    -1.179700
     143    1      2  -0.14880742    12.398400    -3.743100     0.140400
     144    1      3  -0.04054478    12.148500    -3.013200     1.473300
     145    1      2  -0.14880742    12.074600    -1.476300     1.505400
     146    1      2  -0.14880742    12.084900    -0.680200     0.188800
     147    1      6   0.16656776    12.518900    -3.492300    -2.174100
     148    1      6   0.16656776    12.524000    -4.876100     0.124400
     149    1      6   0.16656776    11.956800    -0.932200     2.500200
     150    1      6   0.16656776    11.971400     0.454000     0.206100
     151    1      3  -0.04054478    10.640400    -5.375000     5.108100
     152    1      2  -0.14880742    11.229500    -6.135900     3.906400
     153    1      2  -0.14880742    11.820900    -5.352300     2.719800
     154    1      3  -0.04054478    11.833800    -3.812900     2.750100
     155    1      2  -0.14880742    11.400600    -3.064300     4.023100
     156    1      2  -0.14880742    10.790200    -3.845300     5.199600
     157    1      6   0.16656776    11.182700    -7.274400     3.871400
     158    1      6   0.16656776    12.205100    -5.909200     1.802100
     159    1      6   0.16656776    11.478300    -1.927900     4.070100
     160    1      6   0.16656776    10.413900    -3.289700     6.121500
     161    1      4  -0.14129686   -11.602800     5.157200    -2.235600
     162    1      5  -0.18969428   -10.519400     5.201800    -3.336200
     163    1      7   0.10151531   -12.563200     5.493200    -2.749800
     164    1      7   0.10151531   -11.345400     5.936200    -1.444200
     165    1      7   0.10151531   -10.646700     6.216900    -3.839300
     166    1      7   0.10151531   -10.719100     4.393200    -4.114700
     167    1      5  -0.18969428    -9.040000     5.175100    -2.895100
     168    1      4  -0.14129686    -8.267100     5.525800    -4.185000
     169    1      7   0.10151531    -8.865100     5.993900    -2.121600
     170    1      7   0.10151531    -8.737000     4.163100    -2.467000
     171    1      7   0.10151531    -8.715600     6.493900    -4.586400
     172    1      7   0.10151531    -8.451300     4.700500    -4.949500
     173    1      4  -0.14129686     2.351300     7.241200    -4.572600
     174    1      4  -0.14129686     2.996800     6.375000    -5.671600
     175    1      7   0.10151531     2.649600     6.804900    -3.562600
     176    1      7   0.10151531     2.708900     8.321800    -4.634100
     177    1      7   0.10151531     2.918400     6.880800    -6.690400
     178    1      7   0.10151531     2.444000     5.378200    -5.701200
     179    1      4  -0.14129686     8.135700     4.434600    -3.043200
     180    1      5  -0.18969428     8.827000     3.247000    -3.740900
     181    1      7   0.10151531     7.655300     4.045600    -2.085300
     182    1      7   0.10151531     8.906400     5.230800    -2.775800
     183    1      7   0.10151531     9.439200     3.610900    -4.631100
     184    1      7   0.10151531     8.039200     2.502100    -4.093800
     185    1      5  -0.18969428     9.710000     2.556200    -2.683700
     186    1      5  -0.18969428    10.456700     1.330400    -3.243100
     187    1      7   0.10151531     9.021900     2.204400    -1.845700
     188    1      7   0.10151531    10.466900     3.294400    -2.257500
     189    1      7   0.10151531    11.251700     1.658000    -3.991700
     190    1      7   0.10151531     9.715700     0.626400    -3.748300
     191    1      5  -0.18969428    11.083400     0.595500    -2.042000
     192    1      4  -0.14129686    11.856800    -0.669300    -2.460800
     193    1      7   0.10151531    10.230900     0.282400    -1.353100
     194    1      7   0.10151531    11.782200     1.290100    -1.468700
     195    1      7   0.10151531    12.800600    -0.392700    -3.037400
     196    1      7   0.10151531    11.184200    -1.330200    -3.101500

Bonds

       1      4        1        2
       2      6        1       11
       3      3        2        3
       4      5        2        7
       5      4        3        4
       6      5        3        8
       7      4        4        5
       8      6        4      151
       9      3        5        6
      10      5        5        9
      11      4        6        1
      12      5        6       10
      13      4       11       12
      14      3       12       13
      15      5       12       17
      16      4       13       14
      17      5       13       18
      18      4       14       15
      19      6       14       21
      20      3       15       16
      21      5       15       19
      22      4       16       11
      23      5       16       20
      24      4       21       22
      25      3       22       23
      26      5       22       27
      27      4       23       24
      28      5       23       28
      29      4       24       25
      30      6       24       31
      31      3       25       26
      32      5       25       29
      33      4       26       21
      34      5       26       30
      35      4       31       32
      36      3       32       33
      37      5       32       37
      38      4       33       34
      39      5       33       38
      40      4       34       35
      41      6       34       41
      42      3       35       36
      43      5       35       39
      44      4       36       31
      45      5       36       40
      46      4       41       42
      47      3       42       43
      48      5       42       47
      49      4       43       44
      50      5       43       48
      51      4       44       45
      52      6       44       51
      53      3       45       46
      54      5       45       49
      55      4       46       41
      56      5       46       50
      57      4       51       52
      58      3       52       53
      59      5       52       57
      60      4       53       54
      61      5       53       58
      62      4       54       55
      63      6       54       61
      64      3       55       56
      65      5       55       59
      66      4       56       51
      67      5       56       60
      68      4       61       62
      69      3       62       63
      70      5       62       67
      71      4       63       64
      72      5       63       68
      73      4       64       65
      74      6       64       71
      75      3       65       66
      76      5       65       69
      77      4       66       61
      78      5       66       70
      79      4       71       72
      80      3       72       73
      81      5       72       77
      82      4       73       74
      83      5       73       78
      84      4       74       75
      85      6       74       81
      86      3       75       76
      87      5       75       79
      88      4       76       71
      89      5       76       80
      90      4       81       82
      91      3       82       83
      92      5       82       87
      93      4       83       84
      94      5       83       88
      95      4       84       85
      96      6       84       91
      97      3       85       86
      98      5       85       89
      99      4       86       81
     100      5       86       90
     101      4       91       92
     102      3       92       93
     103      5       92       97
     104      4       93       94
     105      5       93       98
     106      4       94       95
     107      6       94      101
     108      3       95       96
     109      5       95       99
     110      4       96       91
     111      5       96      100
     112      4      101      102
     113      3      102      103
     114      5      102      107
     115      1      103      104
     116      5      103      108
     117      1      104      105
     118      2      104      161
     119      3      105      106
     120      5      105      109
     121      4      106      101
     122      5      106      110
     123      1      111      112
     124      2      111      168
     125      3      112      113
     126      5      112      117
     127      4      113      114
     128      5      113      118
     129      4      114      115
     130      6      114      121
     131      3      115      116
     132      5      115      119
     133      1      116      111
     134      5      116      120
     135      4      121      122
     136      3      122      123
     137      5      122      127
     138      1      123      124
     139      5      123      128
     140      1      124      125
     141      2      124      173
     142      3      125      126
     143      5      125      129
     144      4      126      121
     145      5      126      130
     146      1      131      132
     147      2      131      174
     148      3      132      133
     149      5      132      137
     150      1      133      134
     151      5      133      138
     152      1      134      135
     153      2      134      179
     154      3      135      136
     155      5      135      139
     156      1      136      131
     157      5      136      140
     158      1      141      142
     159      2      141      192
     160      3      142      143
     161      5      142      147
     162      4      143      144
     163      5      143      148
     164      4      144      145
     165      6      144      154
     166      3      145      146
     167      5      145      149
     168      1      146      141
     169      5      146      150
     170      4      151      152
     171      3      152      153
     172      5      152      157
     173      4      153      154
     174      5      153      158
     175      4      154      155
     176      3      155      156
     177      5      155      159
     178      4      156      151
     179      5      156      160
     180      8      161      162
     181      9      161      163
     182      9      161      164
     183     11      162      165
     184     11      162      166
     185     10      162      167
     186      8      167      168
     187     11      167      169
     188     11      167      170
     189      9      168      171
     190      9      168      172
     191      7      173      174
     192      9      173      175
     193      9      173      176
     194      9      174      177
     195      9      174      178
     196      8      179      180
     197      9      179      181
     198      9      179      182
     199     11      180      183
     200     11      180      184
     201     10      180      185
     202     10      185      186
     203     11      185      187
     204     11      185      188
     205     11      186      189
     206     11      186      190
     207     10      186      191
     208      8      191      192
     209     11      191      193
     210     11      191      194
     211      9      192      195
     212      9      192      196

Angles

       1      8        1        2        3
       2     12        1        2        7
       3      8        1        6        5
       4     12        1        6       10
       5     11        1       11       12
       6     11        1       11       16
       7     10        2        1        6
       8     11        2        1       11
       9      8        2        3        4
      10      9        2        3        8
      11      9        3        2        7
      12     10        3        4        5
      13     11        3        4      151
      14     12        4        3        8
      15      8        4        5        6
      16     12        4        5        9
      17     11        4      151      152
      18     11        4      151      156
      19     11        5        4      151
      20      9        5        6       10
      21     11        6        1       11
      22      9        6        5        9
      23      8       11       12       13
      24     12       11       12       17
      25      8       11       16       15
      26     12       11       16       20
      27     10       12       11       16
      28      8       12       13       14
      29      9       12       13       18
      30      9       13       12       17
      31     10       13       14       15
      32     11       13       14       21
      33     12       14       13       18
      34      8       14       15       16
      35     12       14       15       19
      36     11       14       21       22
      37     11       14       21       26
      38     11       15       14       21
      39      9       15       16       20
      40      9       16       15       19
      41      8       21       22       23
      42     12       21       22       27
      43      8       21       26       25
      44     12       21       26       30
      45     10       22       21       26
      46      8       22       23       24
      47      9       22       23       28
      48      9       23       22       27
      49     10       23       24       25
      50     11       23       24       31
      51     12       24       23       28
      52      8       24       25       26
      53     12       24       25       29
      54     11       24       31       32
      55     11       24       31       36
      56     11       25       24       31
      57      9       25       26       30
      58      9       26       25       29
      59      8       31       32       33
      60     12       31       32       37
      61      8       31       36       35
      62     12       31       36       40
      63     10       32       31       36
      64      8       32       33       34
      65      9       32       33       38
      66      9       33       32       37
      67     10       33       34       35
      68     11       33       34       41
      69     12       34       33       38
      70      8       34       35       36
      71     12       34       35       39
      72     11       34       41       42
      73     11       34       41       46
      74     11       35       34       41
      75      9       35       36       40
      76      9       36       35       39
      77      8       41       42       43
      78     12       41       42       47
      79      8       41       46       45
      80     12       41       46       50
      81     10       42       41       46
      82      8       42       43       44
      83      9       42       43       48
      84      9       43       42       47
      85     10       43       44       45
      86     11       43       44       51
      87     12       44       43       48
      88      8       44       45       46
      89     12       44       45       49
      90     11       44       51       52
      91     11       44       51       56
      92     11       45       44       51
      93      9       45       46       50
      94      9       46       45       49
      95      8       51       52       53
      96     12       51       52       57
      97      8       51       56       55
      98     12       51       56       60
      99     10       52       51       56
     100      8       52       53       54
     101      9       52       53       58
     102      9       53       52       57
     103     10       53       54       55
     104     11       53       54       61
     105     12       54       53       58
     106      8       54       55       56
     107     12       54       55       59
     108     11       54       61       62
     109     11       54       61       66
     110     11       55       54       61
     111      9       55       56       60
     112      9       56       55       59
     113      8       61       62       63
     114     12       61       62       67
     115      8       61       66       65
     116     12       61       66       70
     117     10       62       61       66
     118      8       62       63       64
     119      9       62       63       68
     120      9       63       62       67
     121     10       63       64       65
     122     11       63       64       71
     123     12       64       63       68
     124      8       64       65       66
     125     12       64       65       69
     126     11       64       71       72
     127     11       64       71       76
     128     11       65       64       71
     129      9       65       66       70
     130      9       66       65       69
     131      8       71       72       73
     132     12       71       72       77
     133      8       71       76       75
     134     12       71       76       80
     135     10       72       71       76
     136      8       72       73       74
     137      9       72       73       78
     138      9       73       72       77
     139     10       73       74       75
     140     11       73       74       81
     141     12       74       73       78
     142      8       74       75       76
     143     12       74       75       79
     144     11       74       81       82
     145     11       74       81       86
     146     11       75       74       81
     147      9       75       76       80
     148      9       76       75       79
     149      8       81       82       83
     150     12       81       82       87
     151      8       81       86       85
     152     12       81       86       90
     153     10       82       81       86
     154      8       82       83       84
     155      9       82       83       88
     156      9       83       82       87
     157     10       83       84       85
     158     11       83       84       91
     159     12       84       83       88
     160      8       84       85       86
     161     12       84       85       89
     162     11       84       91       92
     163     11       84       91       96
     164     11       85       84       91
     165      9       85       86       90
     166      9       86       85       89
     167      8       91       92       93
     168     12       91       92       97
     169      8       91       96       95
     170     12       91       96      100
     171     10       92       91       96
     172      8       92       93       94
     173      9       92       93       98
     174      9       93       92       97
     175     10       93       94       95
     176     11       93       94      101
     177     12       94       93       98
     178      8       94       95       96
     179     12       94       95       99
     180     11       94      101      102
     181     11       94      101      106
     182     11       95       94      101
     183      9       95       96      100
     184      9       96       95       99
     185      8      101      102      103
     186     12      101      102      107
     187      8      101      106      105
     188     12      101      106      110
     189     10      102      101      106
     190      1      102      103      104
     191      9      102      103      108
     192      9      103      102      107
     193      6      103      104      105
     194      7      103      104      161
     195      2      104      103      108
     196      1      104      105      106
     197      2      104      105      109
     198      4      104      161      162
     199      5      104      161      163
     200      5      104      161      164
     201      7      105      104      161
     202      9      105      106      110
     203      9      106      105      109
     204      1      111      112      113
     205      2      111      112      117
     206      1      111      116      115
     207      2      111      116      120
     208      4      111      168      167
     209      5      111      168      171
     210      5      111      168      172
     211      6      112      111      116
     212      7      112      111      168
     213      8      112      113      114
     214      9      112      113      118
     215      9      113      112      117
     216     10      113      114      115
     217     11      113      114      121
     218     12      114      113      118
     219      8      114      115      116
     220     12      114      115      119
     221     11      114      121      122
     222     11      114      121      126
     223     11      115      114      121
     224      9      115      116      120
     225      7      116      111      168
     226      9      116      115      119
     227      8      121      122      123
     228     12      121      122      127
     229      8      121      126      125
     230     12      121      126      130
     231     10      122      121      126
     232      1      122      123      124
     233      9      122      123      128
     234      9      123      122      127
     235      6      123      124      125
     236      7      123      124      173
     237      2      124      123      128
     238      1      124      125      126
     239      2      124      125      129
     240      3      124      173      174
     241      5      124      173      175
     242      5      124      173      176
     243      7      125      124      173
     244      9      125      126      130
     245      9      126      125      129
     246      1      131      132      133
     247      2      131      132      137
     248      1      131      136      135
     249      2      131      136      140
     250      3      131      174      173
     251      5      131      174      177
     252      5      131      174      178
     253      6      132      131      136
     254      7      132      131      174
     255      1      132      133      134
     256      9      132      133      138
     257      9      133      132      137
     258      6      133      134      135
     259      7      133      134      179
     260      2      134      133      138
     261      1      134      135      136
     262      2      134      135      139
     263      4      134      179      180
     264      5      134      179      181
     265      5      134      179      182
     266      7      135      134      179
     267      9      135      136      140
     268      7      136      131      174
     269      9      136      135      139
     270      1      141      142      143
     271      2      141      142      147
     272      1      141      146      145
     273      2      141      146      150
     274      4      141      192      191
     275      5      141      192      195
     276      5      141      192      196
     277      6      142      141      146
     278      7      142      141      192
     279      8      142      143      144
     280      9      142      143      148
     281      9      143      142      147
     282     10      143      144      145
     283     11      143      144      154
     284     12      144      143      148
     285      8      144      145      146
     286     12      144      145      149
     287     11      144      154      153
     288     11      144      154      155
     289     11      145      144      154
     290      9      145      146      150
     291      7      146      141      192
     292      9      146      145      149
     293      8      151      152      153
     294     12      151      152      157
     295      8      151      156      155
     296     12      151      156      160
     297     10      152      151      156
     298      8      152      153      154
     299      9      152      153      158
     300      9      153      152      157
     301     10      153      154      155
     302     12      154      153      158
     303      8      154      155      156
     304     12      154      155      159
     305      9      155      156      160
     306      9      156      155      159
     307     15      161      162      165
     308     15      161      162      166
     309     14      161      162      167
     310     16      162      161      163
     311     16      162      161      164
     312     14      162      167      168
     313     18      162      167      169
     314     18      162      167      170
     315     19      163      161      164
     316     20      165      162      166
     317     18      165      162      167
     318     18      166      162      167
     319     16      167      168      171
     320     16      167      168      172
     321     15      168      167      169
     322     15      168      167      170
     323     20      169      167      170
     324     19      171      168      172
     325     13      173      174      177
     326     13      173      174      178
     327     13      174      173      175
     328     13      174      173      176
     329     19      175      173      176
     330     19      177      174      178
     331     15      179      180      183
     332     15      179      180      184
     333     14      179      180      185
     334     16      180      179      181
     335     16      180      179      182
     336     17      180      185      186
     337     18      180      185      187
     338     18      180      185      188
     339     19      181      179      182
     340     20      183      180      184
     341     18      183      180      185
     342     18      184      180      185
     343     18      185      186      189
     344     18      185      186      190
     345     17      185      186      191
     346     18      186      185      187
     347     18      186      185      188
     348     14      186      191      192
     349     18      186      191      193
     350     18      186      191      194
     351     20      187      185      188
     352     20      189      186      190
     353     18      189      186      191
     354     18      190      186      191
     355     16      191      192      195
     356     16      191      192      196
     357     15      192      191      193
     358     15      192      191      194
     359     20      193      191      194
     360     19      195      192      196

Dihedrals

       1     18        1        2        3        4
       2     19        1        2        3        8
       3     18        1        6        5        4
       4     19        1        6        5        9
       5     15        1       11       12       13
       6     20        1       11       12       17
       7     15        1       11       16       15
       8     20        1       11       16       20
       9     14        2        1        6        5
      10     16        2        1        6       10
      11     17        2        1       11       12
      12     17        2        1       11       16
      13     14        2        3        4        5
      14     15        2        3        4      151
      15     14        3        2        1        6
      16     15        3        2        1       11
      17     14        3        4        5        6
      18     16        3        4        5        9
      19     17        3        4      151      152
      20     17        3        4      151      156
      21     19        4        3        2        7
      22     19        4        5        6       10
      23     15        4      151      152      153
      24     20        4      151      152      157
      25     15        4      151      156      155
      26     20        4      151      156      160
      27     16        5        4        3        8
      28     17        5        4      151      152
      29     17        5        4      151      156
      30     15        5        6        1       11
      31     16        6        1        2        7
      32     17        6        1       11       12
      33     17        6        1       11       16
      34     15        6        5        4      151
      35     20        7        2        1       11
      36     28        7        2        3        8
      37     20        8        3        4      151
      38     20        9        5        4      151
      39     28        9        5        6       10
      40     20       10        6        1       11
      41     18       11       12       13       14
      42     19       11       12       13       18
      43     18       11       16       15       14
      44     19       11       16       15       19
      45     14       12       11       16       15
      46     16       12       11       16       20
      47     14       12       13       14       15
      48     15       12       13       14       21
      49     14       13       12       11       16
      50     14       13       14       15       16
      51     16       13       14       15       19
      52     17       13       14       21       22
      53     17       13       14       21       26
      54     19       14       13       12       17
      55     19       14       15       16       20
      56     15       14       21       22       23
      57     20       14       21       22       27
      58     15       14       21       26       25
      59     20       14       21       26       30
      60     16       15       14       13       18
      61     17       15       14       21       22
      62     17       15       14       21       26
      63     16       16       11       12       17
      64     15       16       15       14       21
      65     28       17       12       13       18
      66     20       18       13       14       21
      67     20       19       15       14       21
      68     28       19       15       16       20
      69     18       21       22       23       24
      70     19       21       22       23       28
      71     18       21       26       25       24
      72     19       21       26       25       29
      73     14       22       21       26       25
      74     16       22       21       26       30
      75     14       22       23       24       25
      76     15       22       23       24       31
      77     14       23       22       21       26
      78     14       23       24       25       26
      79     16       23       24       25       29
      80     17       23       24       31       32
      81     17       23       24       31       36
      82     19       24       23       22       27
      83     19       24       25       26       30
      84     15       24       31       32       33
      85     20       24       31       32       37
      86     15       24       31       36       35
      87     20       24       31       36       40
      88     16       25       24       23       28
      89     17       25       24       31       32
      90     17       25       24       31       36
      91     16       26       21       22       27
      92     15       26       25       24       31
      93     28       27       22       23       28
      94     20       28       23       24       31
      95     20       29       25       24       31
      96     28       29       25       26       30
      97     18       31       32       33       34
      98     19       31       32       33       38
      99     18       31       36       35       34
     100     19       31       36       35       39
     101     14       32       31       36       35
     102     16       32       31       36       40
     103     14       32       33       34       35
     104     15       32       33       34       41
     105     14       33       32       31       36
     106     14       33       34       35       36
     107     16       33       34       35       39
     108     17       33       34       41       42
     109     17       33       34       41       46
     110     19       34       33       32       37
     111     19       34       35       36       40
     112     15       34       41       42       43
     113     20       34       41       42       47
     114     15       34       41       46       45
     115     20       34       41       46       50
     116     16       35       34       33       38
     117     17       35       34       41       42
     118     17       35       34       41       46
     119     16       36       31       32       37
     120     15       36       35       34       41
     121     28       37       32       33       38
     122     20       38       33       34       41
     123     20       39       35       34       41
     124     28       39       35       36       40
     125     18       41       42       43       44
     126     19       41       42       43       48
     127     18       41       46       45       44
     128     19       41       46       45       49
     129     14       42       41       46       45
     130     16       42       41       46       50
     131     14       42       43       44       45
     132     15       42       43       44       51
     133     14       43       42       41       46
     134     14       43       44       45       46
     135     16       43       44       45       49
     136     17       43       44       51       52
     137     17       43       44       51       56
     138     19       44       43       42       47
     139     19       44       45       46       50
     140     15       44       51       52       53
     141     20       44       51       52       57
     142     15       44       51       56       55
     143     20       44       51       56       60
     144     16       45       44       43       48
     145     17       45       44       51       52
     146     17       45       44       51       56
     147     16       46       41       42       47
     148     15       46       45       44       51
     149     28       47       42       43       48
     150     20       48       43       44       51
     151     20       49       45       44       51
     152     28       49       45       46       50
     153     18       51       52       53       54
     154     19       51       52       53       58
     155     18       51       56       55       54
     156     19       51       56       55       59
     157     14       52       51       56       55
     158     16       52       51       56       60
     159     14       52       53       54       55
     160     15       52       53       54       61
     161     14       53       52       51       56
     162     14       53       54       55       56
     163     16       53       54       55       59
     164     17       53       54       61       62
     165     17       53       54       61       66
     166     19       54       53       52       57
     167     19       54       55       56       60
     168     15       54       61       62       63
     169     20       54       61       62       67
     170     15       54       61       66       65
     171     20       54       61       66       70
     172     16       55       54       53       58
     173     17       55       54       61       62
     174     17       55       54       61       66
     175     16       56       51       52       57
     176     15       56       55       54       61
     177     28       57       52       53       58
     178     20       58       53       54       61
     179     20       59       55       54       61
     180     28       59       55       56       60
     181     18       61       62       63       64
     182     19       61       62       63       68
     183     18       61       66       65       64
     184     19       61       66       65       69
     185     14       62       61       66       65
     186     16       62       61       66       70
     187     14       62       63       64       65
     188     15       62       63       64       71
     189     14       63       62       61       66
     190     14       63       64       65       66
     191     16       63       64       65       69
     192     17       63       64       71       72
     193     17       63       64       71       76
     194     19       64       63       62       67
     195     19       64       65       66       70
     196     15       64       71       72       73
     197     20       64       71       72       77
     198     15       64       71       76       75
     199     20       64       71       76       80
     200     16       65       64       63       68
     201     17       65       64       71       72
     202     17       65       64       71       76
     203     16       66       61       62       67
     204     15       66       65       64       71
     205     28       67       62       63       68
     206     20       68       63       64       71
     207     20       69       65       64       71
     208     28       69       65       66       70
     209     18       71       72       73       74
     210     19       71       72       73       78
     211     18       71       76       75       74
     212     19       71       76       75       79
     213     14       72       71       76       75
     214     16       72       71       76       80
     215     14       72       73       74       75
     216     15       72       73       74       81
     217     14       73       72       71       76
     218     14       73       74       75       76
     219     16       73       74       75       79
     220     17       73       74       81       82
     221     17       73       74       81       86
     222     19       74       73       72       77
     223     19       74       75       76       80
     224     15       74       81       82       83
     225     20       74       81       82       87
     226     15       74       81       86       85
     227     20       74       81       86       90
     228     16       75       74       73       78
     229     17       75       74       81       82
     230     17       75       74       81       86
     231     16       76       71       72       77
     232     15       76       75       74       81
     233     28       77       72       73       78
     234     20       78       73       74       81
     235     20       79       75       74       81
     236     28       79       75       76       80
     237     18       81       82       83       84
     238     19       81       82       83       88
     239     18       81       86       85       84
     240     19       81       86       85       89
     241     14       82       81       86       85
     242     16       82       81       86       90
     243     14       82       83       84       85
     244     15       82       83       84       91
     245     14       83       82       81       86
     246     14       83       84       85       86
     247     16       83       84       85       89
     248     17       83       84       91       92
     249     17       83       84       91       96
     250     19       84       83       82       87
     251     19       84       85       86       90
     252     15       84       91       92       93
     253     20       84       91       92       97
     254     15       84       91       96       95
     255     20       84       91       96      100
     256     16       85       84       83       88
     257     17       85       84       91       92
     258     17       85       84       91       96
     259     16       86       81       82       87
     260     15       86       85       84       91
     261     28       87       82       83       88
     262     20       88       83       84       91
     263     20       89       85       84       91
     264     28       89       85       86       90
     265     18       91       92       93       94
     266     19       91       92       93       98
     267     18       91       96       95       94
     268     19       91       96       95       99
     269     14       92       91       96       95
     270     16       92       91       96      100
     271     14       92       93       94       95
     272     15       92       93       94      101
     273     14       93       92       91       96
     274     14       93       94       95       96
     275     16       93       94       95       99
     276     17       93       94      101      102
     277     17       93       94      101      106
     278     19       94       93       92       97
     279     19       94       95       96      100
     280     15       94      101      102      103
     281     20       94      101      102      107
     282     15       94      101      106      105
     283     20       94      101      106      110
     284     16       95       94       93       98
     285     17       95       94      101      102
     286     17       95       94      101      106
     287     16       96       91       92       97
     288     15       96       95       94      101
     289     28       97       92       93       98
     290     20       98       93       94      101
     291     20       99       95       94      101
     292     28       99       95       96      100
     293      2      101      102      103      104
     294     19      101      102      103      108
     295      2      101      106      105      104
     296     19      101      106      105      109
     297     14      102      101      106      105
     298     16      102      101      106      110
     299      8      102      103      104      105
     300     13      102      103      104      161
     301     14      103      102      101      106
     302      8      103      104      105      106
     303      9      103      104      105      109
     304     11      103      104      161      162
     305     12      103      104      161      163
     306     12      103      104      161      164
     307      3      104      103      102      107
     308      3      104      105      106      110
     309      7      104      161      162      165
     310      7      104      161      162      166
     311      6      104      161      162      167
     312      9      105      104      103      108
     313     11      105      104      161      162
     314     12      105      104      161      163
     315     12      105      104      161      164
     316     16      106      101      102      107
     317     13      106      105      104      161
     318     28      107      102      103      108
     319     21      108      103      104      161
     320     21      109      105      104      161
     321     28      109      105      106      110
     322      2      111      112      113      114
     323      3      111      112      113      118
     324      2      111      116      115      114
     325      3      111      116      115      119
     326      6      111      168      167      162
     327      7      111      168      167      169
     328      7      111      168      167      170
     329      8      112      111      116      115
     330      9      112      111      116      120
     331     11      112      111      168      167
     332     12      112      111      168      171
     333     12      112      111      168      172
     334     14      112      113      114      115
     335     15      112      113      114      121
     336      8      113      112      111      116
     337     13      113      112      111      168
     338     14      113      114      115      116
     339     16      113      114      115      119
     340     17      113      114      121      122
     341     17      113      114      121      126
     342     19      114      113      112      117
     343     19      114      115      116      120
     344     15      114      121      122      123
     345     20      114      121      122      127
     346     15      114      121      126      125
     347     20      114      121      126      130
     348     16      115      114      113      118
     349     17      115      114      121      122
     350     17      115      114      121      126
     351     13      115      116      111      168
     352      9      116      111      112      117
     353     11      116      111      168      167
     354     12      116      111      168      171
     355     12      116      111      168      172
     356     15      116      115      114      121
     357     21      117      112      111      168
     358     28      117      112      113      118
     359     20      118      113      114      121
     360     20      119      115      114      121
     361     28      119      115      116      120
     362     21      120      116      111      168
     363      2      121      122      123      124
     364     19      121      122      123      128
     365      2      121      126      125      124
     366     19      121      126      125      129
     367     14      122      121      126      125
     368     16      122      121      126      130
     369      8      122      123      124      125
     370     13      122      123      124      173
     371     14      123      122      121      126
     372      8      123      124      125      126
     373      9      123      124      125      129
     374     10      123      124      173      174
     375     12      123      124      173      175
     376     12      123      124      173      176
     377      3      124      123      122      127
     378      3      124      125      126      130
     379      4      124      173      174      131
     380      5      124      173      174      177
     381      5      124      173      174      178
     382      9      125      124      123      128
     383     10      125      124      173      174
     384     12      125      124      173      175
     385     12      125      124      173      176
     386     16      126      121      122      127
     387     13      126      125      124      173
     388     28      127      122      123      128
     389     21      128      123      124      173
     390     21      129      125      124      173
     391     28      129      125      126      130
     392      1      131      132      133      134
     393      3      131      132      133      138
     394      1      131      136      135      134
     395      3      131      136      135      139
     396      5      131      174      173      175
     397      5      131      174      173      176
     398      8      132      131      136      135
     399      9      132      131      136      140
     400     10      132      131      174      173
     401     12      132      131      174      177
     402     12      132      131      174      178
     403      8      132      133      134      135
     404     13      132      133      134      179
     405      8      133      132      131      136
     406     13      133      132      131      174
     407      8      133      134      135      136
     408      9      133      134      135      139
     409     11      133      134      179      180
     410     12      133      134      179      181
     411     12      133      134      179      182
     412      3      134      133      132      137
     413      3      134      135      136      140
     414      7      134      179      180      183
     415      7      134      179      180      184
     416      6      134      179      180      185
     417      9      135      134      133      138
     418     11      135      134      179      180
     419     12      135      134      179      181
     420     12      135      134      179      182
     421     13      135      136      131      174
     422      9      136      131      132      137
     423     10      136      131      174      173
     424     12      136      131      174      177
     425     12      136      131      174      178
     426     13      136      135      134      179
     427     21      137      132      131      174
     428     28      137      132      133      138
     429     21      138      133      134      179
     430     21      139      135      134      179
     431     28      139      135      136      140
     432     21      140      136      131      174
     433      2      141      142      143      144
     434      3      141      142      143      148
     435      2      141      146      145      144
     436      3      141      146      145      149
     437      6      141      192      191      186
     438      7      141      192      191      193
     439      7      141      192      191      194
     440      8      142      141      146      145
     441      9      142      141      146      150
     442     11      142      141      192      191
     443     12      142      141      192      195
     444     12      142      141      192      196
     445     14      142      143      144      145
     446     15      142      143      144      154
     447      8      143      142      141      146
     448     13      143      142      141      192
     449     14      143      144      145      146
     450     16      143      144      145      149
     451     17      143      144      154      153
     452     17      143      144      154      155
     453     19      144      143      142      147
     454     19      144      145      146      150
     455     15      144      154      153      152
     456     20      144      154      153      158
     457     15      144      154      155      156
     458     20      144      154      155      159
     459     16      145      144      143      148
     460     17      145      144      154      153
     461     17      145      144      154      155
     462     13      145      146      141      192
     463      9      146      141      142      147
     464     11      146      141      192      191
     465     12      146      141      192      195
     466     12      146      141      192      196
     467     15      146      145      144      154
     468     21      147      142      141      192
     469     28      147      142      143      148
     470     20      148      143      144      154
     471     20      149      145      144      154
     472     28      149      145      146      150
     473     21      150      146      141      192
     474     18      151      152      153      154
     475     19      151      152      153      158
     476     18      151      156      155      154
     477     19      151      156      155      159
     478     14      152      151      156      155
     479     16      152      151      156      160
     480     14      152      153      154      155
     481     14      153      152      151      156
     482     14      153      154      155      156
     483     16      153      154      155      159
     484     19      154      153      152      157
     485     19      154      155      156      160
     486     16      155      154      153      158
     487     16      156      151      152      157
     488     28      157      152      153      158
     489     28      159      155      156      160
     490     22      161      162      167      168
     491     24      161      162      167      169
     492     24      161      162      167      170
     493     25      162      167      168      171
     494     25      162      167      168      172
     495     30      163      161      162      165
     496     30      163      161      162      166
     497     25      163      161      162      167
     498     30      164      161      162      165
     499     30      164      161      162      166
     500     25      164      161      162      167
     501     24      165      162      167      168
     502     31      165      162      167      169
     503     31      165      162      167      170
     504     24      166      162      167      168
     505     31      166      162      167      169
     506     31      166      162      167      170
     507     30      169      167      168      171
     508     30      169      167      168      172
     509     30      170      167      168      171
     510     30      170      167      168      172
     511     29      175      173      174      177
     512     29      175      173      174      178
     513     29      176      173      174      177
     514     29      176      173      174      178
     515     23      179      180      185      186
     516     24      179      180      185      187
     517     24      179      180      185      188
     518     27      180      185      186      189
     519     27      180      185      186      190
     520     26      180      185      186      191
     521     30      181      179      180      183
     522     30      181      179      180      184
     523     25      181      179      180      185
     524     30      182      179      180      183
     525     30      182      179      180      184
     526     25      182      179      180      185
     527     27      183      180      185      186
     528     31      183      180      185      187
     529     31      183      180      185      188
     530     27      184      180      185      186
     531     31      184      180      185      187
     532     31      184      180      185      188
     533     23      185      186      191      192
     534     27      185      186      191      193
     535     27      185      186      191      194
     536     25      186      191      192      195
     537     25      186      191      192      196
     538     31      187      185      186      189
     539     31      187      185      186      190
     540     27      187      185      186      191
     541     31      188      185      186      189
     542     31      188      185      186      190
     543     27      188      185      186      191
     544     24      189      186      191      192
     545     31      189      186      191      193
     546     31      189      186      191      194
     547     24      190      186      191      192
     548     31      190      186      191      193
     549     31      190      186      191      194
     550     30      193      191      192      195
     551     30      193      191      192      196
     552     30      194      191      192      195
     553     30      194      191      192      196

Impropers

       1      4        2        1        6       11
       2      3        1        2        3        7
       3      3        2        3        4        8
       4      4        3        4        5      151
       5      3        4        5        6        9
       6      3        1        6        5       10
       7      4        1       11       12       16
       8      3       11       12       13       17
       9      3       12       13       14       18
      10      4       13       14       15       21
      11      3       14       15       16       19
      12      3       11       16       15       20
      13      4       14       21       22       26
      14      3       21       22       23       27
      15      3       22       23       24       28
      16      4       23       24       25       31
      17      3       24       25       26       29
      18      3       21       26       25       30
      19      4       24       31       32       36
      20      3       31       32       33       37
      21      3       32       33       34       38
      22      4       33       34       35       41
      23      3       34       35       36       39
      24      3       31       36       35       40
      25      4       34       41       42       46
      26      3       41       42       43       47
      27      3       42       43       44       48
      28      4       43       44       45       51
      29      3       44       45       46       49
      30      3       41       46       45       50
      31      4       44       51       52       56
      32      3       51       52       53       57
      33      3       52       53       54       58
      34      4       53       54       55       61
      35      3       54       55       56       59
      36      3       51       56       55       60
      37      4       54       61       62       66
      38      3       61       62       63       67
      39      3       62       63       64       68
      40      4       63       64       65       71
      41      3       64       65       66       69
      42      3       61       66       65       70
      43      4       64       71       72       76
      44      3       71       72       73       77
      45      3       72       73       74       78
      46      4       73       74       75       81
      47      3       74       75       76       79
      48      3       71       76       75       80
      49      4       74       81       82       86
      50      3       81       82       83       87
      51      3       82       83       84       88
      52      4       83       84       85       91
      53      3       84       85       86       89
      54      3       81       86       85       90
      55      4       84       91       92       96
      56      3       91       92       93       97
      57      3       92       93       94       98
      58      4       93       94       95      101
      59      3       94       95       96       99
      60      3       91       96       95      100
      61      4       94      101      102      106
      62      3      101      102      103      107
      63      2      102      103      104      108
      64      1      103      104      105      161
      65      2      104      105      106      109
      66      3      101      106      105      110
      67      1      112      111      116      168
      68      2      111      112      113      117
      69      3      112      113      114      118
      70      4      113      114      115      121
      71      3      114      115      116      119
      72      2      111      116      115      120
      73      4      114      121      122      126
      74      3      121      122      123      127
      75      2      122      123      124      128
      76      1      123      124      125      173
      77      2      124      125      126      129
      78      3      121      126      125      130
      79      1      132      131      136      174
      80      2      131      132      133      137
      81      2      132      133      134      138
      82      1      133      134      135      179
      83      2      134      135      136      139
      84      2      131      136      135      140
      85      1      142      141      146      192
      86      2      141      142      143      147
      87      3      142      143      144      148
      88      4      143      144      145      154
      89      3      144      145      146      149
      90      2      141      146      145      150
      91      4        4      151      152      156
      92      3      151      152      153      157
      93      3      152      153      154      158
      94      4      144      154      153      155
      95      3      154      155      156      159
      96      3      151      156      155      160

