LAMMPS data file generated by clean-room 1-hop pipeline

     200 atoms
     205 bonds
     384 angles
     572 dihedrals
      36 impropers

      10 atom types
      19 bond types
      43 angle types
      67 dihedral types
       9 improper types

  -29.906400    32.515500 xlo xhi
  -29.765400    28.774800 ylo yhi
  -27.420500    33.965200 zlo zhi

Masses

       1    12.011000
       2    12.011000
       3    12.011000
       4    12.011000
       5    12.011000
       6    12.011000
       7    12.011000
       8    12.011000
       9     1.008000
      10     1.008000

Pair Coeffs

       1     0.070000     3.550000
       2     0.070000     3.550000
       3     0.070000     3.550000
       4     0.066000     3.500000
       5     0.066000     3.500000
       6     0.066000     3.500000
       7     0.066000     3.500000
       8     0.066000     3.500000
       9     0.030000     2.420000
      10     0.030000     2.500000

Bond Coeffs

       1   469.000000     1.400000
       2   469.000000     1.400000
       3   317.000000     1.510000
       4   469.000000     1.400000
       5   469.000000     1.400000
       6   367.000000     1.080000
       7   385.000000     1.460000
       8   268.000000     1.529000
       9   268.000000     1.529000
      10   268.000000     1.529000
      11   268.000000     1.529000
      12   340.000000     1.090000
      13   268.000000     1.529000
      14   340.000000     1.090000
      15   268.000000     1.529000
      16   268.000000     1.529000
      17   268.000000     1.529000
      18   340.000000     1.090000
      19   340.000000     1.090000

Angle Coeffs

       1    63.000000   120.000000
       2    63.000000   120.000000
       3    35.000000   120.000000
       4    63.000000   120.000000
       5    63.000000   120.000000
       6    63.000000   114.000000
       7    63.000000   114.000000
       8    63.000000   114.000000
       9    63.000000   114.000000
      10    35.000000   109.500000
      11    63.000000   120.000000
      12    63.000000   120.000000
      13    70.000000   120.000000
      14    63.000000   120.000000
      15    63.000000   120.000000
      16    35.000000   120.000000
      17    63.000000   120.000000
      18    63.000000   120.000000
      19    70.000000   120.000000
      20    63.000000   120.000000
      21    35.000000   120.000000
      22    37.500000   110.700000
      23    37.500000   110.700000
      24    58.350000   112.700000
      25    37.500000   110.700000
      26    58.350000   112.700000
      27    37.500000   110.700000
      28    58.350000   112.700000
      29    37.500000   110.700000
      30    37.500000   110.700000
      31    58.350000   112.700000
      32    58.350000   112.700000
      33    37.500000   110.700000
      34    58.350000   112.700000
      35    37.500000   110.700000
      36    58.350000   112.700000
      37    37.500000   110.700000
      38    37.500000   110.700000
      39    37.500000   110.700000
      40    37.500000   110.700000
      41    33.000000   107.800000
      42    33.000000   107.800000
      43    33.000000   107.800000

Dihedral Coeffs

       1     0.000000     7.250000     0.000000     0.000000
       2     0.000000     7.250000     0.000000     0.000000
       3     0.000000     7.250000     0.000000     0.000000
       4     0.000000     7.250000     0.000000     0.000000
       5     0.000000     7.250000     0.000000     0.000000
       6     0.000000     7.250000     0.000000     0.000000
       7     0.000000     7.250000     0.000000     0.000000
       8     0.000000     1.650000     0.000000    -0.050000
       9     0.000000     0.000000     0.000000     0.000000
      10     0.000000     0.000000     0.462000     0.000000
      11     0.000000     0.000000     0.462000     0.000000
      12     0.000000     0.000000     0.000000     0.000000
      13     0.000000     0.000000     0.462000     0.000000
      14     0.000000     0.000000     0.000000     0.000000
      15     0.000000     7.250000     0.000000     0.000000
      16     0.000000     7.250000     0.000000     0.000000
      17     0.000000     7.250000     0.000000     0.000000
      18     0.000000     7.250000     0.000000     0.000000
      19    -0.250000     0.000000     0.000000     0.000000
      20    -0.250000     0.000000     0.000000     0.000000
      21    -0.250000     0.000000     0.000000     0.000000
      22    -0.250000     0.000000     0.000000     0.000000
      23     0.000000     0.000000     0.000000     0.000000
      24     0.000000     7.250000     0.000000     0.000000
      25     0.000000     7.250000     0.000000     0.000000
      26     0.000000     7.250000     0.000000     0.000000
      27     0.000000     7.250000     0.000000     0.000000
      28     0.000000     7.250000     0.000000     0.000000
      29     0.000000     7.250000     0.000000     0.000000
      30     0.000000     7.250000     0.000000     0.000000
      31     0.000000     7.250000     0.000000     0.000000
      32     0.000000     1.650000     0.000000    -0.050000
      33     0.000000     7.250000     0.000000     0.000000
      34    -0.250000     0.000000     0.000000     0.000000
      35    -0.250000     0.000000     0.000000     0.000000
      36     0.000000     0.000000     0.000000     0.000000
      37     0.000000     7.250000     0.000000     0.000000
      38     0.000000     7.250000     0.000000     0.000000
      39     0.000000     7.250000     0.000000     0.000000
      40     0.000000     7.250000     0.000000     0.000000
      41     0.000000     7.250000     0.000000     0.000000
      42     0.850000    -0.200000     0.200000     0.000000
      43     0.000000     0.000000     0.300000     0.000000
      44     0.850000    -0.200000     0.200000     0.000000
      45     0.000000     0.000000     0.300000     0.000000
      46     0.850000    -0.200000     0.200000     0.000000
      47     0.850000    -0.200000     0.200000     0.000000
      48     0.000000     0.000000     0.300000     0.000000
      49     0.000000     0.000000     0.300000     0.000000
      50     0.850000    -0.200000     0.200000     0.000000
      51     0.000000     0.000000     0.300000     0.000000
      52     0.850000    -0.200000     0.200000     0.000000
      53     0.000000     0.000000     0.300000     0.000000
      54     0.000000     0.000000     0.300000     0.000000
      55     0.000000     0.000000     0.300000     0.000000
      56     0.000000     0.000000     0.300000     0.000000
      57     0.850000    -0.200000     0.200000     0.000000
      58     0.850000    -0.200000     0.200000     0.000000
      59     0.000000     0.000000     0.300000     0.000000
      60     0.000000     0.000000     0.300000     0.000000
      61     0.000000     7.250000     0.000000     0.000000
      62     0.000000     0.000000     0.300000     0.000000
      63     0.000000     0.000000     0.300000     0.000000
      64     0.000000     0.000000     0.300000     0.000000
      65     0.000000     0.000000     0.300000     0.000000
      66     0.000000     0.000000     0.300000     0.000000
      67     0.000000     0.000000     0.300000     0.000000

Improper Coeffs

       1     2.500000   -1    2
       2     2.500000   -1    2
       3     2.500000   -1    2
       4     2.500000   -1    2
       5     2.500000   -1    2
       6     2.500000   -1    2
       7     2.500000   -1    2
       8     2.500000   -1    2
       9     2.500000   -1    2

Atoms

       1    1      5  -0.26345798     8.283800     2.722900    -2.690300
       2    1      4  -0.14440919     6.906300     3.317800    -2.345500
       3    1     10   0.09840298     8.150200     1.872000    -3.437400
       4    1     10   0.09840298     8.946300     3.531100    -3.145600
       5    1     10   0.09840298     8.770500     2.320500    -1.741400
       6    1     10   0.09840298     7.030800     4.161800    -1.589200
       7    1     10   0.09840298     6.415600     3.721500    -3.292100
       8    1      5  -0.26345798    -0.100300     7.779600    -3.974300
       9    1      4  -0.14440919    -1.248100     6.760900    -4.104500
      10    1     10   0.09840298     0.818100     7.389200    -4.525500
      11    1     10   0.09840298    -0.421500     8.774800    -4.428100
      12    1     10   0.09840298     0.152700     7.927200    -2.872400
      13    1     10   0.09840298    -2.169100     7.149800    -3.557300
      14    1     10   0.09840298    -1.495400     6.605900    -5.206300
      15    1      5  -0.26345798     0.874300     1.878900    -6.143600
      16    1      6  -0.19280661    -0.027000     0.653700    -6.380700
      17    1     10   0.09840298     1.291000     2.239200    -7.141700
      18    1     10   0.09840298     0.262400     2.715500    -5.672700
      19    1     10   0.09840298     1.733400     1.591200    -5.451600
      20    1     10   0.09840298     0.588100    -0.156300    -6.896600
      21    1     10   0.09840298    -0.895900     0.954300    -7.054800
      22    1      5  -0.26345798     1.446000    -3.262600    -6.573500
      23    1      6  -0.19280661     0.600200    -2.385700    -5.632800
      24    1     10   0.09840298     0.795500    -4.092400    -7.007200
      25    1     10   0.09840298     1.857700    -2.620200    -7.420500
      26    1     10   0.09840298     2.310800    -3.721700    -5.989500
      27    1     10   0.09840298     0.183800    -3.017300    -4.780000
      28    1     10   0.09840298    -0.261700    -1.922800    -6.218500
      29    1      5  -0.26345798    -2.881600     1.947500    -5.526300
      30    1      6  -0.19280661    -3.499600     1.548300    -4.173000
      31    1     10   0.09840298    -3.629900     1.734200    -6.359800
      32    1     10   0.09840298    -2.634600     3.060600    -5.513700
      33    1     10   0.09840298    -1.929400     1.355000    -5.716400
      34    1     10   0.09840298    -3.755100     0.437100    -4.168500
      35    1     10   0.09840298    -4.448100     2.165200    -4.036300
      36    1      5  -0.26345798    -7.393700     5.689700    -4.587900
      37    1      6  -0.19280661    -7.776400     4.596500    -3.573500
      38    1     10   0.09840298    -7.005700     5.201600    -5.542400
      39    1     10   0.09840298    -8.311600     6.320900    -4.830300
      40    1     10   0.09840298    -6.581100     6.354400    -4.143400
      41    1     10   0.09840298    -8.168100     5.090300    -2.626800
      42    1     10   0.09840298    -8.588300     3.935500    -4.025800
      43    1      5  -0.26345798    -8.940100     4.041400     0.597200
      44    1      6  -0.19280661    -8.563700     3.750200    -0.867300
      45    1     10   0.09840298    -9.088800     3.058300     1.153800
      46    1     10   0.09840298    -8.104400     4.636800     1.093200
      47    1     10   0.09840298    -9.906400     4.645300     0.627200
      48    1     10   0.09840298    -9.401900     3.157100    -1.362300
      49    1     10   0.09840298    -8.419600     4.739800    -1.408800
      50    1      5  -0.26345798     8.879700    -3.005700     3.225200
      51    1      6  -0.19280661     7.370300    -3.114400     3.507700
      52    1     10   0.09840298     9.389300    -3.986400     3.503300
      53    1     10   0.09840298     9.045500    -2.789800     2.118300
      54    1     10   0.09840298     9.318700    -2.158600     3.849400
      55    1     10   0.09840298     7.216400    -3.337100     4.612200
      56    1     10   0.09840298     6.929300    -3.960600     2.885700
      57    1      5  -0.26345798     5.463600    -4.858300     3.929300
      58    1      6  -0.19280661     4.172100    -4.064200     3.667400
      59    1     10   0.09840298     5.953600    -5.140400     2.939700
      60    1     10   0.09840298     6.176000    -4.229200     4.554900
      61    1     10   0.09840298     5.208600    -5.803700     4.513200
      62    1     10   0.09840298     3.726700    -3.772400     4.675300
      63    1     10   0.09840298     3.443600    -4.758800     3.132100
      64    1      1  -0.09193211     6.030200     2.205200    -1.742600
      65    1      2  -0.15191975     6.348100     0.730000    -2.046000
      66    1      2  -0.15191975     5.516200    -0.387500    -1.390100
      67    1      1  -0.09193211     4.371300    -0.032400    -0.422900
      68    1      2  -0.15191975     4.062900     1.444300    -0.111100
      69    1      2  -0.15191975     4.895000     2.561900    -0.766400
      70    1      9   0.16345543     7.202900     0.465500    -2.752700
      71    1      9   0.16345543     5.753800    -1.480100    -1.613900
      72    1      9   0.16345543     3.229000     1.711000     0.618200
      73    1      9   0.16345543     4.674100     3.653900    -0.524000
      74    1      1  -0.09193211     0.158300     2.763800    -2.265300
      75    1      2  -0.15191975     0.089500     4.032200    -1.394900
      76    1      2  -0.15191975    -0.391300     5.361700    -2.003500
      77    1      1  -0.09193211    -0.806800     5.423000    -3.484200
      78    1      2  -0.15191975    -0.759000     4.150800    -4.349700
      79    1      2  -0.15191975    -0.252000     2.828700    -3.745300
      80    1      9   0.16345543     0.411200     3.989700    -0.302200
      81    1      9   0.16345543    -0.430400     6.302200    -1.360800
      82    1      9   0.16345543    -1.083600     4.190900    -5.441600
      83    1      9   0.16345543    -0.183200     1.897300    -4.394000
      84    1      7  -0.12655323     2.655700    -0.664300     1.395800
      85    1      4  -0.14440919     3.594400    -1.163200     0.280900
      86    1      6  -0.19280661     1.555300     0.212800     0.756300
      87    1      6  -0.19280661     3.474600     0.192200     2.384100
      88    1     10   0.09840298     2.216100    -1.577200     1.918300
      89    1     10   0.09840298     2.981800    -1.741800    -0.487300
      90    1     10   0.09840298     4.359400    -1.865800     0.752300
      91    1     10   0.09840298     0.829600     0.590700     1.550000
      92    1     10   0.09840298     2.058400     1.105300     0.260400
      93    1     10   0.09840298     2.914800     0.362300     3.362600
      94    1     10   0.09840298     3.626000     1.200400     1.876700
      95    1      7  -0.12655323     0.579800    -0.383300    -4.167600
      96    1      6  -0.19280661    -0.000100    -1.239000    -3.024500
      97    1      6  -0.19280661    -0.582900     0.070100    -5.066500
      98    1      6  -0.19280661     1.476900    -1.260800    -5.056200
      99    1     10   0.09840298     1.176300     0.505100    -3.774200
     100    1     10   0.09840298    -0.604900    -2.069600    -3.519300
     101    1     10   0.09840298     0.838500    -1.707000    -2.409800
     102    1     10   0.09840298    -1.212300    -0.841300    -5.335900
     103    1     10   0.09840298    -1.230400     0.829100    -4.514500
     104    1     10   0.09840298     2.336800    -1.695900    -4.447800
     105    1     10   0.09840298     1.889400    -0.631200    -5.912700
     106    1      7  -0.12655323    -3.148200     1.604500    -1.624500
     107    1      6  -0.19280661    -2.165700     2.086900    -0.534400
     108    1      6  -0.19280661    -2.534200     1.871100    -3.017500
     109    1      6  -0.19280661    -4.450000     2.430300    -1.548900
     110    1     10   0.09840298    -3.411100     0.513100    -1.425800
     111    1     10   0.09840298    -2.786000     2.310200     0.396000
     112    1     10   0.09840298    -1.676800     3.055600    -0.882500
     113    1     10   0.09840298    -2.299700     2.985500    -3.074500
     114    1     10   0.09840298    -1.560000     1.296700    -3.151200
     115    1     10   0.09840298    -4.777300     2.531300    -0.462000
     116    1     10   0.09840298    -4.267700     3.466100    -1.987500
     117    1      7  -0.12655323    -6.858300     2.542400    -2.346300
     118    1      6  -0.19280661    -5.583500     1.682900    -2.283600
     119    1      6  -0.19280661    -6.534900     3.739100    -3.263200
     120    1      6  -0.19280661    -7.259500     2.931800    -0.909100
     121    1     10   0.09840298    -7.690100     1.928100    -2.826500
     122    1     10   0.09840298    -5.799300     0.717400    -1.717100
     123    1     10   0.09840298    -5.290400     1.420400    -3.350200
     124    1     10   0.09840298    -6.151500     3.320600    -4.251400
     125    1     10   0.09840298    -5.719600     4.379100    -2.789700
     126    1     10   0.09840298    -7.418000     1.973500    -0.311900
     127    1     10   0.09840298    -6.416400     3.533300    -0.432300
     128    1      8  -0.05307945    -0.147400     0.430000    -1.090200
     129    1      6  -0.19280661     0.783500    -0.547200    -0.341200
     130    1      4  -0.14440919     0.801600     1.489300    -1.689000
     131    1      6  -0.19280661    -0.934600    -0.458300    -2.077900
     132    1      6  -0.19280661    -1.114300     1.051700    -0.060900
     133    1     10   0.09840298     0.180500    -1.392200     0.130700
     134    1     10   0.09840298     1.523000    -0.982300    -1.093000
     135    1     10   0.09840298     1.461700     0.994900    -2.475400
     136    1     10   0.09840298     1.470200     1.845500    -0.837200
     137    1     10   0.09840298    -1.713700     0.107300    -2.681000
     138    1     10   0.09840298    -1.477100    -1.225600    -1.432500
     139    1     10   0.09840298    -0.484900     1.550100     0.748500
     140    1     10   0.09840298    -1.684900     0.186000     0.412600
     141    1      8  -0.05307945     5.176900    -1.650900     3.377400
     142    1      6  -0.19280661     4.903300    -0.351300     2.592900
     143    1      6  -0.19280661     6.693600    -1.790000     3.112700
     144    1      6  -0.19280661     4.307700    -2.790300     2.802000
     145    1      4  -0.14440919     4.904300    -1.412600     4.879500
     146    1     10   0.09840298     5.335900    -0.493600     1.547600
     147    1     10   0.09840298     5.505900     0.462300     3.116800
     148    1     10   0.09840298     7.217000    -0.929100     3.645800
     149    1     10   0.09840298     6.855900    -1.674400     1.990100
     150    1     10   0.09840298     4.668300    -3.044200     1.750600
     151    1     10   0.09840298     3.249100    -2.374600     2.726000
     152    1     10   0.09840298     5.208000    -0.339600     5.086100
     153    1     10   0.09840298     3.797900    -1.535800     5.125300
     154    1      1  -0.09193211     5.829500    -2.304200     5.737300
     155    1      3  -0.04365711     7.302300    -1.893400     5.966900
     156    1      2  -0.15191975     8.319100    -2.957900     6.409000
     157    1      3  -0.04365711     7.823100    -4.317600     6.923200
     158    1      1  -0.09193211     6.306900    -4.552700     7.086600
     159    1      2  -0.15191975     5.307400    -3.598500     6.395100
     160    1      9   0.16345543     9.434600    -2.723400     6.397500
     161    1      9   0.16345543     4.194100    -3.841200     6.382600
     162    1      3  -0.04365711     7.785200    -0.440400     5.782000
     163    1      2  -0.15191975     6.786400     0.733600     5.762100
     164    1      2  -0.15191975     7.299700     2.181400     5.656600
     165    1      2  -0.15191975     8.812200     2.461400     5.601900
     166    1      2  -0.15191975     9.812000     1.292100     5.644800
     167    1      2  -0.15191975     9.298400    -0.156500     5.735700
     168    1      9   0.16345543     5.670900     0.539100     5.876100
     169    1      9   0.16345543     6.559100     3.047700     5.634100
     170    1      9   0.16345543     9.191700     3.534300     5.533900
     171    1      9   0.16345543    10.932900     1.498600     5.610800
     172    1      9   0.16345543    10.039900    -1.022000     5.775500
     173    1      3  -0.04365711     8.854400    -5.401500     7.309600
     174    1      2  -0.15191975    10.357900    -5.086900     7.192700
     175    1      2  -0.15191975    11.403800    -6.157600     7.556400
     176    1      2  -0.15191975    10.948400    -7.547300     8.037300
     177    1      2  -0.15191975     9.446800    -7.866000     8.152700
     178    1      2  -0.15191975     8.401300    -6.798000     7.782100
     179    1      9   0.16345543    10.696800    -4.058900     6.834300
     180    1      9   0.16345543    12.515500    -5.921000     7.469700
     181    1      9   0.16345543    11.722100    -8.339400     8.307800
     182    1      9   0.16345543     9.108300    -8.893500     8.512100
     183    1      9   0.16345543     7.293200    -7.042300     7.863600
     184    1      1  -0.09193211     6.436000    -6.352300    10.488500
     185    1      2  -0.15191975     5.751000    -5.901000    11.791800
     186    1      2  -0.15191975     5.683700    -6.856200    12.997800
     187    1      2  -0.15191975     6.296200    -8.265600    12.898500
     188    1      2  -0.15191975     6.971300    -8.721300    11.591300
     189    1      2  -0.15191975     7.042700    -7.764100    10.386700
     190    1      9   0.16345543     5.309700    -4.853000    11.870000
     191    1      9   0.16345543     5.184600    -6.518600    13.965200
     192    1      9   0.16345543     6.249400    -8.971600    13.792200
     193    1      9   0.16345543     7.423100    -9.765400    11.517300
     194    1      9   0.16345543     7.557500    -8.095200     9.424800
     195    1      4  -0.14440919     5.813000    -5.632300     8.066000
     196    1      4  -0.14440919     6.635300    -5.346500     9.340600
     197    1     10   0.09840298     6.029700    -6.671600     7.653300
     198    1     10   0.09840298     4.699200    -5.519200     8.279800
     199    1     10   0.09840298     6.373500    -4.302200     9.716200
     200    1     10   0.09840298     7.741200    -5.358700     9.068400

Bonds

       1      9        1        2
       2     14        1        3
       3     14        1        4
       4     14        1        5
       5     12        2        6
       6     12        2        7
       7      3        2       64
       8      9        8        9
       9     14        8       10
      10     14        8       11
      11     14        8       12
      12     12        9       13
      13     12        9       14
      14      3        9       77
      15     13       15       16
      16     14       15       17
      17     14       15       18
      18     14       15       19
      19     18       16       20
      20     18       16       21
      21     15       16       97
      22     13       22       23
      23     14       22       24
      24     14       22       25
      25     14       22       26
      26     18       23       27
      27     18       23       28
      28     15       23       98
      29     13       29       30
      30     14       29       31
      31     14       29       32
      32     14       29       33
      33     18       30       34
      34     18       30       35
      35     15       30      108
      36     13       36       37
      37     14       36       38
      38     14       36       39
      39     14       36       40
      40     18       37       41
      41     18       37       42
      42     15       37      119
      43     13       43       44
      44     14       43       45
      45     14       43       46
      46     14       43       47
      47     18       44       48
      48     18       44       49
      49     15       44      120
      50     13       50       51
      51     14       50       52
      52     14       50       53
      53     14       50       54
      54     18       51       55
      55     18       51       56
      56     15       51      143
      57     13       57       58
      58     14       57       59
      59     14       57       60
      60     14       57       61
      61     18       58       62
      62     18       58       63
      63     15       58      144
      64      1       64       65
      65      4       65       66
      66      6       65       70
      67      1       66       67
      68      6       66       71
      69      1       67       68
      70      3       67       85
      71      4       68       69
      72      6       68       72
      73      1       69       64
      74      6       69       73
      75      1       74       75
      76      3       74      130
      77      4       75       76
      78      6       75       80
      79      1       76       77
      80      6       76       81
      81      1       77       78
      82      4       78       79
      83      6       78       82
      84      1       79       74
      85      6       79       83
      86     10       84       85
      87     16       84       86
      88     16       84       87
      89     19       84       88
      90     12       85       89
      91     12       85       90
      92     18       86       91
      93     18       86       92
      94     15       86      129
      95     18       87       93
      96     18       87       94
      97     15       87      142
      98     16       95       96
      99     16       95       97
     100     16       95       98
     101     19       95       99
     102     18       96      100
     103     18       96      101
     104     15       96      131
     105     18       97      102
     106     18       97      103
     107     18       98      104
     108     18       98      105
     109     16      106      107
     110     16      106      108
     111     16      106      109
     112     19      106      110
     113     18      107      111
     114     18      107      112
     115     15      107      132
     116     18      108      113
     117     18      108      114
     118     18      109      115
     119     18      109      116
     120     15      109      118
     121     16      117      118
     122     16      117      119
     123     16      117      120
     124     19      117      121
     125     18      118      122
     126     18      118      123
     127     18      119      124
     128     18      119      125
     129     18      120      126
     130     18      120      127
     131     17      128      129
     132     11      128      130
     133     17      128      131
     134     17      128      132
     135     18      129      133
     136     18      129      134
     137     12      130      135
     138     12      130      136
     139     18      131      137
     140     18      131      138
     141     18      132      139
     142     18      132      140
     143     17      141      142
     144     17      141      143
     145     17      141      144
     146     11      141      145
     147     18      142      146
     148     18      142      147
     149     18      143      148
     150     18      143      149
     151     18      144      150
     152     18      144      151
     153     12      145      152
     154     12      145      153
     155      3      145      154
     156      2      154      155
     157      5      155      156
     158      7      155      162
     159      5      156      157
     160      6      156      160
     161      2      157      158
     162      7      157      173
     163      1      158      159
     164      3      158      195
     165      1      159      154
     166      6      159      161
     167      5      162      163
     168      4      163      164
     169      6      163      168
     170      4      164      165
     171      6      164      169
     172      4      165      166
     173      6      165      170
     174      4      166      167
     175      6      166      171
     176      5      167      162
     177      6      167      172
     178      5      173      174
     179      4      174      175
     180      6      174      179
     181      4      175      176
     182      6      175      180
     183      4      176      177
     184      6      176      181
     185      4      177      178
     186      6      177      182
     187      5      178      173
     188      6      178      183
     189      1      184      185
     190      3      184      196
     191      4      185      186
     192      6      185      190
     193      4      186      187
     194      6      186      191
     195      4      187      188
     196      6      187      192
     197      4      188      189
     198      6      188      193
     199      1      189      184
     200      6      189      194
     201      8      195      196
     202     12      195      197
     203     12      195      198
     204     12      196      199
     205     12      196      200

Angles

       1     27        1        2        6
       2     27        1        2        7
       3      7        1        2       64
       4     23        2        1        3
       5     23        2        1        4
       6     23        2        1        5
       7     13        2       64       65
       8     13        2       64       69
       9     42        3        1        4
      10     42        3        1        5
      11     42        4        1        5
      12     41        6        2        7
      13     10        6        2       64
      14     10        7        2       64
      15     27        8        9       13
      16     27        8        9       14
      17      7        8        9       77
      18     23        9        8       10
      19     23        9        8       11
      20     23        9        8       12
      21     13        9       77       76
      22     13        9       77       78
      23     42       10        8       11
      24     42       10        8       12
      25     42       11        8       12
      26     41       13        9       14
      27     10       13        9       77
      28     10       14        9       77
      29     29       15       16       20
      30     29       15       16       21
      31     28       15       16       97
      32     30       16       15       17
      33     30       16       15       18
      34     30       16       15       19
      35     31       16       97       95
      36     33       16       97      102
      37     33       16       97      103
      38     42       17       15       18
      39     42       17       15       19
      40     42       18       15       19
      41     43       20       16       21
      42     33       20       16       97
      43     33       21       16       97
      44     29       22       23       27
      45     29       22       23       28
      46     28       22       23       98
      47     30       23       22       24
      48     30       23       22       25
      49     30       23       22       26
      50     31       23       98       95
      51     33       23       98      104
      52     33       23       98      105
      53     42       24       22       25
      54     42       24       22       26
      55     42       25       22       26
      56     43       27       23       28
      57     33       27       23       98
      58     33       28       23       98
      59     29       29       30       34
      60     29       29       30       35
      61     28       29       30      108
      62     30       30       29       31
      63     30       30       29       32
      64     30       30       29       33
      65     31       30      108      106
      66     33       30      108      113
      67     33       30      108      114
      68     42       31       29       32
      69     42       31       29       33
      70     42       32       29       33
      71     43       34       30       35
      72     33       34       30      108
      73     33       35       30      108
      74     29       36       37       41
      75     29       36       37       42
      76     28       36       37      119
      77     30       37       36       38
      78     30       37       36       39
      79     30       37       36       40
      80     31       37      119      117
      81     33       37      119      124
      82     33       37      119      125
      83     42       38       36       39
      84     42       38       36       40
      85     42       39       36       40
      86     43       41       37       42
      87     33       41       37      119
      88     33       42       37      119
      89     29       43       44       48
      90     29       43       44       49
      91     28       43       44      120
      92     30       44       43       45
      93     30       44       43       46
      94     30       44       43       47
      95     31       44      120      117
      96     33       44      120      126
      97     33       44      120      127
      98     42       45       43       46
      99     42       45       43       47
     100     42       46       43       47
     101     43       48       44       49
     102     33       48       44      120
     103     33       49       44      120
     104     29       50       51       55
     105     29       50       51       56
     106     28       50       51      143
     107     30       51       50       52
     108     30       51       50       53
     109     30       51       50       54
     110     32       51      143      141
     111     33       51      143      148
     112     33       51      143      149
     113     42       52       50       53
     114     42       52       50       54
     115     42       53       50       54
     116     43       55       51       56
     117     33       55       51      143
     118     33       56       51      143
     119     29       57       58       62
     120     29       57       58       63
     121     28       57       58      144
     122     30       58       57       59
     123     30       58       57       60
     124     30       58       57       61
     125     32       58      144      141
     126     33       58      144      150
     127     33       58      144      151
     128     42       59       57       60
     129     42       59       57       61
     130     42       60       57       61
     131     43       62       58       63
     132     33       62       58      144
     133     33       63       58      144
     134      2       64       65       66
     135      3       64       65       70
     136      2       64       69       68
     137      3       64       69       73
     138     11       65       64       69
     139      2       65       66       67
     140     16       65       66       71
     141     16       66       65       70
     142     11       66       67       68
     143     13       66       67       85
     144      3       67       66       71
     145      2       67       68       69
     146      3       67       68       72
     147      8       67       85       84
     148     10       67       85       89
     149     10       67       85       90
     150     13       68       67       85
     151     16       68       69       73
     152     16       69       68       72
     153      2       74       75       76
     154      3       74       75       80
     155      2       74       79       78
     156      3       74       79       83
     157      9       74      130      128
     158     10       74      130      135
     159     10       74      130      136
     160     11       75       74       79
     161     13       75       74      130
     162      2       75       76       77
     163     16       75       76       81
     164     16       76       75       80
     165     11       76       77       78
     166      3       77       76       81
     167      2       77       78       79
     168      3       77       78       82
     169     16       78       79       83
     170     13       79       74      130
     171     16       79       78       82
     172     37       84       85       89
     173     37       84       85       90
     174     38       84       86       91
     175     38       84       86       92
     176     31       84       86      129
     177     38       84       87       93
     178     38       84       87       94
     179     31       84       87      142
     180     24       85       84       86
     181     24       85       84       87
     182     25       85       84       88
     183     34       86       84       87
     184     35       86       84       88
     185     32       86      129      128
     186     33       86      129      133
     187     33       86      129      134
     188     35       87       84       88
     189     32       87      142      141
     190     33       87      142      146
     191     33       87      142      147
     192     41       89       85       90
     193     43       91       86       92
     194     33       91       86      129
     195     33       92       86      129
     196     43       93       87       94
     197     33       93       87      142
     198     33       94       87      142
     199     38       95       96      100
     200     38       95       96      101
     201     31       95       96      131
     202     38       95       97      102
     203     38       95       97      103
     204     38       95       98      104
     205     38       95       98      105
     206     34       96       95       97
     207     34       96       95       98
     208     35       96       95       99
     209     32       96      131      128
     210     33       96      131      137
     211     33       96      131      138
     212     34       97       95       98
     213     35       97       95       99
     214     35       98       95       99
     215     43      100       96      101
     216     33      100       96      131
     217     33      101       96      131
     218     43      102       97      103
     219     43      104       98      105
     220     38      106      107      111
     221     38      106      107      112
     222     31      106      107      132
     223     38      106      108      113
     224     38      106      108      114
     225     38      106      109      115
     226     38      106      109      116
     227     31      106      109      118
     228     34      107      106      108
     229     34      107      106      109
     230     35      107      106      110
     231     32      107      132      128
     232     33      107      132      139
     233     33      107      132      140
     234     34      108      106      109
     235     35      108      106      110
     236     35      109      106      110
     237     31      109      118      117
     238     33      109      118      122
     239     33      109      118      123
     240     43      111      107      112
     241     33      111      107      132
     242     33      112      107      132
     243     43      113      108      114
     244     43      115      109      116
     245     33      115      109      118
     246     33      116      109      118
     247     38      117      118      122
     248     38      117      118      123
     249     38      117      119      124
     250     38      117      119      125
     251     38      117      120      126
     252     38      117      120      127
     253     34      118      117      119
     254     34      118      117      120
     255     35      118      117      121
     256     34      119      117      120
     257     35      119      117      121
     258     35      120      117      121
     259     43      122      118      123
     260     43      124      119      125
     261     43      126      120      127
     262     40      128      129      133
     263     40      128      129      134
     264     39      128      130      135
     265     39      128      130      136
     266     40      128      131      137
     267     40      128      131      138
     268     40      128      132      139
     269     40      128      132      140
     270     26      129      128      130
     271     36      129      128      131
     272     36      129      128      132
     273     26      130      128      131
     274     26      130      128      132
     275     36      131      128      132
     276     43      133      129      134
     277     41      135      130      136
     278     43      137      131      138
     279     43      139      132      140
     280     40      141      142      146
     281     40      141      142      147
     282     40      141      143      148
     283     40      141      143      149
     284     40      141      144      150
     285     40      141      144      151
     286     39      141      145      152
     287     39      141      145      153
     288      9      141      145      154
     289     36      142      141      143
     290     36      142      141      144
     291     26      142      141      145
     292     36      143      141      144
     293     26      143      141      145
     294     26      144      141      145
     295     19      145      154      155
     296     13      145      154      159
     297     43      146      142      147
     298     43      148      143      149
     299     43      150      144      151
     300     41      152      145      153
     301     10      152      145      154
     302     10      153      145      154
     303      4      154      155      156
     304      5      154      155      162
     305      1      154      159      158
     306      3      154      159      161
     307     12      155      154      159
     308     20      155      156      157
     309     21      155      156      160
     310     18      155      162      163
     311     18      155      162      167
     312     18      156      155      162
     313      4      156      157      158
     314     18      156      157      173
     315     21      157      156      160
     316     12      157      158      159
     317     19      157      158      195
     318     18      157      173      174
     319     18      157      173      178
     320      5      158      157      173
     321      3      158      159      161
     322      6      158      195      196
     323     10      158      195      197
     324     10      158      195      198
     325     13      159      158      195
     326     15      162      163      164
     327     21      162      163      168
     328     15      162      167      166
     329     21      162      167      172
     330     17      163      162      167
     331     14      163      164      165
     332     16      163      164      169
     333     16      164      163      168
     334     14      164      165      166
     335     16      164      165      170
     336     16      165      164      169
     337     14      165      166      167
     338     16      165      166      171
     339     16      166      165      170
     340     16      166      167      172
     341     16      167      166      171
     342     15      173      174      175
     343     21      173      174      179
     344     15      173      178      177
     345     21      173      178      183
     346     17      174      173      178
     347     14      174      175      176
     348     16      174      175      180
     349     16      175      174      179
     350     14      175      176      177
     351     16      175      176      181
     352     16      176      175      180
     353     14      176      177      178
     354     16      176      177      182
     355     16      177      176      181
     356     16      177      178      183
     357     16      178      177      182
     358      2      184      185      186
     359      3      184      185      190
     360      2      184      189      188
     361      3      184      189      194
     362      6      184      196      195
     363     10      184      196      199
     364     10      184      196      200
     365     11      185      184      189
     366     13      185      184      196
     367     14      185      186      187
     368     16      185      186      191
     369     16      186      185      190
     370     14      186      187      188
     371     16      186      187      192
     372     16      187      186      191
     373     14      187      188      189
     374     16      187      188      193
     375     16      188      187      192
     376     16      188      189      194
     377     13      189      184      196
     378     16      189      188      193
     379     22      195      196      199
     380     22      195      196      200
     381     22      196      195      197
     382     22      196      195      198
     383     41      197      195      198
     384     41      199      196      200

Dihedrals

       1     20        1        2       64       65
       2     20        1        2       64       69
       3     24        2       64       65       66
       4     41        2       64       65       70
       5     24        2       64       69       68
       6     41        2       64       69       73
       7     63        3        1        2        6
       8     63        3        1        2        7
       9     11        3        1        2       64
      10     63        4        1        2        6
      11     63        4        1        2        7
      12     11        4        1        2       64
      13     63        5        1        2        6
      14     63        5        1        2        7
      15     11        5        1        2       64
      16     23        6        2       64       65
      17     23        6        2       64       69
      18     23        7        2       64       65
      19     23        7        2       64       69
      20     20        8        9       77       76
      21     20        8        9       77       78
      22     24        9       77       76       75
      23     41        9       77       76       81
      24     24        9       77       78       79
      25     41        9       77       78       82
      26     63       10        8        9       13
      27     63       10        8        9       14
      28     11       10        8        9       77
      29     63       11        8        9       13
      30     63       11        8        9       14
      31     11       11        8        9       77
      32     63       12        8        9       13
      33     63       12        8        9       14
      34     11       12        8        9       77
      35     23       13        9       77       76
      36     23       13        9       77       78
      37     23       14        9       77       76
      38     23       14        9       77       78
      39     46       15       16       97       95
      40     48       15       16       97      102
      41     48       15       16       97      103
      42     50       16       97       95       96
      43     50       16       97       95       98
      44     51       16       97       95       99
      45     65       17       15       16       20
      46     65       17       15       16       21
      47     49       17       15       16       97
      48     65       18       15       16       20
      49     65       18       15       16       21
      50     49       18       15       16       97
      51     65       19       15       16       20
      52     65       19       15       16       21
      53     49       19       15       16       97
      54     59       20       16       97       95
      55     66       20       16       97      102
      56     66       20       16       97      103
      57     59       21       16       97       95
      58     66       21       16       97      102
      59     66       21       16       97      103
      60     46       22       23       98       95
      61     48       22       23       98      104
      62     48       22       23       98      105
      63     50       23       98       95       96
      64     50       23       98       95       97
      65     51       23       98       95       99
      66     65       24       22       23       27
      67     65       24       22       23       28
      68     49       24       22       23       98
      69     65       25       22       23       27
      70     65       25       22       23       28
      71     49       25       22       23       98
      72     65       26       22       23       27
      73     65       26       22       23       28
      74     49       26       22       23       98
      75     59       27       23       98       95
      76     66       27       23       98      104
      77     66       27       23       98      105
      78     59       28       23       98       95
      79     66       28       23       98      104
      80     66       28       23       98      105
      81     46       29       30      108      106
      82     48       29       30      108      113
      83     48       29       30      108      114
      84     50       30      108      106      107
      85     50       30      108      106      109
      86     51       30      108      106      110
      87     65       31       29       30       34
      88     65       31       29       30       35
      89     49       31       29       30      108
      90     65       32       29       30       34
      91     65       32       29       30       35
      92     49       32       29       30      108
      93     65       33       29       30       34
      94     65       33       29       30       35
      95     49       33       29       30      108
      96     59       34       30      108      106
      97     66       34       30      108      113
      98     66       34       30      108      114
      99     59       35       30      108      106
     100     66       35       30      108      113
     101     66       35       30      108      114
     102     46       36       37      119      117
     103     48       36       37      119      124
     104     48       36       37      119      125
     105     50       37      119      117      118
     106     50       37      119      117      120
     107     51       37      119      117      121
     108     65       38       36       37       41
     109     65       38       36       37       42
     110     49       38       36       37      119
     111     65       39       36       37       41
     112     65       39       36       37       42
     113     49       39       36       37      119
     114     65       40       36       37       41
     115     65       40       36       37       42
     116     49       40       36       37      119
     117     59       41       37      119      117
     118     66       41       37      119      124
     119     66       41       37      119      125
     120     59       42       37      119      117
     121     66       42       37      119      124
     122     66       42       37      119      125
     123     46       43       44      120      117
     124     48       43       44      120      126
     125     48       43       44      120      127
     126     50       44      120      117      118
     127     50       44      120      117      119
     128     51       44      120      117      121
     129     65       45       43       44       48
     130     65       45       43       44       49
     131     49       45       43       44      120
     132     65       46       43       44       48
     133     65       46       43       44       49
     134     49       46       43       44      120
     135     65       47       43       44       48
     136     65       47       43       44       49
     137     49       47       43       44      120
     138     59       48       44      120      117
     139     66       48       44      120      126
     140     66       48       44      120      127
     141     59       49       44      120      117
     142     66       49       44      120      126
     143     66       49       44      120      127
     144     47       50       51      143      141
     145     48       50       51      143      148
     146     48       50       51      143      149
     147     52       51      143      141      142
     148     52       51      143      141      144
     149     44       51      143      141      145
     150     65       52       50       51       55
     151     65       52       50       51       56
     152     49       52       50       51      143
     153     65       53       50       51       55
     154     65       53       50       51       56
     155     49       53       50       51      143
     156     65       54       50       51       55
     157     65       54       50       51       56
     158     49       54       50       51      143
     159     60       55       51      143      141
     160     66       55       51      143      148
     161     66       55       51      143      149
     162     60       56       51      143      141
     163     66       56       51      143      148
     164     66       56       51      143      149
     165     47       57       58      144      141
     166     48       57       58      144      150
     167     48       57       58      144      151
     168     52       58      144      141      142
     169     52       58      144      141      143
     170     44       58      144      141      145
     171     65       59       57       58       62
     172     65       59       57       58       63
     173     49       59       57       58      144
     174     65       60       57       58       62
     175     65       60       57       58       63
     176     49       60       57       58      144
     177     65       61       57       58       62
     178     65       61       57       58       63
     179     49       61       57       58      144
     180     60       62       58      144      141
     181     66       62       58      144      150
     182     66       62       58      144      151
     183     60       63       58      144      141
     184     66       63       58      144      150
     185     66       63       58      144      151
     186      3       64       65       66       67
     187      5       64       65       66       71
     188      3       64       69       68       67
     189      5       64       69       68       72
     190     15       65       64       69       68
     191     16       65       64       69       73
     192     15       65       66       67       68
     193     24       65       66       67       85
     194     15       66       65       64       69
     195     15       66       67       68       69
     196     16       66       67       68       72
     197     21       66       67       85       84
     198     23       66       67       85       89
     199     23       66       67       85       90
     200      5       67       66       65       70
     201      5       67       68       69       73
     202     12       67       85       84       86
     203     12       67       85       84       87
     204     13       67       85       84       88
     205     16       68       67       66       71
     206     21       68       67       85       84
     207     23       68       67       85       89
     208     23       68       67       85       90
     209     16       69       64       65       70
     210     24       69       68       67       85
     211     61       70       65       66       71
     212     41       71       66       67       85
     213     41       72       68       67       85
     214     61       72       68       69       73
     215      3       74       75       76       77
     216      5       74       75       76       81
     217      3       74       79       78       77
     218      5       74       79       78       82
     219     14       74      130      128      129
     220     14       74      130      128      131
     221     14       74      130      128      132
     222     15       75       74       79       78
     223     16       75       74       79       83
     224     22       75       74      130      128
     225     23       75       74      130      135
     226     23       75       74      130      136
     227     15       75       76       77       78
     228     15       76       75       74       79
     229     24       76       75       74      130
     230     15       76       77       78       79
     231     16       76       77       78       82
     232      5       77       76       75       80
     233      5       77       78       79       83
     234     16       78       77       76       81
     235     24       78       79       74      130
     236     16       79       74       75       80
     237     22       79       74      130      128
     238     23       79       74      130      135
     239     23       79       74      130      136
     240     41       80       75       74      130
     241     61       80       75       76       81
     242     61       82       78       79       83
     243     41       83       79       74      130
     244     58       84       86      129      128
     245     59       84       86      129      133
     246     59       84       86      129      134
     247     58       84       87      142      141
     248     59       84       87      142      146
     249     59       84       87      142      147
     250     43       85       84       86       91
     251     43       85       84       86       92
     252     42       85       84       86      129
     253     43       85       84       87       93
     254     43       85       84       87       94
     255     42       85       84       87      142
     256     53       86       84       85       89
     257     53       86       84       85       90
     258     54       86       84       87       93
     259     54       86       84       87       94
     260     50       86       84       87      142
     261     44       86      129      128      130
     262     52       86      129      128      131
     263     52       86      129      128      132
     264     53       87       84       85       89
     265     53       87       84       85       90
     266     54       87       84       86       91
     267     54       87       84       86       92
     268     50       87       84       86      129
     269     52       87      142      141      143
     270     52       87      142      141      144
     271     44       87      142      141      145
     272     64       88       84       85       89
     273     64       88       84       85       90
     274     67       88       84       86       91
     275     67       88       84       86       92
     276     51       88       84       86      129
     277     67       88       84       87       93
     278     67       88       84       87       94
     279     51       88       84       87      142
     280     60       91       86      129      128
     281     66       91       86      129      133
     282     66       91       86      129      134
     283     60       92       86      129      128
     284     66       92       86      129      133
     285     66       92       86      129      134
     286     60       93       87      142      141
     287     66       93       87      142      146
     288     66       93       87      142      147
     289     60       94       87      142      141
     290     66       94       87      142      146
     291     66       94       87      142      147
     292     58       95       96      131      128
     293     59       95       96      131      137
     294     59       95       96      131      138
     295     54       96       95       97      102
     296     54       96       95       97      103
     297     54       96       95       98      104
     298     54       96       95       98      105
     299     52       96      131      128      129
     300     44       96      131      128      130
     301     52       96      131      128      132
     302     54       97       95       96      100
     303     54       97       95       96      101
     304     50       97       95       96      131
     305     54       97       95       98      104
     306     54       97       95       98      105
     307     54       98       95       96      100
     308     54       98       95       96      101
     309     50       98       95       96      131
     310     54       98       95       97      102
     311     54       98       95       97      103
     312     67       99       95       96      100
     313     67       99       95       96      101
     314     51       99       95       96      131
     315     67       99       95       97      102
     316     67       99       95       97      103
     317     67       99       95       98      104
     318     67       99       95       98      105
     319     60      100       96      131      128
     320     66      100       96      131      137
     321     66      100       96      131      138
     322     60      101       96      131      128
     323     66      101       96      131      137
     324     66      101       96      131      138
     325     58      106      107      132      128
     326     59      106      107      132      139
     327     59      106      107      132      140
     328     57      106      109      118      117
     329     59      106      109      118      122
     330     59      106      109      118      123
     331     54      107      106      108      113
     332     54      107      106      108      114
     333     54      107      106      109      115
     334     54      107      106      109      116
     335     50      107      106      109      118
     336     52      107      132      128      129
     337     44      107      132      128      130
     338     52      107      132      128      131
     339     54      108      106      107      111
     340     54      108      106      107      112
     341     50      108      106      107      132
     342     54      108      106      109      115
     343     54      108      106      109      116
     344     50      108      106      109      118
     345     54      109      106      107      111
     346     54      109      106      107      112
     347     50      109      106      107      132
     348     54      109      106      108      113
     349     54      109      106      108      114
     350     50      109      118      117      119
     351     50      109      118      117      120
     352     51      109      118      117      121
     353     67      110      106      107      111
     354     67      110      106      107      112
     355     51      110      106      107      132
     356     67      110      106      108      113
     357     67      110      106      108      114
     358     67      110      106      109      115
     359     67      110      106      109      116
     360     51      110      106      109      118
     361     60      111      107      132      128
     362     66      111      107      132      139
     363     66      111      107      132      140
     364     60      112      107      132      128
     365     66      112      107      132      139
     366     66      112      107      132      140
     367     59      115      109      118      117
     368     66      115      109      118      122
     369     66      115      109      118      123
     370     59      116      109      118      117
     371     66      116      109      118      122
     372     66      116      109      118      123
     373     54      118      117      119      124
     374     54      118      117      119      125
     375     54      118      117      120      126
     376     54      118      117      120      127
     377     54      119      117      118      122
     378     54      119      117      118      123
     379     54      119      117      120      126
     380     54      119      117      120      127
     381     54      120      117      118      122
     382     54      120      117      118      123
     383     54      120      117      119      124
     384     54      120      117      119      125
     385     67      121      117      118      122
     386     67      121      117      118      123
     387     67      121      117      119      124
     388     67      121      117      119      125
     389     67      121      117      120      126
     390     67      121      117      120      127
     391     55      129      128      130      135
     392     55      129      128      130      136
     393     56      129      128      131      137
     394     56      129      128      131      138
     395     56      129      128      132      139
     396     56      129      128      132      140
     397     45      130      128      129      133
     398     45      130      128      129      134
     399     45      130      128      131      137
     400     45      130      128      131      138
     401     45      130      128      132      139
     402     45      130      128      132      140
     403     56      131      128      129      133
     404     56      131      128      129      134
     405     55      131      128      130      135
     406     55      131      128      130      136
     407     56      131      128      132      139
     408     56      131      128      132      140
     409     56      132      128      129      133
     410     56      132      128      129      134
     411     55      132      128      130      135
     412     55      132      128      130      136
     413     56      132      128      131      137
     414     56      132      128      131      138
     415     35      141      145      154      155
     416     22      141      145      154      159
     417     56      142      141      143      148
     418     56      142      141      143      149
     419     56      142      141      144      150
     420     56      142      141      144      151
     421     55      142      141      145      152
     422     55      142      141      145      153
     423     14      142      141      145      154
     424     56      143      141      142      146
     425     56      143      141      142      147
     426     56      143      141      144      150
     427     56      143      141      144      151
     428     55      143      141      145      152
     429     55      143      141      145      153
     430     14      143      141      145      154
     431     56      144      141      142      146
     432     56      144      141      142      147
     433     56      144      141      143      148
     434     56      144      141      143      149
     435     55      144      141      145      152
     436     55      144      141      145      153
     437     14      144      141      145      154
     438     45      145      141      142      146
     439     45      145      141      142      147
     440     45      145      141      143      148
     441     45      145      141      143      149
     442     45      145      141      144      150
     443     45      145      141      144      151
     444     30      145      154      155      156
     445     39      145      154      155      162
     446      2      145      154      159      158
     447     41      145      154      159      161
     448     36      152      145      154      155
     449     23      152      145      154      159
     450     36      153      145      154      155
     451     23      153      145      154      159
     452      6      154      155      156      157
     453      7      154      155      156      160
     454      8      154      155      162      163
     455      8      154      155      162      167
     456      1      154      159      158      157
     457      2      154      159      158      195
     458      1      155      154      159      158
     459     33      155      154      159      161
     460      6      155      156      157      158
     461     38      155      156      157      173
     462     29      155      162      163      164
     463     40      155      162      163      168
     464     29      155      162      167      166
     465     40      155      162      167      172
     466     17      156      155      154      159
     467     32      156      155      162      163
     468     32      156      155      162      167
     469     17      156      157      158      159
     470     30      156      157      158      195
     471     32      156      157      173      174
     472     32      156      157      173      178
     473     38      157      156      155      162
     474     33      157      158      159      161
     475     34      157      158      195      196
     476     36      157      158      195      197
     477     36      157      158      195      198
     478     29      157      173      174      175
     479     40      157      173      174      179
     480     29      157      173      178      177
     481     40      157      173      178      183
     482      7      158      157      156      160
     483      8      158      157      173      174
     484      8      158      157      173      178
     485      9      158      195      196      184
     486     10      158      195      196      199
     487     10      158      195      196      200
     488     18      159      154      155      162
     489     18      159      158      157      173
     490     19      159      158      195      196
     491     23      159      158      195      197
     492     23      159      158      195      198
     493     40      160      156      155      162
     494     40      160      156      157      173
     495     41      161      159      158      195
     496     26      162      163      164      165
     497     37      162      163      164      169
     498     26      162      167      166      165
     499     37      162      167      166      171
     500     28      163      162      167      166
     501     31      163      162      167      172
     502     25      163      164      165      166
     503     27      163      164      165      170
     504     28      164      163      162      167
     505     25      164      165      166      167
     506     27      164      165      166      171
     507     27      165      164      163      168
     508     27      165      166      167      172
     509     27      166      165      164      169
     510     31      167      162      163      168
     511     27      167      166      165      170
     512     61      168      163      164      169
     513     61      169      164      165      170
     514     61      170      165      166      171
     515     61      171      166      167      172
     516     39      173      157      158      195
     517     26      173      174      175      176
     518     37      173      174      175      180
     519     26      173      178      177      176
     520     37      173      178      177      182
     521     28      174      173      178      177
     522     31      174      173      178      183
     523     25      174      175      176      177
     524     27      174      175      176      181
     525     28      175      174      173      178
     526     25      175      176      177      178
     527     27      175      176      177      182
     528     27      176      175      174      179
     529     27      176      177      178      183
     530     27      177      176      175      180
     531     31      178      173      174      179
     532     27      178      177      176      181
     533     61      179      174      175      180
     534     61      180      175      176      181
     535     61      181      176      177      182
     536     61      182      177      178      183
     537      4      184      185      186      187
     538      5      184      185      186      191
     539      4      184      189      188      187
     540      5      184      189      188      193
     541     10      184      196      195      197
     542     10      184      196      195      198
     543     15      185      184      189      188
     544     16      185      184      189      194
     545     19      185      184      196      195
     546     23      185      184      196      199
     547     23      185      184      196      200
     548     25      185      186      187      188
     549     27      185      186      187      192
     550     15      186      185      184      189
     551     24      186      185      184      196
     552     25      186      187      188      189
     553     27      186      187      188      193
     554     27      187      186      185      190
     555     27      187      188      189      194
     556     27      188      187      186      191
     557     24      188      189      184      196
     558     16      189      184      185      190
     559     19      189      184      196      195
     560     23      189      184      196      199
     561     23      189      184      196      200
     562     27      189      188      187      192
     563     41      190      185      184      196
     564     61      190      185      186      191
     565     61      191      186      187      192
     566     61      192      187      188      193
     567     61      193      188      189      194
     568     41      194      189      184      196
     569     62      197      195      196      199
     570     62      197      195      196      200
     571     62      198      195      196      199
     572     62      198      195      196      200

Impropers

       1      1        2       64       65       69
       2      4       64       65       66       70
       3      4       65       66       67       71
       4      1       66       67       68       85
       5      4       67       68       69       72
       6      4       64       69       68       73
       7      1       75       74       79      130
       8      4       74       75       76       80
       9      4       75       76       77       81
      10      1        9       77       76       78
      11      4       77       78       79       82
      12      4       74       79       78       83
      13      2      145      154      155      159
      14      8      154      155      156      162
      15      7      155      156      157      160
      16      8      156      157      158      173
      17      2      157      158      159      195
      18      3      154      159      158      161
      19      9      155      162      163      167
      20      6      162      163      164      168
      21      5      163      164      165      169
      22      5      164      165      166      170
      23      5      165      166      167      171
      24      6      162      167      166      172
      25      9      157      173      174      178
      26      6      173      174      175      179
      27      5      174      175      176      180
      28      5      175      176      177      181
      29      5      176      177      178      182
      30      6      173      178      177      183
      31      1      185      184      189      196
      32      4      184      185      186      190
      33      5      185      186      187      191
      34      5      186      187      188      192
      35      5      187      188      189      193
      36      4      184      189      188      194

