LAMMPS data file generated by clean-room 1-hop pipeline

     282 atoms
     282 bonds
     564 angles
     846 dihedrals
       0 impropers

       2 atom types
       2 bond types
       3 angle types
       3 dihedral types
       0 improper types

  -30.654000    35.642200 xlo xhi
  -35.484100    36.027400 ylo yhi
  -35.683600    34.447900 zlo zhi

Masses

       1    12.011000
       2     1.008000

Pair Coeffs

       1     0.066000     3.500000
       2     0.030000     2.500000

Bond Coeffs

       1   268.000000     1.529000
       2   340.000000     1.090000

Angle Coeffs

       1    58.350000   112.700000
       2    37.500000   110.700000
       3    33.000000   107.800000

Dihedral Coeffs

       1     0.850000    -0.200000     0.200000     0.000000
       2     0.000000     0.000000     0.300000     0.000000
       3     0.000000     0.000000     0.300000     0.000000

Improper Coeffs


Atoms

       1    1      1  -0.19413973    -4.640800    14.965300     0.882000
       2    1      1  -0.19413973    -5.994300    14.229800     0.859900
       3    1      2   0.09706986    -4.771600    16.027400     0.492000
       4    1      2   0.09706986    -4.184000    14.981100     1.927800
       5    1      2   0.09706986    -6.353800    14.228800    -0.223500
       6    1      2   0.09706986    -5.842100    13.153000     1.195100
       7    1      1  -0.19413973    -3.778500    14.140500    -0.090700
       8    1      1  -0.19413973    -2.379500    14.696100    -0.415600
       9    1      2   0.09706986    -4.346500    14.073400    -1.075900
      10    1      2   0.09706986    -3.664300    13.088500     0.335100
      11    1      2   0.09706986    -1.721200    14.757000     0.512000
      12    1      2   0.09706986    -2.469400    15.722000    -0.908000
      13    1      1  -0.19413973    -1.840100    13.659500    -1.418200
      14    1      1  -0.19413973    -0.475800    13.957800    -2.065600
      15    1      2   0.09706986    -2.598800    13.574600    -2.263200
      16    1      2   0.09706986    -1.775100    12.652500    -0.886000
      17    1      2   0.09706986     0.356400    14.013800    -1.289100
      18    1      2   0.09706986    -0.528200    14.927700    -2.663400
      19    1      1  -0.19413973    -0.282000    12.751600    -3.003100
      20    1      1  -0.19413973     0.965300    12.784600    -3.904100
      21    1      2   0.09706986    -1.192700    12.697500    -3.687500
      22    1      2   0.09706986    -0.247000    11.807100    -2.367400
      23    1      2   0.09706986     0.925900    13.693400    -4.591800
      24    1      2   0.09706986     1.923700    12.798000    -3.286400
      25    1      1  -0.19413973     0.855000    11.485600    -4.724300
      26    1      1  -0.19413973     1.945500    11.308200    -5.795800
      27    1      2   0.09706986    -0.153400    11.489200    -5.253600
      28    1      2   0.09706986     0.891800    10.598500    -4.007600
      29    1      2   0.09706986     1.894600    12.169300    -6.543800
      30    1      2   0.09706986     2.979600    11.264400    -5.321000
      31    1      1  -0.19413973     1.612000     9.978400    -6.498600
      32    1      1  -0.19413973     2.555900     9.666700    -7.674100
      33    1      2   0.09706986     0.549700    10.041500    -6.902100
      34    1      2   0.09706986     1.670400     9.131700    -5.735400
      35    1      2   0.09706986     2.482300    10.496100    -8.454000
      36    1      2   0.09706986     3.631100     9.573900    -7.308300
      37    1      1  -0.19413973     2.082800     8.333400    -8.283400
      38    1      1  -0.19413973     2.919800     7.938800    -9.514100
      39    1      2   0.09706986     0.993100     8.438900    -8.602300
      40    1      2   0.09706986     2.164600     7.515000    -7.494700
      41    1      2   0.09706986     2.824400     8.740200   -10.319900
      42    1      2   0.09706986     4.014300     7.818100    -9.217900
      43    1      1  -0.19413973     2.369900     6.599800   -10.039500
      44    1      1  -0.19413973     3.144200     6.120500   -11.281700
      45    1      2   0.09706986     1.269900     6.723400   -10.309900
      46    1      2   0.09706986     2.468400     5.815400    -9.218000
      47    1      2   0.09706986     3.032400     6.871100   -12.133500
      48    1      2   0.09706986     4.245500     5.995600   -11.019400
      49    1      1  -0.19413973     2.553300     4.758100   -11.687100
      50    1      1  -0.19413973     3.289000     4.138200   -12.891800
      51    1      2   0.09706986     1.449700     4.880600   -11.940400
      52    1      2   0.09706986     2.652800     4.057800   -10.791300
      53    1      2   0.09706986     3.160400     4.793200   -13.816100
      54    1      2   0.09706986     4.395800     4.025700   -12.648000
      55    1      1  -0.19413973     2.674900     2.745300   -13.121000
      56    1      1  -0.19413973     3.335200     1.948800   -14.262000
      57    1      2   0.09706986     1.559300     2.852400   -13.340100
      58    1      2   0.09706986     2.810700     2.153200   -12.160600
      59    1      2   0.09706986     3.195400     2.478700   -15.259100
      60    1      2   0.09706986     4.447900     1.810300   -14.045200
      61    1      1  -0.19413973     2.626300     0.581200   -14.265700
      62    1      1  -0.19413973     1.137100     0.826500   -14.569300
      63    1      2   0.09706986     3.063300    -0.112800   -15.057300
      64    1      2   0.09706986     2.758900     0.087900   -13.253200
      65    1      2   0.09706986     0.729000     1.711200   -13.979800
      66    1      2   0.09706986     1.081500     1.064800   -15.683600
      67    1      1  -0.19413973     0.252700    -0.395400   -14.252600
      68    1      1  -0.19413973    -0.345900    -0.316000   -12.828600
      69    1      2   0.09706986    -0.655900    -0.324600   -14.938300
      70    1      2   0.09706986     0.799300    -1.371700   -14.470100
      71    1      2   0.09706986    -0.914800     0.671600   -12.798400
      72    1      2   0.09706986    -1.105200    -1.161500   -12.735400
      73    1      1  -0.19413973     0.507300    -0.346000   -11.540500
      74    1      1  -0.19413973     1.585400     0.752100   -11.490400
      75    1      2   0.09706986    -0.223600    -0.157900   -10.686700
      76    1      2   0.09706986     1.000600    -1.362100   -11.385600
      77    1      2   0.09706986     1.165600     1.728900   -11.903100
      78    1      2   0.09706986     2.481400     0.433400   -12.105400
      79    1      1  -0.19413973     2.060500     1.032300   -10.053200
      80    1      1  -0.19413973     3.284100     1.967700   -10.121000
      81    1      2   0.09706986     1.200000     1.539500    -9.501700
      82    1      2   0.09706986     2.356100     0.077500    -9.505800
      83    1      2   0.09706986     3.085900     2.795000   -10.877200
      84    1      2   0.09706986     4.194000     1.367800   -10.456300
      85    1      1  -0.19413973     3.519000     2.635600    -8.753500
      86    1      1  -0.19413973     3.608900     1.621300    -7.599700
      87    1      2   0.09706986     2.615300     3.298500    -8.546200
      88    1      2   0.09706986     4.455500     3.284900    -8.785000
      89    1      2   0.09706986     3.637500     2.205500    -6.620400
      90    1      2   0.09706986     2.672500     0.972400    -7.615100
      91    1      1  -0.19413973     4.854000     0.716200    -7.627500
      92    1      1  -0.19413973     6.144400     1.550900    -7.512300
      93    1      2   0.09706986     4.881800     0.075400    -8.569900
      94    1      2   0.09706986     4.790600     0.037300    -6.714000
      95    1      2   0.09706986     6.046800     2.280300    -6.641800
      96    1      2   0.09706986     6.338300     2.126800    -8.478100
      97    1      1  -0.19413973     7.283500     0.569800    -7.180200
      98    1      1  -0.19413973     8.651300     1.254300    -6.989100
      99    1      2   0.09706986     7.372900    -0.220500    -7.996700
     100    1      2   0.09706986     7.006800     0.058200    -6.199800
     101    1      2   0.09706986     8.575500     2.103600    -6.233100
     102    1      2   0.09706986     9.038900     1.648900    -7.985700
     103    1      1  -0.19413973     9.559500     0.151200    -6.417200
     104    1      1  -0.19413973    11.036400     0.530400    -6.195800
     105    1      2   0.09706986     9.535600    -0.740500    -7.126900
     106    1      2   0.09706986     9.118800    -0.169300    -5.415100
     107    1      2   0.09706986    11.156400     1.428800    -5.504800
     108    1      2   0.09706986    11.536700     0.729100    -7.201200
     109    1      1  -0.19413973    11.592300    -0.742400    -5.534800
     110    1      1  -0.19413973    13.115000    -0.877400    -5.352800
     111    1      2   0.09706986    11.282000    -1.616400    -6.198500
     112    1      2   0.09706986    11.086700    -0.865800    -4.520700
     113    1      2   0.09706986    13.571900    -0.093900    -4.658400
     114    1      2   0.09706986    13.615100    -0.855800    -6.374000
     115    1      1  -0.19413973    13.163600    -2.291000    -4.750400
     116    1      1  -0.19413973    14.487400    -3.073100    -4.728800
     117    1      2   0.09706986    12.479000    -2.917900    -5.416000
     118    1      2   0.09706986    12.712900    -2.266900    -3.705500
     119    1      2   0.09706986    14.888400    -3.142900    -5.791900
     120    1      2   0.09706986    15.279300    -2.658900    -4.018100
     121    1      1  -0.19413973    13.914500    -4.430400    -4.289700
     122    1      1  -0.19413973    14.721600    -5.713700    -4.541500
     123    1      2   0.09706986    12.982900    -4.565900    -4.935000
     124    1      2   0.09706986    13.583000    -4.375200    -3.201600
     125    1      2   0.09706986    15.008100    -5.757800    -5.641600
     126    1      2   0.09706986    15.642200    -5.832300    -3.875000
     127    1      1  -0.19413973    13.610500    -6.738600    -4.255700
     128    1      1  -0.19413973    13.803100    -8.181000    -4.751600
     129    1      2   0.09706986    12.700300    -6.355400    -4.827500
     130    1      2   0.09706986    13.360700    -6.733900    -3.144600
     131    1      2   0.09706986    14.025400    -8.167500    -5.868500
     132    1      2   0.09706986    14.620000    -8.744200    -4.186800
     133    1      1  -0.19413973    12.398500    -8.765300    -4.513600
     134    1      1  -0.19413973    12.125200   -10.147400    -5.130800
     135    1      2   0.09706986    11.657900    -8.046400    -5.000200
     136    1      2   0.09706986    12.190900    -8.797700    -3.393900
     137    1      2   0.09706986    12.301800   -10.109000    -6.254600
     138    1      2   0.09706986    12.778100   -10.954700    -4.655800
     139    1      1  -0.19413973    10.631300   -10.391000    -4.843700
     140    1      1  -0.19413973    10.086600   -11.687600    -5.468800
     141    1      2   0.09706986    10.037800    -9.515800    -5.276200
     142    1      2   0.09706986    10.474200   -10.423100    -3.717100
     143    1      2   0.09706986    10.207700   -11.655500    -6.600400
     144    1      2   0.09706986    10.643700   -12.589100    -5.044600
     145    1      1  -0.19413973     8.592400   -11.765900    -5.097800
     146    1      1  -0.19413973     7.929500   -13.035200    -5.663600
     147    1      2   0.09706986     8.053300   -10.848400    -5.506800
     148    1      2   0.09706986     8.500600   -11.779400    -3.962000
     149    1      2   0.09706986     7.977700   -13.028800    -6.803100
     150    1      2   0.09706986     8.476700   -13.952600    -5.263800
     151    1      1  -0.19413973     6.461200   -13.086000    -5.200000
     152    1      1  -0.19413973     5.821100   -14.390800    -5.703600
     153    1      2   0.09706986     6.429600   -13.076400    -4.060600
     154    1      2   0.09706986     5.885100   -12.189500    -5.604300
     155    1      2   0.09706986     5.825200   -14.412700    -6.843800
     156    1      2   0.09706986     6.423200   -15.272200    -5.305600
     157    1      1  -0.19413973     4.377500   -14.490500    -5.173800
     158    1      1  -0.19413973     3.490600   -13.347600    -5.705000
     159    1      2   0.09706986     3.932100   -15.484100    -5.510200
     160    1      2   0.09706986     4.395500   -14.452200    -4.034000
     161    1      2   0.09706986     3.908400   -12.342500    -5.366600
     162    1      2   0.09706986     3.467200   -13.389200    -6.842900
     163    1      1  -0.19413973     2.060400   -13.523800    -5.159500
     164    1      1  -0.19413973     2.102000   -13.412700    -3.625500
     165    1      2   0.09706986     1.381700   -12.709500    -5.575800
     166    1      2   0.09706986     1.659300   -14.548500    -5.464800
     167    1      2   0.09706986     2.470500   -12.370200    -3.344800
     168    1      2   0.09706986     2.814100   -14.193800    -3.201100
     169    1      1  -0.19413973     0.689900   -13.634900    -3.050700
     170    1      1  -0.19413973     0.724000   -13.405400    -1.527900
     171    1      2   0.09706986    -0.031500   -12.889000    -3.520400
     172    1      2   0.09706986     0.345900   -14.697000    -3.283500
     173    1      2   0.09706986     1.056600   -12.329600    -1.338200
     174    1      2   0.09706986     1.467900   -14.118700    -1.043700
     175    1      1  -0.19413973    -0.665900   -13.613400    -0.894800
     176    1      1  -0.19413973    -0.567000   -13.216700     0.590100
     177    1      2   0.09706986    -1.425300   -12.937100    -1.406800
     178    1      2   0.09706986    -0.987900   -14.703100    -1.001400
     179    1      2   0.09706986    -0.247900   -12.123200     0.639700
     180    1      2   0.09706986     0.216700   -13.858400     1.112800
     181    1      1  -0.19413973    -1.914100   -13.366000     1.322300
     182    1      1  -0.19413973    -1.707700   -12.777200     2.729700
     183    1      2   0.09706986    -2.717200   -12.762200     0.779900
     184    1      2   0.09706986    -2.221300   -14.460800     1.373700
     185    1      2   0.09706986    -1.397000   -11.689000     2.605100
     186    1      2   0.09706986    -0.873500   -13.343500     3.264300
     187    1      1  -0.19413973    -2.980400   -12.818200     3.595900
     188    1      1  -0.19413973    -2.637800   -12.036800     4.877600
     189    1      2   0.09706986    -3.834900   -12.292400     3.053900
     190    1      2   0.09706986    -3.272100   -13.894900     3.831300
     191    1      2   0.09706986    -2.347300   -10.979400     4.564800
     192    1      2   0.09706986    -1.751100   -12.525300     5.400600
     193    1      1  -0.19413973    -3.812000   -11.934500     5.868400
     194    1      1  -0.19413973    -3.336600   -10.969800     6.970500
     195    1      2   0.09706986    -4.721600   -11.485800     5.347300
     196    1      2   0.09706986    -4.072500   -12.959500     6.293800
     197    1      2   0.09706986    -3.084000    -9.979700     6.467500
     198    1      2   0.09706986    -2.397900   -11.382000     7.470000
     199    1      1  -0.19413973    -4.405000   -10.699100     8.045500
     200    1      1  -0.19413973    -3.840200    -9.564400     8.920100
     201    1      2   0.09706986    -5.365400   -10.336100     7.546700
     202    1      2   0.09706986    -4.615500   -11.637400     8.656800
     203    1      2   0.09706986    -3.643700    -8.677200     8.232300
     204    1      2   0.09706986    -2.858200    -9.885700     9.401400
     205    1      1  -0.19413973    -4.825000    -9.107000    10.011300
     206    1      1  -0.19413973    -4.234500    -7.816200    10.607600
     207    1      2   0.09706986    -5.826700    -8.854600     9.528600
     208    1      2   0.09706986    -4.968800    -9.915000    10.802100
     209    1      2   0.09706986    -4.105600    -7.082300     9.744500
     210    1      2   0.09706986    -3.217600    -8.014800    11.082100
     211    1      1  -0.19413973    -5.181300    -7.167700    11.633400
     212    1      1  -0.19413973    -4.635800    -5.751800    11.893600
     213    1      2   0.09706986    -6.214900    -7.065000    11.164000
     214    1      2   0.09706986    -5.250700    -7.786500    12.588600
     215    1      2   0.09706986    -4.576600    -5.235300    10.878400
     216    1      2   0.09706986    -3.594900    -5.784400    12.355400
     217    1      1  -0.19413973    -5.592800    -4.926800    12.772500
     218    1      1  -0.19413973    -5.146700    -3.459800    12.639900
     219    1      2   0.09706986    -6.643100    -5.008200    12.339800
     220    1      2   0.09706986    -5.591900    -5.289300    13.854600
     221    1      2   0.09706986    -5.149300    -3.223100    11.523900
     222    1      2   0.09706986    -4.095900    -3.301200    13.050500
     223    1      1  -0.19413973    -6.144700    -2.499300    13.311000
     224    1      1  -0.19413973    -5.814300    -1.097000    12.769800
     225    1      2   0.09706986    -7.196800    -2.764400    12.961800
     226    1      2   0.09706986    -6.088600    -2.558400    14.447900
     227    1      2   0.09706986    -5.867600    -1.168200    11.633300
     228    1      2   0.09706986    -4.763800    -0.774400    13.072500
     229    1      1  -0.19413973    -6.848400    -0.046100    13.211900
     230    1      1  -0.19413973    -6.604700     1.182700    12.317600
     231    1      2   0.09706986    -7.896400    -0.438500    12.992900
     232    1      2   0.09706986    -6.748400     0.193800    14.321700
     233    1      2   0.09706986    -5.551600     1.589900    12.475600
     234    1      2   0.09706986    -6.708900     0.832700    11.237800
     235    1      1  -0.19413973    -7.636200     2.301500    12.549300
     236    1      1  -0.19413973    -7.424300     3.306000    11.402200
     237    1      2   0.09706986    -8.690800     1.877000    12.471500
     238    1      2   0.09706986    -7.485500     2.784400    13.571400
     239    1      2   0.09706986    -6.354400     3.694100    11.422000
     240    1      2   0.09706986    -7.600200     2.750200    10.420200
     241    1      1  -0.19413973    -8.392900     4.500900    11.461700
     242    1      1  -0.19413973    -8.166100     5.292600    10.160700
     243    1      2   0.09706986    -9.471800     4.140200    11.499300
     244    1      2   0.09706986    -8.163700     5.141100    12.378600
     245    1      2   0.09706986    -7.064300     5.574900    10.080900
     246    1      2   0.09706986    -8.443300     4.622300     9.281600
     247    1      1  -0.19413973    -9.001500     6.583700    10.094700
     248    1      1  -0.19413973    -8.737400     7.204800     8.710500
     249    1      2   0.09706986   -10.114100     6.357100    10.209100
     250    1      2   0.09706986    -8.663400     7.292000    10.920500
     251    1      2   0.09706986    -7.612400     7.326300     8.567800
     252    1      2   0.09706986    -9.142100     6.503500     7.909000
     253    1      1  -0.19413973    -9.385500     8.593700     8.567200
     254    1      1  -0.19413973    -9.095500     9.090600     7.138400
     255    1      2   0.09706986   -10.512900     8.537700     8.735600
     256    1      2   0.09706986    -8.917100     9.298800     9.328900
     257    1      2   0.09706986    -7.972200     9.038000     6.945600
     258    1      2   0.09706986    -9.635800     8.419600     6.394100
     259    1      1  -0.19413973    -9.542500    10.552800     6.958200
     260    1      1  -0.19413973    -9.276100    10.963300     5.497700
     261    1      2   0.09706986   -10.654000    10.663600     7.188500
     262    1      2   0.09706986    -8.937800    11.212900     7.664500
     263    1      2   0.09706986    -9.947600    10.345000     4.814300
     264    1      2   0.09706986    -8.184700    10.764400     5.234900
     265    1      1  -0.19413973    -9.560600    12.463800     5.300400
     266    1      1  -0.19413973    -9.404100    12.808100     3.807500
     267    1      2   0.09706986   -10.628600    12.703400     5.624000
     268    1      2   0.09706986    -8.827800    13.070300     5.925500
     269    1      2   0.09706986   -10.192700    12.230800     3.224300
     270    1      2   0.09706986    -8.365800    12.510900     3.435000
     271    1      1  -0.19413973    -9.602200    14.318700     3.582600
     272    1      1  -0.19413973    -9.645800    14.573200     2.065300
     273    1      2   0.09706986   -10.597900    14.645700     4.033600
     274    1      2   0.09706986    -8.751500    14.898000     4.069500
     275    1      2   0.09706986    -9.787800    15.684300     1.851200
     276    1      2   0.09706986   -10.533600    13.995100     1.646200
     277    1      1  -0.19413973    -7.106600    14.863600     1.715300
     278    1      1  -0.19413973    -8.373900    14.060300     1.365500
     279    1      2   0.09706986    -7.255400    15.950700     1.413800
     280    1      2   0.09706986    -6.859000    14.795000     2.828400
     281    1      2   0.09706986    -8.531900    14.153400     0.239300
     282    1      2   0.09706986    -8.219800    12.962500     1.628800

Bonds

       1      1        1        2
       2      2        1        3
       3      2        1        4
       4      1        1        7
       5      2        2        5
       6      2        2        6
       7      1        2      277
       8      1        7        8
       9      2        7        9
      10      2        7       10
      11      2        8       11
      12      2        8       12
      13      1        8       13
      14      1       13       14
      15      2       13       15
      16      2       13       16
      17      2       14       17
      18      2       14       18
      19      1       14       19
      20      1       19       20
      21      2       19       21
      22      2       19       22
      23      2       20       23
      24      2       20       24
      25      1       20       25
      26      1       25       26
      27      2       25       27
      28      2       25       28
      29      2       26       29
      30      2       26       30
      31      1       26       31
      32      1       31       32
      33      2       31       33
      34      2       31       34
      35      2       32       35
      36      2       32       36
      37      1       32       37
      38      1       37       38
      39      2       37       39
      40      2       37       40
      41      2       38       41
      42      2       38       42
      43      1       38       43
      44      1       43       44
      45      2       43       45
      46      2       43       46
      47      2       44       47
      48      2       44       48
      49      1       44       49
      50      1       49       50
      51      2       49       51
      52      2       49       52
      53      2       50       53
      54      2       50       54
      55      1       50       55
      56      1       55       56
      57      2       55       57
      58      2       55       58
      59      2       56       59
      60      2       56       60
      61      1       56       61
      62      1       61       62
      63      2       61       63
      64      2       61       64
      65      2       62       65
      66      2       62       66
      67      1       62       67
      68      1       67       68
      69      2       67       69
      70      2       67       70
      71      2       68       71
      72      2       68       72
      73      1       68       73
      74      1       73       74
      75      2       73       75
      76      2       73       76
      77      2       74       77
      78      2       74       78
      79      1       74       79
      80      1       79       80
      81      2       79       81
      82      2       79       82
      83      2       80       83
      84      2       80       84
      85      1       80       85
      86      1       85       86
      87      2       85       87
      88      2       85       88
      89      2       86       89
      90      2       86       90
      91      1       86       91
      92      1       91       92
      93      2       91       93
      94      2       91       94
      95      2       92       95
      96      2       92       96
      97      1       92       97
      98      1       97       98
      99      2       97       99
     100      2       97      100
     101      2       98      101
     102      2       98      102
     103      1       98      103
     104      1      103      104
     105      2      103      105
     106      2      103      106
     107      2      104      107
     108      2      104      108
     109      1      104      109
     110      1      109      110
     111      2      109      111
     112      2      109      112
     113      2      110      113
     114      2      110      114
     115      1      110      115
     116      1      115      116
     117      2      115      117
     118      2      115      118
     119      2      116      119
     120      2      116      120
     121      1      116      121
     122      1      121      122
     123      2      121      123
     124      2      121      124
     125      2      122      125
     126      2      122      126
     127      1      122      127
     128      1      127      128
     129      2      127      129
     130      2      127      130
     131      2      128      131
     132      2      128      132
     133      1      128      133
     134      1      133      134
     135      2      133      135
     136      2      133      136
     137      2      134      137
     138      2      134      138
     139      1      134      139
     140      1      139      140
     141      2      139      141
     142      2      139      142
     143      2      140      143
     144      2      140      144
     145      1      140      145
     146      1      145      146
     147      2      145      147
     148      2      145      148
     149      2      146      149
     150      2      146      150
     151      1      146      151
     152      1      151      152
     153      2      151      153
     154      2      151      154
     155      2      152      155
     156      2      152      156
     157      1      152      157
     158      1      157      158
     159      2      157      159
     160      2      157      160
     161      2      158      161
     162      2      158      162
     163      1      158      163
     164      1      163      164
     165      2      163      165
     166      2      163      166
     167      2      164      167
     168      2      164      168
     169      1      164      169
     170      1      169      170
     171      2      169      171
     172      2      169      172
     173      2      170      173
     174      2      170      174
     175      1      170      175
     176      1      175      176
     177      2      175      177
     178      2      175      178
     179      2      176      179
     180      2      176      180
     181      1      176      181
     182      1      181      182
     183      2      181      183
     184      2      181      184
     185      2      182      185
     186      2      182      186
     187      1      182      187
     188      1      187      188
     189      2      187      189
     190      2      187      190
     191      2      188      191
     192      2      188      192
     193      1      188      193
     194      1      193      194
     195      2      193      195
     196      2      193      196
     197      2      194      197
     198      2      194      198
     199      1      194      199
     200      1      199      200
     201      2      199      201
     202      2      199      202
     203      2      200      203
     204      2      200      204
     205      1      200      205
     206      1      205      206
     207      2      205      207
     208      2      205      208
     209      2      206      209
     210      2      206      210
     211      1      206      211
     212      1      211      212
     213      2      211      213
     214      2      211      214
     215      2      212      215
     216      2      212      216
     217      1      212      217
     218      1      217      218
     219      2      217      219
     220      2      217      220
     221      2      218      221
     222      2      218      222
     223      1      218      223
     224      1      223      224
     225      2      223      225
     226      2      223      226
     227      2      224      227
     228      2      224      228
     229      1      224      229
     230      1      229      230
     231      2      229      231
     232      2      229      232
     233      2      230      233
     234      2      230      234
     235      1      230      235
     236      1      235      236
     237      2      235      237
     238      2      235      238
     239      2      236      239
     240      2      236      240
     241      1      236      241
     242      1      241      242
     243      2      241      243
     244      2      241      244
     245      2      242      245
     246      2      242      246
     247      1      242      247
     248      1      247      248
     249      2      247      249
     250      2      247      250
     251      2      248      251
     252      2      248      252
     253      1      248      253
     254      1      253      254
     255      2      253      255
     256      2      253      256
     257      2      254      257
     258      2      254      258
     259      1      254      259
     260      1      259      260
     261      2      259      261
     262      2      259      262
     263      2      260      263
     264      2      260      264
     265      1      260      265
     266      1      265      266
     267      2      265      267
     268      2      265      268
     269      2      266      269
     270      2      266      270
     271      1      266      271
     272      1      271      272
     273      2      271      273
     274      2      271      274
     275      2      272      275
     276      2      272      276
     277      1      272      278
     278      1      277      278
     279      2      277      279
     280      2      277      280
     281      2      278      281
     282      2      278      282

Angles

       1      2        1        2        5
       2      2        1        2        6
       3      1        1        2      277
       4      1        1        7        8
       5      2        1        7        9
       6      2        1        7       10
       7      2        2        1        3
       8      2        2        1        4
       9      1        2        1        7
      10      1        2      277      278
      11      2        2      277      279
      12      2        2      277      280
      13      3        3        1        4
      14      2        3        1        7
      15      2        4        1        7
      16      3        5        2        6
      17      2        5        2      277
      18      2        6        2      277
      19      2        7        8       11
      20      2        7        8       12
      21      1        7        8       13
      22      2        8        7        9
      23      2        8        7       10
      24      1        8       13       14
      25      2        8       13       15
      26      2        8       13       16
      27      3        9        7       10
      28      3       11        8       12
      29      2       11        8       13
      30      2       12        8       13
      31      2       13       14       17
      32      2       13       14       18
      33      1       13       14       19
      34      2       14       13       15
      35      2       14       13       16
      36      1       14       19       20
      37      2       14       19       21
      38      2       14       19       22
      39      3       15       13       16
      40      3       17       14       18
      41      2       17       14       19
      42      2       18       14       19
      43      2       19       20       23
      44      2       19       20       24
      45      1       19       20       25
      46      2       20       19       21
      47      2       20       19       22
      48      1       20       25       26
      49      2       20       25       27
      50      2       20       25       28
      51      3       21       19       22
      52      3       23       20       24
      53      2       23       20       25
      54      2       24       20       25
      55      2       25       26       29
      56      2       25       26       30
      57      1       25       26       31
      58      2       26       25       27
      59      2       26       25       28
      60      1       26       31       32
      61      2       26       31       33
      62      2       26       31       34
      63      3       27       25       28
      64      3       29       26       30
      65      2       29       26       31
      66      2       30       26       31
      67      2       31       32       35
      68      2       31       32       36
      69      1       31       32       37
      70      2       32       31       33
      71      2       32       31       34
      72      1       32       37       38
      73      2       32       37       39
      74      2       32       37       40
      75      3       33       31       34
      76      3       35       32       36
      77      2       35       32       37
      78      2       36       32       37
      79      2       37       38       41
      80      2       37       38       42
      81      1       37       38       43
      82      2       38       37       39
      83      2       38       37       40
      84      1       38       43       44
      85      2       38       43       45
      86      2       38       43       46
      87      3       39       37       40
      88      3       41       38       42
      89      2       41       38       43
      90      2       42       38       43
      91      2       43       44       47
      92      2       43       44       48
      93      1       43       44       49
      94      2       44       43       45
      95      2       44       43       46
      96      1       44       49       50
      97      2       44       49       51
      98      2       44       49       52
      99      3       45       43       46
     100      3       47       44       48
     101      2       47       44       49
     102      2       48       44       49
     103      2       49       50       53
     104      2       49       50       54
     105      1       49       50       55
     106      2       50       49       51
     107      2       50       49       52
     108      1       50       55       56
     109      2       50       55       57
     110      2       50       55       58
     111      3       51       49       52
     112      3       53       50       54
     113      2       53       50       55
     114      2       54       50       55
     115      2       55       56       59
     116      2       55       56       60
     117      1       55       56       61
     118      2       56       55       57
     119      2       56       55       58
     120      1       56       61       62
     121      2       56       61       63
     122      2       56       61       64
     123      3       57       55       58
     124      3       59       56       60
     125      2       59       56       61
     126      2       60       56       61
     127      2       61       62       65
     128      2       61       62       66
     129      1       61       62       67
     130      2       62       61       63
     131      2       62       61       64
     132      1       62       67       68
     133      2       62       67       69
     134      2       62       67       70
     135      3       63       61       64
     136      3       65       62       66
     137      2       65       62       67
     138      2       66       62       67
     139      2       67       68       71
     140      2       67       68       72
     141      1       67       68       73
     142      2       68       67       69
     143      2       68       67       70
     144      1       68       73       74
     145      2       68       73       75
     146      2       68       73       76
     147      3       69       67       70
     148      3       71       68       72
     149      2       71       68       73
     150      2       72       68       73
     151      2       73       74       77
     152      2       73       74       78
     153      1       73       74       79
     154      2       74       73       75
     155      2       74       73       76
     156      1       74       79       80
     157      2       74       79       81
     158      2       74       79       82
     159      3       75       73       76
     160      3       77       74       78
     161      2       77       74       79
     162      2       78       74       79
     163      2       79       80       83
     164      2       79       80       84
     165      1       79       80       85
     166      2       80       79       81
     167      2       80       79       82
     168      1       80       85       86
     169      2       80       85       87
     170      2       80       85       88
     171      3       81       79       82
     172      3       83       80       84
     173      2       83       80       85
     174      2       84       80       85
     175      2       85       86       89
     176      2       85       86       90
     177      1       85       86       91
     178      2       86       85       87
     179      2       86       85       88
     180      1       86       91       92
     181      2       86       91       93
     182      2       86       91       94
     183      3       87       85       88
     184      3       89       86       90
     185      2       89       86       91
     186      2       90       86       91
     187      2       91       92       95
     188      2       91       92       96
     189      1       91       92       97
     190      2       92       91       93
     191      2       92       91       94
     192      1       92       97       98
     193      2       92       97       99
     194      2       92       97      100
     195      3       93       91       94
     196      3       95       92       96
     197      2       95       92       97
     198      2       96       92       97
     199      2       97       98      101
     200      2       97       98      102
     201      1       97       98      103
     202      2       98       97       99
     203      2       98       97      100
     204      1       98      103      104
     205      2       98      103      105
     206      2       98      103      106
     207      3       99       97      100
     208      3      101       98      102
     209      2      101       98      103
     210      2      102       98      103
     211      2      103      104      107
     212      2      103      104      108
     213      1      103      104      109
     214      2      104      103      105
     215      2      104      103      106
     216      1      104      109      110
     217      2      104      109      111
     218      2      104      109      112
     219      3      105      103      106
     220      3      107      104      108
     221      2      107      104      109
     222      2      108      104      109
     223      2      109      110      113
     224      2      109      110      114
     225      1      109      110      115
     226      2      110      109      111
     227      2      110      109      112
     228      1      110      115      116
     229      2      110      115      117
     230      2      110      115      118
     231      3      111      109      112
     232      3      113      110      114
     233      2      113      110      115
     234      2      114      110      115
     235      2      115      116      119
     236      2      115      116      120
     237      1      115      116      121
     238      2      116      115      117
     239      2      116      115      118
     240      1      116      121      122
     241      2      116      121      123
     242      2      116      121      124
     243      3      117      115      118
     244      3      119      116      120
     245      2      119      116      121
     246      2      120      116      121
     247      2      121      122      125
     248      2      121      122      126
     249      1      121      122      127
     250      2      122      121      123
     251      2      122      121      124
     252      1      122      127      128
     253      2      122      127      129
     254      2      122      127      130
     255      3      123      121      124
     256      3      125      122      126
     257      2      125      122      127
     258      2      126      122      127
     259      2      127      128      131
     260      2      127      128      132
     261      1      127      128      133
     262      2      128      127      129
     263      2      128      127      130
     264      1      128      133      134
     265      2      128      133      135
     266      2      128      133      136
     267      3      129      127      130
     268      3      131      128      132
     269      2      131      128      133
     270      2      132      128      133
     271      2      133      134      137
     272      2      133      134      138
     273      1      133      134      139
     274      2      134      133      135
     275      2      134      133      136
     276      1      134      139      140
     277      2      134      139      141
     278      2      134      139      142
     279      3      135      133      136
     280      3      137      134      138
     281      2      137      134      139
     282      2      138      134      139
     283      2      139      140      143
     284      2      139      140      144
     285      1      139      140      145
     286      2      140      139      141
     287      2      140      139      142
     288      1      140      145      146
     289      2      140      145      147
     290      2      140      145      148
     291      3      141      139      142
     292      3      143      140      144
     293      2      143      140      145
     294      2      144      140      145
     295      2      145      146      149
     296      2      145      146      150
     297      1      145      146      151
     298      2      146      145      147
     299      2      146      145      148
     300      1      146      151      152
     301      2      146      151      153
     302      2      146      151      154
     303      3      147      145      148
     304      3      149      146      150
     305      2      149      146      151
     306      2      150      146      151
     307      2      151      152      155
     308      2      151      152      156
     309      1      151      152      157
     310      2      152      151      153
     311      2      152      151      154
     312      1      152      157      158
     313      2      152      157      159
     314      2      152      157      160
     315      3      153      151      154
     316      3      155      152      156
     317      2      155      152      157
     318      2      156      152      157
     319      2      157      158      161
     320      2      157      158      162
     321      1      157      158      163
     322      2      158      157      159
     323      2      158      157      160
     324      1      158      163      164
     325      2      158      163      165
     326      2      158      163      166
     327      3      159      157      160
     328      3      161      158      162
     329      2      161      158      163
     330      2      162      158      163
     331      2      163      164      167
     332      2      163      164      168
     333      1      163      164      169
     334      2      164      163      165
     335      2      164      163      166
     336      1      164      169      170
     337      2      164      169      171
     338      2      164      169      172
     339      3      165      163      166
     340      3      167      164      168
     341      2      167      164      169
     342      2      168      164      169
     343      2      169      170      173
     344      2      169      170      174
     345      1      169      170      175
     346      2      170      169      171
     347      2      170      169      172
     348      1      170      175      176
     349      2      170      175      177
     350      2      170      175      178
     351      3      171      169      172
     352      3      173      170      174
     353      2      173      170      175
     354      2      174      170      175
     355      2      175      176      179
     356      2      175      176      180
     357      1      175      176      181
     358      2      176      175      177
     359      2      176      175      178
     360      1      176      181      182
     361      2      176      181      183
     362      2      176      181      184
     363      3      177      175      178
     364      3      179      176      180
     365      2      179      176      181
     366      2      180      176      181
     367      2      181      182      185
     368      2      181      182      186
     369      1      181      182      187
     370      2      182      181      183
     371      2      182      181      184
     372      1      182      187      188
     373      2      182      187      189
     374      2      182      187      190
     375      3      183      181      184
     376      3      185      182      186
     377      2      185      182      187
     378      2      186      182      187
     379      2      187      188      191
     380      2      187      188      192
     381      1      187      188      193
     382      2      188      187      189
     383      2      188      187      190
     384      1      188      193      194
     385      2      188      193      195
     386      2      188      193      196
     387      3      189      187      190
     388      3      191      188      192
     389      2      191      188      193
     390      2      192      188      193
     391      2      193      194      197
     392      2      193      194      198
     393      1      193      194      199
     394      2      194      193      195
     395      2      194      193      196
     396      1      194      199      200
     397      2      194      199      201
     398      2      194      199      202
     399      3      195      193      196
     400      3      197      194      198
     401      2      197      194      199
     402      2      198      194      199
     403      2      199      200      203
     404      2      199      200      204
     405      1      199      200      205
     406      2      200      199      201
     407      2      200      199      202
     408      1      200      205      206
     409      2      200      205      207
     410      2      200      205      208
     411      3      201      199      202
     412      3      203      200      204
     413      2      203      200      205
     414      2      204      200      205
     415      2      205      206      209
     416      2      205      206      210
     417      1      205      206      211
     418      2      206      205      207
     419      2      206      205      208
     420      1      206      211      212
     421      2      206      211      213
     422      2      206      211      214
     423      3      207      205      208
     424      3      209      206      210
     425      2      209      206      211
     426      2      210      206      211
     427      2      211      212      215
     428      2      211      212      216
     429      1      211      212      217
     430      2      212      211      213
     431      2      212      211      214
     432      1      212      217      218
     433      2      212      217      219
     434      2      212      217      220
     435      3      213      211      214
     436      3      215      212      216
     437      2      215      212      217
     438      2      216      212      217
     439      2      217      218      221
     440      2      217      218      222
     441      1      217      218      223
     442      2      218      217      219
     443      2      218      217      220
     444      1      218      223      224
     445      2      218      223      225
     446      2      218      223      226
     447      3      219      217      220
     448      3      221      218      222
     449      2      221      218      223
     450      2      222      218      223
     451      2      223      224      227
     452      2      223      224      228
     453      1      223      224      229
     454      2      224      223      225
     455      2      224      223      226
     456      1      224      229      230
     457      2      224      229      231
     458      2      224      229      232
     459      3      225      223      226
     460      3      227      224      228
     461      2      227      224      229
     462      2      228      224      229
     463      2      229      230      233
     464      2      229      230      234
     465      1      229      230      235
     466      2      230      229      231
     467      2      230      229      232
     468      1      230      235      236
     469      2      230      235      237
     470      2      230      235      238
     471      3      231      229      232
     472      3      233      230      234
     473      2      233      230      235
     474      2      234      230      235
     475      2      235      236      239
     476      2      235      236      240
     477      1      235      236      241
     478      2      236      235      237
     479      2      236      235      238
     480      1      236      241      242
     481      2      236      241      243
     482      2      236      241      244
     483      3      237      235      238
     484      3      239      236      240
     485      2      239      236      241
     486      2      240      236      241
     487      2      241      242      245
     488      2      241      242      246
     489      1      241      242      247
     490      2      242      241      243
     491      2      242      241      244
     492      1      242      247      248
     493      2      242      247      249
     494      2      242      247      250
     495      3      243      241      244
     496      3      245      242      246
     497      2      245      242      247
     498      2      246      242      247
     499      2      247      248      251
     500      2      247      248      252
     501      1      247      248      253
     502      2      248      247      249
     503      2      248      247      250
     504      1      248      253      254
     505      2      248      253      255
     506      2      248      253      256
     507      3      249      247      250
     508      3      251      248      252
     509      2      251      248      253
     510      2      252      248      253
     511      2      253      254      257
     512      2      253      254      258
     513      1      253      254      259
     514      2      254      253      255
     515      2      254      253      256
     516      1      254      259      260
     517      2      254      259      261
     518      2      254      259      262
     519      3      255      253      256
     520      3      257      254      258
     521      2      257      254      259
     522      2      258      254      259
     523      2      259      260      263
     524      2      259      260      264
     525      1      259      260      265
     526      2      260      259      261
     527      2      260      259      262
     528      1      260      265      266
     529      2      260      265      267
     530      2      260      265      268
     531      3      261      259      262
     532      3      263      260      264
     533      2      263      260      265
     534      2      264      260      265
     535      2      265      266      269
     536      2      265      266      270
     537      1      265      266      271
     538      2      266      265      267
     539      2      266      265      268
     540      1      266      271      272
     541      2      266      271      273
     542      2      266      271      274
     543      3      267      265      268
     544      3      269      266      270
     545      2      269      266      271
     546      2      270      266      271
     547      2      271      272      275
     548      2      271      272      276
     549      1      271      272      278
     550      2      272      271      273
     551      2      272      271      274
     552      1      272      278      277
     553      2      272      278      281
     554      2      272      278      282
     555      3      273      271      274
     556      3      275      272      276
     557      2      275      272      278
     558      2      276      272      278
     559      2      277      278      281
     560      2      277      278      282
     561      2      278      277      279
     562      2      278      277      280
     563      3      279      277      280
     564      3      281      278      282

Dihedrals

       1      1        1        2      277      278
       2      2        1        2      277      279
       3      2        1        2      277      280
       4      2        1        7        8       11
       5      2        1        7        8       12
       6      1        1        7        8       13
       7      1        2        1        7        8
       8      2        2        1        7        9
       9      2        2        1        7       10
      10      1        2      277      278      272
      11      2        2      277      278      281
      12      2        2      277      278      282
      13      3        3        1        2        5
      14      3        3        1        2        6
      15      2        3        1        2      277
      16      2        3        1        7        8
      17      3        3        1        7        9
      18      3        3        1        7       10
      19      3        4        1        2        5
      20      3        4        1        2        6
      21      2        4        1        2      277
      22      2        4        1        7        8
      23      3        4        1        7        9
      24      3        4        1        7       10
      25      2        5        2        1        7
      26      2        5        2      277      278
      27      3        5        2      277      279
      28      3        5        2      277      280
      29      2        6        2        1        7
      30      2        6        2      277      278
      31      3        6        2      277      279
      32      3        6        2      277      280
      33      1        7        1        2      277
      34      1        7        8       13       14
      35      2        7        8       13       15
      36      2        7        8       13       16
      37      2        8       13       14       17
      38      2        8       13       14       18
      39      1        8       13       14       19
      40      3        9        7        8       11
      41      3        9        7        8       12
      42      2        9        7        8       13
      43      3       10        7        8       11
      44      3       10        7        8       12
      45      2       10        7        8       13
      46      2       11        8       13       14
      47      3       11        8       13       15
      48      3       11        8       13       16
      49      2       12        8       13       14
      50      3       12        8       13       15
      51      3       12        8       13       16
      52      1       13       14       19       20
      53      2       13       14       19       21
      54      2       13       14       19       22
      55      2       14       19       20       23
      56      2       14       19       20       24
      57      1       14       19       20       25
      58      3       15       13       14       17
      59      3       15       13       14       18
      60      2       15       13       14       19
      61      3       16       13       14       17
      62      3       16       13       14       18
      63      2       16       13       14       19
      64      2       17       14       19       20
      65      3       17       14       19       21
      66      3       17       14       19       22
      67      2       18       14       19       20
      68      3       18       14       19       21
      69      3       18       14       19       22
      70      1       19       20       25       26
      71      2       19       20       25       27
      72      2       19       20       25       28
      73      2       20       25       26       29
      74      2       20       25       26       30
      75      1       20       25       26       31
      76      3       21       19       20       23
      77      3       21       19       20       24
      78      2       21       19       20       25
      79      3       22       19       20       23
      80      3       22       19       20       24
      81      2       22       19       20       25
      82      2       23       20       25       26
      83      3       23       20       25       27
      84      3       23       20       25       28
      85      2       24       20       25       26
      86      3       24       20       25       27
      87      3       24       20       25       28
      88      1       25       26       31       32
      89      2       25       26       31       33
      90      2       25       26       31       34
      91      2       26       31       32       35
      92      2       26       31       32       36
      93      1       26       31       32       37
      94      3       27       25       26       29
      95      3       27       25       26       30
      96      2       27       25       26       31
      97      3       28       25       26       29
      98      3       28       25       26       30
      99      2       28       25       26       31
     100      2       29       26       31       32
     101      3       29       26       31       33
     102      3       29       26       31       34
     103      2       30       26       31       32
     104      3       30       26       31       33
     105      3       30       26       31       34
     106      1       31       32       37       38
     107      2       31       32       37       39
     108      2       31       32       37       40
     109      2       32       37       38       41
     110      2       32       37       38       42
     111      1       32       37       38       43
     112      3       33       31       32       35
     113      3       33       31       32       36
     114      2       33       31       32       37
     115      3       34       31       32       35
     116      3       34       31       32       36
     117      2       34       31       32       37
     118      2       35       32       37       38
     119      3       35       32       37       39
     120      3       35       32       37       40
     121      2       36       32       37       38
     122      3       36       32       37       39
     123      3       36       32       37       40
     124      1       37       38       43       44
     125      2       37       38       43       45
     126      2       37       38       43       46
     127      2       38       43       44       47
     128      2       38       43       44       48
     129      1       38       43       44       49
     130      3       39       37       38       41
     131      3       39       37       38       42
     132      2       39       37       38       43
     133      3       40       37       38       41
     134      3       40       37       38       42
     135      2       40       37       38       43
     136      2       41       38       43       44
     137      3       41       38       43       45
     138      3       41       38       43       46
     139      2       42       38       43       44
     140      3       42       38       43       45
     141      3       42       38       43       46
     142      1       43       44       49       50
     143      2       43       44       49       51
     144      2       43       44       49       52
     145      2       44       49       50       53
     146      2       44       49       50       54
     147      1       44       49       50       55
     148      3       45       43       44       47
     149      3       45       43       44       48
     150      2       45       43       44       49
     151      3       46       43       44       47
     152      3       46       43       44       48
     153      2       46       43       44       49
     154      2       47       44       49       50
     155      3       47       44       49       51
     156      3       47       44       49       52
     157      2       48       44       49       50
     158      3       48       44       49       51
     159      3       48       44       49       52
     160      1       49       50       55       56
     161      2       49       50       55       57
     162      2       49       50       55       58
     163      2       50       55       56       59
     164      2       50       55       56       60
     165      1       50       55       56       61
     166      3       51       49       50       53
     167      3       51       49       50       54
     168      2       51       49       50       55
     169      3       52       49       50       53
     170      3       52       49       50       54
     171      2       52       49       50       55
     172      2       53       50       55       56
     173      3       53       50       55       57
     174      3       53       50       55       58
     175      2       54       50       55       56
     176      3       54       50       55       57
     177      3       54       50       55       58
     178      1       55       56       61       62
     179      2       55       56       61       63
     180      2       55       56       61       64
     181      2       56       61       62       65
     182      2       56       61       62       66
     183      1       56       61       62       67
     184      3       57       55       56       59
     185      3       57       55       56       60
     186      2       57       55       56       61
     187      3       58       55       56       59
     188      3       58       55       56       60
     189      2       58       55       56       61
     190      2       59       56       61       62
     191      3       59       56       61       63
     192      3       59       56       61       64
     193      2       60       56       61       62
     194      3       60       56       61       63
     195      3       60       56       61       64
     196      1       61       62       67       68
     197      2       61       62       67       69
     198      2       61       62       67       70
     199      2       62       67       68       71
     200      2       62       67       68       72
     201      1       62       67       68       73
     202      3       63       61       62       65
     203      3       63       61       62       66
     204      2       63       61       62       67
     205      3       64       61       62       65
     206      3       64       61       62       66
     207      2       64       61       62       67
     208      2       65       62       67       68
     209      3       65       62       67       69
     210      3       65       62       67       70
     211      2       66       62       67       68
     212      3       66       62       67       69
     213      3       66       62       67       70
     214      1       67       68       73       74
     215      2       67       68       73       75
     216      2       67       68       73       76
     217      2       68       73       74       77
     218      2       68       73       74       78
     219      1       68       73       74       79
     220      3       69       67       68       71
     221      3       69       67       68       72
     222      2       69       67       68       73
     223      3       70       67       68       71
     224      3       70       67       68       72
     225      2       70       67       68       73
     226      2       71       68       73       74
     227      3       71       68       73       75
     228      3       71       68       73       76
     229      2       72       68       73       74
     230      3       72       68       73       75
     231      3       72       68       73       76
     232      1       73       74       79       80
     233      2       73       74       79       81
     234      2       73       74       79       82
     235      2       74       79       80       83
     236      2       74       79       80       84
     237      1       74       79       80       85
     238      3       75       73       74       77
     239      3       75       73       74       78
     240      2       75       73       74       79
     241      3       76       73       74       77
     242      3       76       73       74       78
     243      2       76       73       74       79
     244      2       77       74       79       80
     245      3       77       74       79       81
     246      3       77       74       79       82
     247      2       78       74       79       80
     248      3       78       74       79       81
     249      3       78       74       79       82
     250      1       79       80       85       86
     251      2       79       80       85       87
     252      2       79       80       85       88
     253      2       80       85       86       89
     254      2       80       85       86       90
     255      1       80       85       86       91
     256      3       81       79       80       83
     257      3       81       79       80       84
     258      2       81       79       80       85
     259      3       82       79       80       83
     260      3       82       79       80       84
     261      2       82       79       80       85
     262      2       83       80       85       86
     263      3       83       80       85       87
     264      3       83       80       85       88
     265      2       84       80       85       86
     266      3       84       80       85       87
     267      3       84       80       85       88
     268      1       85       86       91       92
     269      2       85       86       91       93
     270      2       85       86       91       94
     271      2       86       91       92       95
     272      2       86       91       92       96
     273      1       86       91       92       97
     274      3       87       85       86       89
     275      3       87       85       86       90
     276      2       87       85       86       91
     277      3       88       85       86       89
     278      3       88       85       86       90
     279      2       88       85       86       91
     280      2       89       86       91       92
     281      3       89       86       91       93
     282      3       89       86       91       94
     283      2       90       86       91       92
     284      3       90       86       91       93
     285      3       90       86       91       94
     286      1       91       92       97       98
     287      2       91       92       97       99
     288      2       91       92       97      100
     289      2       92       97       98      101
     290      2       92       97       98      102
     291      1       92       97       98      103
     292      3       93       91       92       95
     293      3       93       91       92       96
     294      2       93       91       92       97
     295      3       94       91       92       95
     296      3       94       91       92       96
     297      2       94       91       92       97
     298      2       95       92       97       98
     299      3       95       92       97       99
     300      3       95       92       97      100
     301      2       96       92       97       98
     302      3       96       92       97       99
     303      3       96       92       97      100
     304      1       97       98      103      104
     305      2       97       98      103      105
     306      2       97       98      103      106
     307      2       98      103      104      107
     308      2       98      103      104      108
     309      1       98      103      104      109
     310      3       99       97       98      101
     311      3       99       97       98      102
     312      2       99       97       98      103
     313      3      100       97       98      101
     314      3      100       97       98      102
     315      2      100       97       98      103
     316      2      101       98      103      104
     317      3      101       98      103      105
     318      3      101       98      103      106
     319      2      102       98      103      104
     320      3      102       98      103      105
     321      3      102       98      103      106
     322      1      103      104      109      110
     323      2      103      104      109      111
     324      2      103      104      109      112
     325      2      104      109      110      113
     326      2      104      109      110      114
     327      1      104      109      110      115
     328      3      105      103      104      107
     329      3      105      103      104      108
     330      2      105      103      104      109
     331      3      106      103      104      107
     332      3      106      103      104      108
     333      2      106      103      104      109
     334      2      107      104      109      110
     335      3      107      104      109      111
     336      3      107      104      109      112
     337      2      108      104      109      110
     338      3      108      104      109      111
     339      3      108      104      109      112
     340      1      109      110      115      116
     341      2      109      110      115      117
     342      2      109      110      115      118
     343      2      110      115      116      119
     344      2      110      115      116      120
     345      1      110      115      116      121
     346      3      111      109      110      113
     347      3      111      109      110      114
     348      2      111      109      110      115
     349      3      112      109      110      113
     350      3      112      109      110      114
     351      2      112      109      110      115
     352      2      113      110      115      116
     353      3      113      110      115      117
     354      3      113      110      115      118
     355      2      114      110      115      116
     356      3      114      110      115      117
     357      3      114      110      115      118
     358      1      115      116      121      122
     359      2      115      116      121      123
     360      2      115      116      121      124
     361      2      116      121      122      125
     362      2      116      121      122      126
     363      1      116      121      122      127
     364      3      117      115      116      119
     365      3      117      115      116      120
     366      2      117      115      116      121
     367      3      118      115      116      119
     368      3      118      115      116      120
     369      2      118      115      116      121
     370      2      119      116      121      122
     371      3      119      116      121      123
     372      3      119      116      121      124
     373      2      120      116      121      122
     374      3      120      116      121      123
     375      3      120      116      121      124
     376      1      121      122      127      128
     377      2      121      122      127      129
     378      2      121      122      127      130
     379      2      122      127      128      131
     380      2      122      127      128      132
     381      1      122      127      128      133
     382      3      123      121      122      125
     383      3      123      121      122      126
     384      2      123      121      122      127
     385      3      124      121      122      125
     386      3      124      121      122      126
     387      2      124      121      122      127
     388      2      125      122      127      128
     389      3      125      122      127      129
     390      3      125      122      127      130
     391      2      126      122      127      128
     392      3      126      122      127      129
     393      3      126      122      127      130
     394      1      127      128      133      134
     395      2      127      128      133      135
     396      2      127      128      133      136
     397      2      128      133      134      137
     398      2      128      133      134      138
     399      1      128      133      134      139
     400      3      129      127      128      131
     401      3      129      127      128      132
     402      2      129      127      128      133
     403      3      130      127      128      131
     404      3      130      127      128      132
     405      2      130      127      128      133
     406      2      131      128      133      134
     407      3      131      128      133      135
     408      3      131      128      133      136
     409      2      132      128      133      134
     410      3      132      128      133      135
     411      3      132      128      133      136
     412      1      133      134      139      140
     413      2      133      134      139      141
     414      2      133      134      139      142
     415      2      134      139      140      143
     416      2      134      139      140      144
     417      1      134      139      140      145
     418      3      135      133      134      137
     419      3      135      133      134      138
     420      2      135      133      134      139
     421      3      136      133      134      137
     422      3      136      133      134      138
     423      2      136      133      134      139
     424      2      137      134      139      140
     425      3      137      134      139      141
     426      3      137      134      139      142
     427      2      138      134      139      140
     428      3      138      134      139      141
     429      3      138      134      139      142
     430      1      139      140      145      146
     431      2      139      140      145      147
     432      2      139      140      145      148
     433      2      140      145      146      149
     434      2      140      145      146      150
     435      1      140      145      146      151
     436      3      141      139      140      143
     437      3      141      139      140      144
     438      2      141      139      140      145
     439      3      142      139      140      143
     440      3      142      139      140      144
     441      2      142      139      140      145
     442      2      143      140      145      146
     443      3      143      140      145      147
     444      3      143      140      145      148
     445      2      144      140      145      146
     446      3      144      140      145      147
     447      3      144      140      145      148
     448      1      145      146      151      152
     449      2      145      146      151      153
     450      2      145      146      151      154
     451      2      146      151      152      155
     452      2      146      151      152      156
     453      1      146      151      152      157
     454      3      147      145      146      149
     455      3      147      145      146      150
     456      2      147      145      146      151
     457      3      148      145      146      149
     458      3      148      145      146      150
     459      2      148      145      146      151
     460      2      149      146      151      152
     461      3      149      146      151      153
     462      3      149      146      151      154
     463      2      150      146      151      152
     464      3      150      146      151      153
     465      3      150      146      151      154
     466      1      151      152      157      158
     467      2      151      152      157      159
     468      2      151      152      157      160
     469      2      152      157      158      161
     470      2      152      157      158      162
     471      1      152      157      158      163
     472      3      153      151      152      155
     473      3      153      151      152      156
     474      2      153      151      152      157
     475      3      154      151      152      155
     476      3      154      151      152      156
     477      2      154      151      152      157
     478      2      155      152      157      158
     479      3      155      152      157      159
     480      3      155      152      157      160
     481      2      156      152      157      158
     482      3      156      152      157      159
     483      3      156      152      157      160
     484      1      157      158      163      164
     485      2      157      158      163      165
     486      2      157      158      163      166
     487      2      158      163      164      167
     488      2      158      163      164      168
     489      1      158      163      164      169
     490      3      159      157      158      161
     491      3      159      157      158      162
     492      2      159      157      158      163
     493      3      160      157      158      161
     494      3      160      157      158      162
     495      2      160      157      158      163
     496      2      161      158      163      164
     497      3      161      158      163      165
     498      3      161      158      163      166
     499      2      162      158      163      164
     500      3      162      158      163      165
     501      3      162      158      163      166
     502      1      163      164      169      170
     503      2      163      164      169      171
     504      2      163      164      169      172
     505      2      164      169      170      173
     506      2      164      169      170      174
     507      1      164      169      170      175
     508      3      165      163      164      167
     509      3      165      163      164      168
     510      2      165      163      164      169
     511      3      166      163      164      167
     512      3      166      163      164      168
     513      2      166      163      164      169
     514      2      167      164      169      170
     515      3      167      164      169      171
     516      3      167      164      169      172
     517      2      168      164      169      170
     518      3      168      164      169      171
     519      3      168      164      169      172
     520      1      169      170      175      176
     521      2      169      170      175      177
     522      2      169      170      175      178
     523      2      170      175      176      179
     524      2      170      175      176      180
     525      1      170      175      176      181
     526      3      171      169      170      173
     527      3      171      169      170      174
     528      2      171      169      170      175
     529      3      172      169      170      173
     530      3      172      169      170      174
     531      2      172      169      170      175
     532      2      173      170      175      176
     533      3      173      170      175      177
     534      3      173      170      175      178
     535      2      174      170      175      176
     536      3      174      170      175      177
     537      3      174      170      175      178
     538      1      175      176      181      182
     539      2      175      176      181      183
     540      2      175      176      181      184
     541      2      176      181      182      185
     542      2      176      181      182      186
     543      1      176      181      182      187
     544      3      177      175      176      179
     545      3      177      175      176      180
     546      2      177      175      176      181
     547      3      178      175      176      179
     548      3      178      175      176      180
     549      2      178      175      176      181
     550      2      179      176      181      182
     551      3      179      176      181      183
     552      3      179      176      181      184
     553      2      180      176      181      182
     554      3      180      176      181      183
     555      3      180      176      181      184
     556      1      181      182      187      188
     557      2      181      182      187      189
     558      2      181      182      187      190
     559      2      182      187      188      191
     560      2      182      187      188      192
     561      1      182      187      188      193
     562      3      183      181      182      185
     563      3      183      181      182      186
     564      2      183      181      182      187
     565      3      184      181      182      185
     566      3      184      181      182      186
     567      2      184      181      182      187
     568      2      185      182      187      188
     569      3      185      182      187      189
     570      3      185      182      187      190
     571      2      186      182      187      188
     572      3      186      182      187      189
     573      3      186      182      187      190
     574      1      187      188      193      194
     575      2      187      188      193      195
     576      2      187      188      193      196
     577      2      188      193      194      197
     578      2      188      193      194      198
     579      1      188      193      194      199
     580      3      189      187      188      191
     581      3      189      187      188      192
     582      2      189      187      188      193
     583      3      190      187      188      191
     584      3      190      187      188      192
     585      2      190      187      188      193
     586      2      191      188      193      194
     587      3      191      188      193      195
     588      3      191      188      193      196
     589      2      192      188      193      194
     590      3      192      188      193      195
     591      3      192      188      193      196
     592      1      193      194      199      200
     593      2      193      194      199      201
     594      2      193      194      199      202
     595      2      194      199      200      203
     596      2      194      199      200      204
     597      1      194      199      200      205
     598      3      195      193      194      197
     599      3      195      193      194      198
     600      2      195      193      194      199
     601      3      196      193      194      197
     602      3      196      193      194      198
     603      2      196      193      194      199
     604      2      197      194      199      200
     605      3      197      194      199      201
     606      3      197      194      199      202
     607      2      198      194      199      200
     608      3      198      194      199      201
     609      3      198      194      199      202
     610      1      199      200      205      206
     611      2      199      200      205      207
     612      2      199      200      205      208
     613      2      200      205      206      209
     614      2      200      205      206      210
     615      1      200      205      206      211
     616      3      201      199      200      203
     617      3      201      199      200      204
     618      2      201      199      200      205
     619      3      202      199      200      203
     620      3      202      199      200      204
     621      2      202      199      200      205
     622      2      203      200      205      206
     623      3      203      200      205      207
     624      3      203      200      205      208
     625      2      204      200      205      206
     626      3      204      200      205      207
     627      3      204      200      205      208
     628      1      205      206      211      212
     629      2      205      206      211      213
     630      2      205      206      211      214
     631      2      206      211      212      215
     632      2      206      211      212      216
     633      1      206      211      212      217
     634      3      207      205      206      209
     635      3      207      205      206      210
     636      2      207      205      206      211
     637      3      208      205      206      209
     638      3      208      205      206      210
     639      2      208      205      206      211
     640      2      209      206      211      212
     641      3      209      206      211      213
     642      3      209      206      211      214
     643      2      210      206      211      212
     644      3      210      206      211      213
     645      3      210      206      211      214
     646      1      211      212      217      218
     647      2      211      212      217      219
     648      2      211      212      217      220
     649      2      212      217      218      221
     650      2      212      217      218      222
     651      1      212      217      218      223
     652      3      213      211      212      215
     653      3      213      211      212      216
     654      2      213      211      212      217
     655      3      214      211      212      215
     656      3      214      211      212      216
     657      2      214      211      212      217
     658      2      215      212      217      218
     659      3      215      212      217      219
     660      3      215      212      217      220
     661      2      216      212      217      218
     662      3      216      212      217      219
     663      3      216      212      217      220
     664      1      217      218      223      224
     665      2      217      218      223      225
     666      2      217      218      223      226
     667      2      218      223      224      227
     668      2      218      223      224      228
     669      1      218      223      224      229
     670      3      219      217      218      221
     671      3      219      217      218      222
     672      2      219      217      218      223
     673      3      220      217      218      221
     674      3      220      217      218      222
     675      2      220      217      218      223
     676      2      221      218      223      224
     677      3      221      218      223      225
     678      3      221      218      223      226
     679      2      222      218      223      224
     680      3      222      218      223      225
     681      3      222      218      223      226
     682      1      223      224      229      230
     683      2      223      224      229      231
     684      2      223      224      229      232
     685      2      224      229      230      233
     686      2      224      229      230      234
     687      1      224      229      230      235
     688      3      225      223      224      227
     689      3      225      223      224      228
     690      2      225      223      224      229
     691      3      226      223      224      227
     692      3      226      223      224      228
     693      2      226      223      224      229
     694      2      227      224      229      230
     695      3      227      224      229      231
     696      3      227      224      229      232
     697      2      228      224      229      230
     698      3      228      224      229      231
     699      3      228      224      229      232
     700      1      229      230      235      236
     701      2      229      230      235      237
     702      2      229      230      235      238
     703      2      230      235      236      239
     704      2      230      235      236      240
     705      1      230      235      236      241
     706      3      231      229      230      233
     707      3      231      229      230      234
     708      2      231      229      230      235
     709      3      232      229      230      233
     710      3      232      229      230      234
     711      2      232      229      230      235
     712      2      233      230      235      236
     713      3      233      230      235      237
     714      3      233      230      235      238
     715      2      234      230      235      236
     716      3      234      230      235      237
     717      3      234      230      235      238
     718      1      235      236      241      242
     719      2      235      236      241      243
     720      2      235      236      241      244
     721      2      236      241      242      245
     722      2      236      241      242      246
     723      1      236      241      242      247
     724      3      237      235      236      239
     725      3      237      235      236      240
     726      2      237      235      236      241
     727      3      238      235      236      239
     728      3      238      235      236      240
     729      2      238      235      236      241
     730      2      239      236      241      242
     731      3      239      236      241      243
     732      3      239      236      241      244
     733      2      240      236      241      242
     734      3      240      236      241      243
     735      3      240      236      241      244
     736      1      241      242      247      248
     737      2      241      242      247      249
     738      2      241      242      247      250
     739      2      242      247      248      251
     740      2      242      247      248      252
     741      1      242      247      248      253
     742      3      243      241      242      245
     743      3      243      241      242      246
     744      2      243      241      242      247
     745      3      244      241      242      245
     746      3      244      241      242      246
     747      2      244      241      242      247
     748      2      245      242      247      248
     749      3      245      242      247      249
     750      3      245      242      247      250
     751      2      246      242      247      248
     752      3      246      242      247      249
     753      3      246      242      247      250
     754      1      247      248      253      254
     755      2      247      248      253      255
     756      2      247      248      253      256
     757      2      248      253      254      257
     758      2      248      253      254      258
     759      1      248      253      254      259
     760      3      249      247      248      251
     761      3      249      247      248      252
     762      2      249      247      248      253
     763      3      250      247      248      251
     764      3      250      247      248      252
     765      2      250      247      248      253
     766      2      251      248      253      254
     767      3      251      248      253      255
     768      3      251      248      253      256
     769      2      252      248      253      254
     770      3      252      248      253      255
     771      3      252      248      253      256
     772      1      253      254      259      260
     773      2      253      254      259      261
     774      2      253      254      259      262
     775      2      254      259      260      263
     776      2      254      259      260      264
     777      1      254      259      260      265
     778      3      255      253      254      257
     779      3      255      253      254      258
     780      2      255      253      254      259
     781      3      256      253      254      257
     782      3      256      253      254      258
     783      2      256      253      254      259
     784      2      257      254      259      260
     785      3      257      254      259      261
     786      3      257      254      259      262
     787      2      258      254      259      260
     788      3      258      254      259      261
     789      3      258      254      259      262
     790      1      259      260      265      266
     791      2      259      260      265      267
     792      2      259      260      265      268
     793      2      260      265      266      269
     794      2      260      265      266      270
     795      1      260      265      266      271
     796      3      261      259      260      263
     797      3      261      259      260      264
     798      2      261      259      260      265
     799      3      262      259      260      263
     800      3      262      259      260      264
     801      2      262      259      260      265
     802      2      263      260      265      266
     803      3      263      260      265      267
     804      3      263      260      265      268
     805      2      264      260      265      266
     806      3      264      260      265      267
     807      3      264      260      265      268
     808      1      265      266      271      272
     809      2      265      266      271      273
     810      2      265      266      271      274
     811      2      266      271      272      275
     812      2      266      271      272      276
     813      1      266      271      272      278
     814      3      267      265      266      269
     815      3      267      265      266      270
     816      2      267      265      266      271
     817      3      268      265      266      269
     818      3      268      265      266      270
     819      2      268      265      266      271
     820      2      269      266      271      272
     821      3      269      266      271      273
     822      3      269      266      271      274
     823      2      270      266      271      272
     824      3      270      266      271      273
     825      3      270      266      271      274
     826      1      271      272      278      277
     827      2      271      272      278      281
     828      2      271      272      278      282
     829      2      272      278      277      279
     830      2      272      278      277      280
     831      3      273      271      272      275
     832      3      273      271      272      276
     833      2      273      271      272      278
     834      3      274      271      272      275
     835      3      274      271      272      276
     836      2      274      271      272      278
     837      2      275      272      278      277
     838      3      275      272      278      281
     839      3      275      272      278      282
     840      2      276      272      278      277
     841      3      276      272      278      281
     842      3      276      272      278      282
     843      3      279      277      278      281
     844      3      279      277      278      282
     845      3      280      277      278      281
     846      3      280      277      278      282

Impropers


