LAMMPS data file generated by clean-room 1-hop pipeline

     261 atoms
     267 bonds
     504 angles
     760 dihedrals
      42 impropers

      10 atom types
      18 bond types
      41 angle types
      64 dihedral types
       5 improper types

  -33.173200    37.756700 xlo xhi
  -30.046700    29.442500 ylo yhi
  -33.352100    31.484000 zlo zhi

Masses

       1    12.011000
       2    12.011000
       3    12.011000
       4    12.011000
       5    12.011000
       6    12.011000
       7    12.011000
       8    12.011000
       9     1.008000
      10     1.008000

Pair Coeffs

       1     0.070000     3.550000
       2     0.070000     3.550000
       3     0.070000     3.550000
       4     0.066000     3.500000
       5     0.066000     3.500000
       6     0.066000     3.500000
       7     0.066000     3.500000
       8     0.066000     3.500000
       9     0.030000     2.420000
      10     0.030000     2.500000

Bond Coeffs

       1   469.000000     1.400000
       2   317.000000     1.510000
       3   469.000000     1.400000
       4   469.000000     1.400000
       5   367.000000     1.080000
       6   385.000000     1.460000
       7   268.000000     1.529000
       8   268.000000     1.529000
       9   268.000000     1.529000
      10   268.000000     1.529000
      11   340.000000     1.090000
      12   268.000000     1.529000
      13   340.000000     1.090000
      14   268.000000     1.529000
      15   268.000000     1.529000
      16   268.000000     1.529000
      17   340.000000     1.090000
      18   340.000000     1.090000

Angle Coeffs

       1    63.000000   120.000000
       2    35.000000   120.000000
       3    63.000000   114.000000
       4    63.000000   114.000000
       5    63.000000   114.000000
       6    63.000000   114.000000
       7    35.000000   109.500000
       8    63.000000   120.000000
       9    70.000000   120.000000
      10    63.000000   120.000000
      11    63.000000   120.000000
      12    35.000000   120.000000
      13    63.000000   120.000000
      14    63.000000   120.000000
      15    35.000000   120.000000
      16    37.500000   110.700000
      17    58.350000   112.700000
      18    37.500000   110.700000
      19    58.350000   112.700000
      20    37.500000   110.700000
      21    58.350000   112.700000
      22    58.350000   112.700000
      23    37.500000   110.700000
      24    58.350000   112.700000
      25    37.500000   110.700000
      26    37.500000   110.700000
      27    37.500000   110.700000
      28    58.350000   112.700000
      29    58.350000   112.700000
      30    58.350000   112.700000
      31    37.500000   110.700000
      32    58.350000   112.700000
      33    37.500000   110.700000
      34    58.350000   112.700000
      35    37.500000   110.700000
      36    37.500000   110.700000
      37    37.500000   110.700000
      38    37.500000   110.700000
      39    33.000000   107.800000
      40    33.000000   107.800000
      41    33.000000   107.800000

Dihedral Coeffs

       1     0.000000     7.250000     0.000000     0.000000
       2     0.000000     7.250000     0.000000     0.000000
       3     0.000000     7.250000     0.000000     0.000000
       4     0.000000     7.250000     0.000000     0.000000
       5     0.000000     0.000000     0.462000     0.000000
       6     0.000000     0.000000     0.000000     0.000000
       7     0.000000     0.000000     0.462000     0.000000
       8     0.000000     0.000000     0.000000     0.000000
       9     0.000000     0.000000     0.462000     0.000000
      10     0.000000     0.000000     0.000000     0.000000
      11     0.000000     0.000000     0.000000     0.000000
      12     0.000000     7.250000     0.000000     0.000000
      13     0.000000     7.250000     0.000000     0.000000
      14    -0.250000     0.000000     0.000000     0.000000
      15    -0.250000     0.000000     0.000000     0.000000
      16    -0.250000     0.000000     0.000000     0.000000
      17    -0.250000     0.000000     0.000000     0.000000
      18     0.000000     0.000000     0.000000     0.000000
      19     0.000000     7.250000     0.000000     0.000000
      20     0.000000     7.250000     0.000000     0.000000
      21     0.000000     7.250000     0.000000     0.000000
      22     0.000000     7.250000     0.000000     0.000000
      23     0.000000     7.250000     0.000000     0.000000
      24     0.000000     7.250000     0.000000     0.000000
      25     0.000000     7.250000     0.000000     0.000000
      26     0.000000     1.650000     0.000000    -0.050000
      27     0.000000     7.250000     0.000000     0.000000
      28     0.000000     7.250000     0.000000     0.000000
      29     0.000000     7.250000     0.000000     0.000000
      30     0.850000    -0.200000     0.200000     0.000000
      31     0.850000    -0.200000     0.200000     0.000000
      32     0.000000     0.000000     0.300000     0.000000
      33     0.850000    -0.200000     0.200000     0.000000
      34     0.000000     0.000000     0.300000     0.000000
      35     0.000000     0.000000     0.300000     0.000000
      36     0.850000    -0.200000     0.200000     0.000000
      37     0.000000     0.000000     0.300000     0.000000
      38     0.850000    -0.200000     0.200000     0.000000
      39     0.850000    -0.200000     0.200000     0.000000
      40     0.850000    -0.200000     0.200000     0.000000
      41     0.000000     0.000000     0.300000     0.000000
      42     0.000000     0.000000     0.300000     0.000000
      43     0.000000     0.000000     0.300000     0.000000
      44     0.850000    -0.200000     0.200000     0.000000
      45     0.850000    -0.200000     0.200000     0.000000
      46     0.000000     0.000000     0.300000     0.000000
      47     0.850000    -0.200000     0.200000     0.000000
      48     0.000000     0.000000     0.300000     0.000000
      49     0.850000    -0.200000     0.200000     0.000000
      50     0.000000     0.000000     0.300000     0.000000
      51     0.000000     0.000000     0.300000     0.000000
      52     0.000000     0.000000     0.300000     0.000000
      53     0.000000     0.000000     0.300000     0.000000
      54     0.850000    -0.200000     0.200000     0.000000
      55     0.000000     0.000000     0.300000     0.000000
      56     0.850000    -0.200000     0.200000     0.000000
      57     0.000000     0.000000     0.300000     0.000000
      58     0.000000     7.250000     0.000000     0.000000
      59     0.000000     0.000000     0.300000     0.000000
      60     0.000000     0.000000     0.300000     0.000000
      61     0.000000     0.000000     0.300000     0.000000
      62     0.000000     0.000000     0.300000     0.000000
      63     0.000000     0.000000     0.300000     0.000000
      64     0.000000     0.000000     0.300000     0.000000

Improper Coeffs

       1     2.500000   -1    2
       2     2.500000   -1    2
       3     2.500000   -1    2
       4     2.500000   -1    2
       5     2.500000   -1    2

Atoms

       1    1      5  -0.26389220    -3.746600    -9.337200     4.808600
       2    1      4  -0.14484341    -4.523700    -8.042100     5.102500
       3    1     10   0.09796876    -4.176000    -9.836400     3.878200
       4    1     10   0.09796876    -2.649700    -9.082800     4.632200
       5    1     10   0.09796876    -3.834100   -10.046700     5.696600
       6    1     10   0.09796876    -4.087500    -7.548600     6.033200
       7    1     10   0.09796876    -5.623300    -8.282400     5.285200
       8    1      5  -0.26389220    10.678500     0.714500    -8.895300
       9    1      6  -0.19324083     9.213400     0.427300    -9.256900
      10    1     10   0.09796876    11.329400     0.583400    -9.821900
      11    1     10   0.09796876    10.773200     1.787100    -8.521600
      12    1     10   0.09796876    11.021200    -0.011200    -8.085800
      13    1     10   0.09796876     9.146600    -0.634600    -9.666100
      14    1     10   0.09796876     8.892100     1.137800   -10.087200
      15    1      5  -0.26389220    12.952700     3.799400   -11.741800
      16    1      6  -0.19324083    11.586100     4.472200   -11.513700
      17    1     10   0.09796876    13.477100     4.291800   -12.626200
      18    1     10   0.09796876    13.593500     3.918700   -10.805800
      19    1     10   0.09796876    12.800300     2.690700   -11.958800
      20    1     10   0.09796876    10.945000     4.351100   -12.447600
      21    1     10   0.09796876    11.747600     5.579300   -11.307800
      22    1      5  -0.26389220     9.686900     5.884000   -12.681200
      23    1      6  -0.19324083     8.438000     5.698900   -11.801500
      24    1     10   0.09796876     9.851400     4.956900   -13.323800
      25    1     10   0.09796876     9.542900     6.794300   -13.352100
      26    1     10   0.09796876    10.592200     6.063800   -12.014800
      27    1     10   0.09796876     8.318900     6.623600   -11.147200
      28    1     10   0.09796876     7.533000     5.622100   -12.490500
      29    1      5  -0.26389220    -3.602200    -2.962000     8.405600
      30    1      6  -0.19324083    -3.067900    -3.920600     7.324300
      31    1     10   0.09796876    -2.924000    -2.058400     8.534700
      32    1     10   0.09796876    -4.648500    -2.614800     8.115800
      33    1     10   0.09796876    -3.654400    -3.520700     9.397800
      34    1     10   0.09796876    -3.773100    -4.816000     7.295100
      35    1     10   0.09796876    -2.022100    -4.281900     7.598600
      36    1      5  -0.26389220     1.276600     3.056800     8.351500
      37    1      6  -0.19324083     0.316200     1.864700     8.190700
      38    1     10   0.09796876     1.394000     3.588100     7.349800
      39    1     10   0.09796876     0.848200     3.781600     9.120200
      40    1     10   0.09796876     2.293200     2.681200     8.705900
      41    1     10   0.09796876     0.194500     1.337500     9.194300
      42    1     10   0.09796876     0.735100     1.131000     7.425200
      43    1      5  -0.26389220    -1.793500     2.329100    10.554800
      44    1      6  -0.19324083    -2.582600     1.073200    10.140000
      45    1     10   0.09796876    -1.817000     3.100100     9.718700
      46    1     10   0.09796876    -2.274400     2.781600    11.484000
      47    1     10   0.09796876    -0.714300     2.043000    10.785400
      48    1     10   0.09796876    -2.589300     0.356500    11.026500
      49    1     10   0.09796876    -3.656000     1.362100     9.886700
      50    1      5  -0.26389220    -2.529000     2.166200     3.173700
      51    1      6  -0.19324083    -2.969400     3.418100     3.954100
      52    1     10   0.09796876    -3.148400     1.282200     3.536600
      53    1     10   0.09796876    -2.699700     2.321000     2.057400
      54    1     10   0.09796876    -1.425800     1.954000     3.366900
      55    1     10   0.09796876    -4.075400     3.617100     3.762200
      56    1     10   0.09796876    -2.355300     4.323900     3.634300
      57    1      5  -0.26389220   -10.206900    -2.494900    -1.111700
      58    1      6  -0.19324083    -9.427800    -2.609800     0.210400
      59    1     10   0.09796876    -9.605600    -2.981100    -1.949000
      60    1     10   0.09796876   -10.382600    -1.395700    -1.356700
      61    1     10   0.09796876   -11.210400    -3.025500    -1.006600
      62    1     10   0.09796876   -10.033800    -2.126100     1.046300
      63    1     10   0.09796876    -9.253600    -3.709300     0.456300
      64    1      5  -0.26389220    -7.183700     1.126100     8.845600
      65    1      6  -0.19324083    -8.115000     0.743100     7.680100
      66    1     10   0.09796876    -6.318200     1.754800     8.450900
      67    1     10   0.09796876    -7.767600     1.726400     9.619500
      68    1     10   0.09796876    -6.775200     0.178100     9.329400
      69    1     10   0.09796876    -8.979700     0.116800     8.079000
      70    1     10   0.09796876    -8.524000     1.689200     7.193500
      71    1      1  -0.09236633    -4.401300    -7.067800     3.912200
      72    1      2  -0.15235397    -5.639200    -6.732200     3.056800
      73    1      2  -0.15235397    -5.551700    -5.649000     1.962900
      74    1      1  -0.09236633    -4.225200    -4.907600     1.714700
      75    1      2  -0.15235397    -2.971000    -5.301200     2.520800
      76    1      2  -0.15235397    -3.065300    -6.357800     3.636100
      77    1      9   0.16302121    -6.628000    -7.265400     3.252500
      78    1      9   0.16302121    -6.474700    -5.387400     1.347400
      79    1      9   0.16302121    -1.971100    -4.802100     2.300800
      80    1      9   0.16302121    -2.146800    -6.609200     4.263100
      81    1      1  -0.09236633     3.713800     1.228300    -3.146900
      82    1      2  -0.15235397     5.205600     1.032100    -2.807900
      83    1      2  -0.15235397     6.282300     1.276700    -3.888700
      84    1      1  -0.09236633     5.864300     1.707200    -5.308300
      85    1      2  -0.15235397     4.418100     2.191400    -5.541700
      86    1      2  -0.15235397     3.337900     1.936100    -4.465600
      87    1      9   0.16302121     5.506600     0.615600    -1.790400
      88    1      9   0.16302121     7.374500     1.037300    -3.666500
      89    1      9   0.16302121     4.121400     2.633000    -6.550100
      90    1      9   0.16302121     2.248500     2.193800    -4.681500
      91    1      1  -0.09236633    10.478800     2.411200    -6.479200
      92    1      2  -0.15235397    11.611500     1.385100    -6.660700
      93    1      2  -0.15235397    12.939800     1.818800    -7.310000
      94    1      3  -0.04409133    13.157100     3.291300    -7.709500
      95    1      2  -0.15235397    12.103000     4.348600    -7.331400
      96    1      2  -0.15235397    10.770700     3.910900    -6.692600
      97    1      9   0.16302121    11.442000     0.293300    -6.380700
      98    1      9   0.16302121    13.750900     1.045900    -7.520200
      99    1      9   0.16302121    12.291800     5.448800    -7.561600
     100    1      9   0.16302121     9.977100     4.688500    -6.437000
     101    1      4  -0.14484341    -4.142300    -3.803500     0.637400
     102    1      6  -0.19324083    -2.654500    -3.459400     0.433800
     103    1     10   0.09796876    -4.583200    -4.195400    -0.338300
     104    1     10   0.09796876    -4.711000    -2.878000     0.979300
     105    1     10   0.09796876    -2.139300    -4.448300     0.195000
     106    1     10   0.09796876    -2.473000    -2.717300    -0.412400
     107    1      6  -0.19324083    -0.078600     0.171300     0.473200
     108    1      6  -0.19324083     0.903000    -0.073000    -0.702300
     109    1     10   0.09796876     0.493800     0.480600     1.409300
     110    1     10   0.09796876    -0.842700     0.972000     0.199300
     111    1     10   0.09796876     0.284000    -0.421200    -1.594300
     112    1     10   0.09796876     1.590100    -0.927200    -0.389500
     113    1      6  -0.19324083     1.818300     1.077100    -1.196300
     114    1      4  -0.14484341     2.635100     0.447700    -2.350000
     115    1     10   0.09796876     2.509500     1.423600    -0.358300
     116    1     10   0.09796876     1.196200     1.951700    -1.580000
     117    1     10   0.09796876     1.878500     0.073100    -3.116100
     118    1     10   0.09796876     3.161900    -0.464000    -1.913200
     119    1      6  -0.19324083    -3.585300     1.880500     5.798800
     120    1      6  -0.19324083    -2.751800     3.126400     5.449000
     121    1     10   0.09796876    -4.684800     2.096700     5.589200
     122    1     10   0.09796876    -3.241900     1.020100     5.133300
     123    1     10   0.09796876    -3.086900     4.013800     6.081400
     124    1     10   0.09796876    -1.646800     2.914600     5.619300
     125    1      6  -0.19324083    -7.362200    -2.006600     1.456200
     126    1      6  -0.19324083    -8.068400    -1.891800     0.094500
     127    1     10   0.09796876    -7.185300    -3.105700     1.699200
     128    1     10   0.09796876    -8.051700    -1.550200     2.238300
     129    1     10   0.09796876    -8.242200    -0.792100    -0.150300
     130    1     10   0.09796876    -7.434700    -2.374000    -0.721400
     131    1      8  -0.05351367    -1.826600    -1.389000     1.818900
     132    1      6  -0.19324083    -2.090700    -2.907500     1.755900
     133    1      6  -0.19324083    -0.773100    -1.193500     0.699200
     134    1      6  -0.19324083    -1.256700    -1.159100     3.240100
     135    1      6  -0.19324083    -3.031000    -0.448800     1.563000
     136    1     10   0.09796876    -1.072700    -3.394800     1.917600
     137    1     10   0.09796876    -2.792800    -3.249800     2.583100
     138    1     10   0.09796876     0.058000    -1.946300     0.903900
     139    1     10   0.09796876    -1.278000    -1.483100    -0.281300
     140    1     10   0.09796876    -0.249700    -1.686400     3.327200
     141    1     10   0.09796876    -1.147400    -0.052900     3.494600
     142    1     10   0.09796876    -2.543900     0.579500     1.486300
     143    1     10   0.09796876    -3.513100    -0.683700     0.556800
     144    1      8  -0.05351367     8.014700     1.784300    -7.172700
     145    1      4  -0.14484341     6.716800     1.249200    -6.518300
     146    1      6  -0.19324083     8.220900     0.539500    -8.077600
     147    1      4  -0.14484341     9.070300     1.950200    -6.045100
     148    1      6  -0.19324083     7.894200     3.086800    -8.007500
     149    1     10   0.09796876     5.979600     1.119700    -7.378200
     150    1     10   0.09796876     7.026600     0.200400    -6.195800
     151    1     10   0.09796876     8.430600    -0.329500    -7.369900
     152    1     10   0.09796876     7.205600     0.352500    -8.561200
     153    1     10   0.09796876     8.672500     2.736600    -5.321900
     154    1     10   0.09796876     9.163700     0.961000    -5.486200
     155    1     10   0.09796876     6.988500     3.039700    -8.698200
     156    1     10   0.09796876     7.803500     3.983100    -7.309500
     157    1      8  -0.05351367     9.539800     4.332400    -9.818900
     158    1      6  -0.19324083     9.168800     3.168100    -8.880800
     159    1      6  -0.19324083    10.891800     3.779700   -10.327700
     160    1      4  -0.14484341     9.749600     5.640400    -9.027700
     161    1      6  -0.19324083     8.432700     4.451400   -10.890400
     162    1     10   0.09796876     9.131900     2.278600    -9.576000
     163    1     10   0.09796876    10.074500     3.034900    -8.213000
     164    1     10   0.09796876    11.608400     3.778200    -9.440600
     165    1     10   0.09796876    10.720100     2.699900   -10.650400
     166    1     10   0.09796876    10.322800     5.384100    -8.077400
     167    1     10   0.09796876     8.749100     6.107500    -8.744300
     168    1     10   0.09796876     8.439700     3.505700   -11.526900
     169    1     10   0.09796876     7.442700     4.498800   -10.327000
     170    1      8  -0.05351367    -1.967400     1.125700     7.612900
     171    1      6  -0.19324083    -1.431600     0.195400     6.510400
     172    1      6  -0.19324083    -1.058400     2.362300     7.716900
     173    1      6  -0.19324083    -1.951800     0.339200     8.940900
     174    1      6  -0.19324083    -3.434400     1.450900     7.270400
     175    1     10   0.09796876    -1.494700     0.695200     5.487200
     176    1     10   0.09796876    -0.357700    -0.110700     6.739900
     177    1     10   0.09796876    -0.957100     2.886500     6.713400
     178    1     10   0.09796876    -1.480200     3.096700     8.475900
     179    1     10   0.09796876    -2.554500    -0.614600     8.777500
     180    1     10   0.09796876    -0.877100     0.056600     9.195500
     181    1     10   0.09796876    -3.825700     2.251800     7.981000
     182    1     10   0.09796876    -4.051200     0.500600     7.400300
     183    1      8  -0.05351367    -5.309200    -1.226300     2.862200
     184    1      6  -0.19324083    -4.126400    -0.253500     2.641600
     185    1      4  -0.14484341    -4.844100    -2.600500     3.408900
     186    1      6  -0.19324083    -6.024600    -1.252300     1.489200
     187    1      6  -0.19324083    -6.139400    -0.473500     3.928400
     188    1     10   0.09796876    -4.637800     0.721900     2.347500
     189    1     10   0.09796876    -3.600300    -0.079500     3.638400
     190    1     10   0.09796876    -4.181500    -3.079100     2.616800
     191    1     10   0.09796876    -4.192600    -2.361900     4.310700
     192    1     10   0.09796876    -5.323500    -1.699100     0.710000
     193    1     10   0.09796876    -6.238000    -0.169900     1.202400
     194    1     10   0.09796876    -5.473200    -0.266300     4.830200
     195    1     10   0.09796876    -6.475100     0.519800     3.481200
     196    1      3  -0.04409133    14.410800     3.693800    -8.510500
     197    1      2  -0.15235397    14.652400     5.167800    -8.882600
     198    1      2  -0.15235397    15.868500     5.556800    -9.743100
     199    1      2  -0.15235397    16.855800     4.472600   -10.216000
     200    1      2  -0.15235397    16.626900     3.000300    -9.823800
     201    1      2  -0.15235397    15.406000     2.611800    -8.969900
     202    1      9   0.16302121    13.927900     5.970900    -8.525100
     203    1      9   0.16302121    16.040800     6.647100   -10.028000
     204    1      9   0.16302121    17.756700     4.760400   -10.853200
     205    1      9   0.16302121    17.361000     2.199000   -10.168300
     206    1      9   0.16302121    15.233600     1.521800    -8.684500
     207    1      1  -0.09236633    10.655700     6.607000    -9.815400
     208    1      2  -0.15235397    12.182900     6.500100    -9.650900
     209    1      2  -0.15235397    13.115100     7.426300   -10.452700
     210    1      2  -0.15235397    12.517500     8.488600   -11.392600
     211    1      2  -0.15235397    10.988000     8.640800   -11.509500
     212    1      2  -0.15235397    10.057000     7.713400   -10.704200
     213    1      9   0.16302121    12.621700     5.713500    -8.953600
     214    1      9   0.16302121    14.245800     7.323900   -10.350300
     215    1      9   0.16302121    13.205000     9.168700   -11.995500
     216    1      9   0.16302121    10.545300     9.442500   -12.188800
     217    1      9   0.16302121     8.926500     7.835300   -10.782200
     218    1      1  -0.09236633    -5.809400    -3.679500     3.968100
     219    1      2  -0.15235397    -7.326000    -3.659300     3.680700
     220    1      2  -0.15235397    -8.254200    -4.707400     4.321500
     221    1      2  -0.15235397    -7.680300    -5.762100     5.281200
     222    1      2  -0.15235397    -6.174400    -5.775100     5.591200
     223    1      2  -0.15235397    -5.241600    -4.747700     4.923400
     224    1      9   0.16302121    -7.774100    -2.838500     3.039500
     225    1      9   0.16302121    -9.371300    -4.689000     4.095500
     226    1      9   0.16302121    -8.368300    -6.533300     5.761400
     227    1      9   0.16302121    -5.744400    -6.556400     6.301600
     228    1      9   0.16302121    -4.122500    -4.785700     5.130000
     229    1      1  -0.09236633   -10.396300    -0.667500     6.759700
     230    1      2  -0.15235397   -10.626200     0.853400     6.663500
     231    1      2  -0.15235397   -11.641300     1.539800     7.597800
     232    1      2  -0.15235397   -12.416300     0.709100     8.637000
     233    1      2  -0.15235397   -12.167400    -0.805500     8.750700
     234    1      2  -0.15235397   -11.152000    -1.491700     7.817400
     235    1      9   0.16302121   -10.048100     1.469600     5.897600
     236    1      9   0.16302121   -11.815300     2.664100     7.523100
     237    1      9   0.16302121   -13.173200     1.215500     9.322900
     238    1      9   0.16302121   -12.738100    -1.421000     9.522300
     239    1      9   0.16302121   -10.961100    -2.612200     7.907800
     240    1      7  -0.12698745    -2.035300    -2.181300     5.644200
     241    1      6  -0.19324083    -2.252900    -1.913100     4.143700
     242    1      6  -0.19324083    -3.051500    -3.311300     5.906000
     243    1      6  -0.19324083    -2.365700    -1.017400     6.590200
     244    1     10   0.09796876    -0.983200    -2.579200     5.829300
     245    1     10   0.09796876    -3.281000    -1.444000     4.015700
     246    1     10   0.09796876    -2.274400    -2.969200     3.722600
     247    1     10   0.09796876    -2.795000    -4.151800     5.179100
     248    1     10   0.09796876    -4.098900    -2.931900     5.662300
     249    1     10   0.09796876    -3.437600    -0.675600     6.405500
     250    1     10   0.09796876    -2.273200    -1.412500     7.650900
     251    1      7  -0.12698745    -8.207500    -0.442300     5.434300
     252    1      6  -0.19324083    -7.368400    -1.251200     4.429800
     253    1      6  -0.19324083    -7.322200    -0.064900     6.637100
     254    1      4  -0.14484341    -9.381700    -1.359700     5.828900
     255    1     10   0.09796876    -8.605700     0.502000     4.934900
     256    1     10   0.09796876    -8.036400    -1.530500     3.552300
     257    1     10   0.09796876    -7.005300    -2.195100     4.953700
     258    1     10   0.09796876    -6.448000     0.565600     6.265600
     259    1     10   0.09796876    -6.920400    -1.014700     7.122500
     260    1     10   0.09796876    -9.926200    -1.668500     4.876000
     261    1     10   0.09796876    -8.968500    -2.293000     6.337000

Bonds

       1      7        1        2
       2     13        1        3
       3     13        1        4
       4     13        1        5
       5     11        2        6
       6     11        2        7
       7      2        2       71
       8     12        8        9
       9     13        8       10
      10     13        8       11
      11     13        8       12
      12     17        9       13
      13     17        9       14
      14     14        9      146
      15     12       15       16
      16     13       15       17
      17     13       15       18
      18     13       15       19
      19     17       16       20
      20     17       16       21
      21     14       16      159
      22     12       22       23
      23     13       22       24
      24     13       22       25
      25     13       22       26
      26     17       23       27
      27     17       23       28
      28     14       23      161
      29     12       29       30
      30     13       29       31
      31     13       29       32
      32     13       29       33
      33     17       30       34
      34     17       30       35
      35     14       30      242
      36     12       36       37
      37     13       36       38
      38     13       36       39
      39     13       36       40
      40     17       37       41
      41     17       37       42
      42     14       37      172
      43     12       43       44
      44     13       43       45
      45     13       43       46
      46     13       43       47
      47     17       44       48
      48     17       44       49
      49     14       44      173
      50     12       50       51
      51     13       50       52
      52     13       50       53
      53     13       50       54
      54     17       51       55
      55     17       51       56
      56     14       51      120
      57     12       57       58
      58     13       57       59
      59     13       57       60
      60     13       57       61
      61     17       58       62
      62     17       58       63
      63     14       58      126
      64     12       64       65
      65     13       64       66
      66     13       64       67
      67     13       64       68
      68     17       65       69
      69     17       65       70
      70     14       65      253
      71      1       71       72
      72      3       72       73
      73      5       72       77
      74      1       73       74
      75      5       73       78
      76      1       74       75
      77      2       74      101
      78      3       75       76
      79      5       75       79
      80      1       76       71
      81      5       76       80
      82      1       81       82
      83      2       81      114
      84      3       82       83
      85      5       82       87
      86      1       83       84
      87      5       83       88
      88      1       84       85
      89      2       84      145
      90      3       85       86
      91      5       85       89
      92      1       86       81
      93      5       86       90
      94      1       91       92
      95      2       91      147
      96      3       92       93
      97      5       92       97
      98      4       93       94
      99      5       93       98
     100      4       94       95
     101      6       94      196
     102      3       95       96
     103      5       95       99
     104      1       96       91
     105      5       96      100
     106      8      101      102
     107     11      101      103
     108     11      101      104
     109     17      102      105
     110     17      102      106
     111     14      102      132
     112     14      107      108
     113     17      107      109
     114     17      107      110
     115     14      107      133
     116     17      108      111
     117     17      108      112
     118     14      108      113
     119      8      113      114
     120     17      113      115
     121     17      113      116
     122     11      114      117
     123     11      114      118
     124     14      119      120
     125     17      119      121
     126     17      119      122
     127     14      119      174
     128     17      120      123
     129     17      120      124
     130     14      125      126
     131     17      125      127
     132     17      125      128
     133     14      125      186
     134     17      126      129
     135     17      126      130
     136     16      131      132
     137     16      131      133
     138     16      131      134
     139     16      131      135
     140     17      132      136
     141     17      132      137
     142     17      133      138
     143     17      133      139
     144     17      134      140
     145     17      134      141
     146     14      134      241
     147     17      135      142
     148     17      135      143
     149     14      135      184
     150     10      144      145
     151     16      144      146
     152     10      144      147
     153     16      144      148
     154     11      145      149
     155     11      145      150
     156     17      146      151
     157     17      146      152
     158     11      147      153
     159     11      147      154
     160     17      148      155
     161     17      148      156
     162     14      148      158
     163     16      157      158
     164     16      157      159
     165     10      157      160
     166     16      157      161
     167     17      158      162
     168     17      158      163
     169     17      159      164
     170     17      159      165
     171     11      160      166
     172     11      160      167
     173      2      160      207
     174     17      161      168
     175     17      161      169
     176     16      170      171
     177     16      170      172
     178     16      170      173
     179     16      170      174
     180     17      171      175
     181     17      171      176
     182     14      171      243
     183     17      172      177
     184     17      172      178
     185     17      173      179
     186     17      173      180
     187     17      174      181
     188     17      174      182
     189     16      183      184
     190     10      183      185
     191     16      183      186
     192     16      183      187
     193     17      184      188
     194     17      184      189
     195     11      185      190
     196     11      185      191
     197      2      185      218
     198     17      186      192
     199     17      186      193
     200     17      187      194
     201     17      187      195
     202     14      187      252
     203      4      196      197
     204      3      197      198
     205      5      197      202
     206      3      198      199
     207      5      198      203
     208      3      199      200
     209      5      199      204
     210      3      200      201
     211      5      200      205
     212      4      201      196
     213      5      201      206
     214      1      207      208
     215      3      208      209
     216      5      208      213
     217      3      209      210
     218      5      209      214
     219      3      210      211
     220      5      210      215
     221      3      211      212
     222      5      211      216
     223      1      212      207
     224      5      212      217
     225      1      218      219
     226      3      219      220
     227      5      219      224
     228      3      220      221
     229      5      220      225
     230      3      221      222
     231      5      221      226
     232      3      222      223
     233      5      222      227
     234      1      223      218
     235      5      223      228
     236      1      229      230
     237      2      229      254
     238      3      230      231
     239      5      230      235
     240      3      231      232
     241      5      231      236
     242      3      232      233
     243      5      232      237
     244      3      233      234
     245      5      233      238
     246      1      234      229
     247      5      234      239
     248     15      240      241
     249     15      240      242
     250     15      240      243
     251     18      240      244
     252     17      241      245
     253     17      241      246
     254     17      242      247
     255     17      242      248
     256     17      243      249
     257     17      243      250
     258     15      251      252
     259     15      251      253
     260      9      251      254
     261     18      251      255
     262     17      252      256
     263     17      252      257
     264     17      253      258
     265     17      253      259
     266     11      254      260
     267     11      254      261

Angles

       1     23        1        2        6
       2     23        1        2        7
       3      3        1        2       71
       4     16        2        1        3
       5     16        2        1        4
       6     16        2        1        5
       7      9        2       71       72
       8      9        2       71       76
       9     40        3        1        4
      10     40        3        1        5
      11     40        4        1        5
      12     39        6        2        7
      13      7        6        2       71
      14      7        7        2       71
      15     25        8        9       13
      16     25        8        9       14
      17     24        8        9      146
      18     27        9        8       10
      19     27        9        8       11
      20     27        9        8       12
      21     30        9      146      144
      22     31        9      146      151
      23     31        9      146      152
      24     40       10        8       11
      25     40       10        8       12
      26     40       11        8       12
      27     41       13        9       14
      28     31       13        9      146
      29     31       14        9      146
      30     25       15       16       20
      31     25       15       16       21
      32     24       15       16      159
      33     27       16       15       17
      34     27       16       15       18
      35     27       16       15       19
      36     30       16      159      157
      37     31       16      159      164
      38     31       16      159      165
      39     40       17       15       18
      40     40       17       15       19
      41     40       18       15       19
      42     41       20       16       21
      43     31       20       16      159
      44     31       21       16      159
      45     25       22       23       27
      46     25       22       23       28
      47     24       22       23      161
      48     27       23       22       24
      49     27       23       22       25
      50     27       23       22       26
      51     30       23      161      157
      52     31       23      161      168
      53     31       23      161      169
      54     40       24       22       25
      55     40       24       22       26
      56     40       25       22       26
      57     41       27       23       28
      58     31       27       23      161
      59     31       28       23      161
      60     25       29       30       34
      61     25       29       30       35
      62     24       29       30      242
      63     27       30       29       31
      64     27       30       29       32
      65     27       30       29       33
      66     29       30      242      240
      67     31       30      242      247
      68     31       30      242      248
      69     40       31       29       32
      70     40       31       29       33
      71     40       32       29       33
      72     41       34       30       35
      73     31       34       30      242
      74     31       35       30      242
      75     25       36       37       41
      76     25       36       37       42
      77     24       36       37      172
      78     27       37       36       38
      79     27       37       36       39
      80     27       37       36       40
      81     30       37      172      170
      82     31       37      172      177
      83     31       37      172      178
      84     40       38       36       39
      85     40       38       36       40
      86     40       39       36       40
      87     41       41       37       42
      88     31       41       37      172
      89     31       42       37      172
      90     25       43       44       48
      91     25       43       44       49
      92     24       43       44      173
      93     27       44       43       45
      94     27       44       43       46
      95     27       44       43       47
      96     30       44      173      170
      97     31       44      173      179
      98     31       44      173      180
      99     40       45       43       46
     100     40       45       43       47
     101     40       46       43       47
     102     41       48       44       49
     103     31       48       44      173
     104     31       49       44      173
     105     25       50       51       55
     106     25       50       51       56
     107     24       50       51      120
     108     27       51       50       52
     109     27       51       50       53
     110     27       51       50       54
     111     28       51      120      119
     112     31       51      120      123
     113     31       51      120      124
     114     40       52       50       53
     115     40       52       50       54
     116     40       53       50       54
     117     41       55       51       56
     118     31       55       51      120
     119     31       56       51      120
     120     25       57       58       62
     121     25       57       58       63
     122     24       57       58      126
     123     27       58       57       59
     124     27       58       57       60
     125     27       58       57       61
     126     28       58      126      125
     127     31       58      126      129
     128     31       58      126      130
     129     40       59       57       60
     130     40       59       57       61
     131     40       60       57       61
     132     41       62       58       63
     133     31       62       58      126
     134     31       63       58      126
     135     25       64       65       69
     136     25       64       65       70
     137     24       64       65      253
     138     27       65       64       66
     139     27       65       64       67
     140     27       65       64       68
     141     29       65      253      251
     142     31       65      253      258
     143     31       65      253      259
     144     40       66       64       67
     145     40       66       64       68
     146     40       67       64       68
     147     41       69       65       70
     148     31       69       65      253
     149     31       70       65      253
     150      1       71       72       73
     151      2       71       72       77
     152      1       71       76       75
     153      2       71       76       80
     154      8       72       71       76
     155      1       72       73       74
     156     12       72       73       78
     157     12       73       72       77
     158      8       73       74       75
     159      9       73       74      101
     160      2       74       73       78
     161      1       74       75       76
     162      2       74       75       79
     163      4       74      101      102
     164      7       74      101      103
     165      7       74      101      104
     166      9       75       74      101
     167     12       75       76       80
     168     12       76       75       79
     169      1       81       82       83
     170      2       81       82       87
     171      1       81       86       85
     172      2       81       86       90
     173      4       81      114      113
     174      7       81      114      117
     175      7       81      114      118
     176      8       82       81       86
     177      9       82       81      114
     178      1       82       83       84
     179     12       82       83       88
     180     12       83       82       87
     181      8       83       84       85
     182      9       83       84      145
     183      2       84       83       88
     184      1       84       85       86
     185      2       84       85       89
     186      6       84      145      144
     187      7       84      145      149
     188      7       84      145      150
     189      9       85       84      145
     190     12       85       86       90
     191      9       86       81      114
     192     12       86       85       89
     193      1       91       92       93
     194      2       91       92       97
     195      1       91       96       95
     196      2       91       96      100
     197      6       91      147      144
     198      7       91      147      153
     199      7       91      147      154
     200      8       92       91       96
     201      9       92       91      147
     202     11       92       93       94
     203     12       92       93       98
     204     12       93       92       97
     205     13       93       94       95
     206     14       93       94      196
     207     15       94       93       98
     208     11       94       95       96
     209     15       94       95       99
     210     14       94      196      197
     211     14       94      196      201
     212     14       95       94      196
     213     12       95       96      100
     214      9       96       91      147
     215     12       96       95       99
     216     18      101      102      105
     217     18      101      102      106
     218     17      101      102      132
     219     26      102      101      103
     220     26      102      101      104
     221     30      102      132      131
     222     31      102      132      136
     223     31      102      132      137
     224     39      103      101      104
     225     41      105      102      106
     226     31      105      102      132
     227     31      106      102      132
     228     31      107      108      111
     229     31      107      108      112
     230     28      107      108      113
     231     30      107      133      131
     232     31      107      133      138
     233     31      107      133      139
     234     31      108      107      109
     235     31      108      107      110
     236     28      108      107      133
     237     17      108      113      114
     238     31      108      113      115
     239     31      108      113      116
     240     41      109      107      110
     241     31      109      107      133
     242     31      110      107      133
     243     41      111      108      112
     244     31      111      108      113
     245     31      112      108      113
     246     26      113      114      117
     247     26      113      114      118
     248     18      114      113      115
     249     18      114      113      116
     250     41      115      113      116
     251     39      117      114      118
     252     31      119      120      123
     253     31      119      120      124
     254     30      119      174      170
     255     31      119      174      181
     256     31      119      174      182
     257     31      120      119      121
     258     31      120      119      122
     259     28      120      119      174
     260     41      121      119      122
     261     31      121      119      174
     262     31      122      119      174
     263     41      123      120      124
     264     31      125      126      129
     265     31      125      126      130
     266     30      125      186      183
     267     31      125      186      192
     268     31      125      186      193
     269     31      126      125      127
     270     31      126      125      128
     271     28      126      125      186
     272     41      127      125      128
     273     31      127      125      186
     274     31      128      125      186
     275     41      129      126      130
     276     38      131      132      136
     277     38      131      132      137
     278     38      131      133      138
     279     38      131      133      139
     280     38      131      134      140
     281     38      131      134      141
     282     30      131      134      241
     283     38      131      135      142
     284     38      131      135      143
     285     30      131      135      184
     286     34      132      131      133
     287     34      132      131      134
     288     34      132      131      135
     289     34      133      131      134
     290     34      133      131      135
     291     34      134      131      135
     292     29      134      241      240
     293     31      134      241      245
     294     31      134      241      246
     295     30      135      184      183
     296     31      135      184      188
     297     31      135      184      189
     298     41      136      132      137
     299     41      138      133      139
     300     41      140      134      141
     301     31      140      134      241
     302     31      141      134      241
     303     41      142      135      143
     304     31      142      135      184
     305     31      143      135      184
     306     37      144      145      149
     307     37      144      145      150
     308     38      144      146      151
     309     38      144      146      152
     310     37      144      147      153
     311     37      144      147      154
     312     38      144      148      155
     313     38      144      148      156
     314     30      144      148      158
     315     22      145      144      146
     316     21      145      144      147
     317     22      145      144      148
     318     22      146      144      147
     319     34      146      144      148
     320     22      147      144      148
     321     30      148      158      157
     322     31      148      158      162
     323     31      148      158      163
     324     39      149      145      150
     325     41      151      146      152
     326     39      153      147      154
     327     41      155      148      156
     328     31      155      148      158
     329     31      156      148      158
     330     38      157      158      162
     331     38      157      158      163
     332     38      157      159      164
     333     38      157      159      165
     334     37      157      160      166
     335     37      157      160      167
     336      6      157      160      207
     337     38      157      161      168
     338     38      157      161      169
     339     34      158      157      159
     340     22      158      157      160
     341     34      158      157      161
     342     22      159      157      160
     343     34      159      157      161
     344     22      160      157      161
     345      9      160      207      208
     346      9      160      207      212
     347     41      162      158      163
     348     41      164      159      165
     349     39      166      160      167
     350      7      166      160      207
     351      7      167      160      207
     352     41      168      161      169
     353     38      170      171      175
     354     38      170      171      176
     355     30      170      171      243
     356     38      170      172      177
     357     38      170      172      178
     358     38      170      173      179
     359     38      170      173      180
     360     38      170      174      181
     361     38      170      174      182
     362     34      171      170      172
     363     34      171      170      173
     364     34      171      170      174
     365     29      171      243      240
     366     31      171      243      249
     367     31      171      243      250
     368     34      172      170      173
     369     34      172      170      174
     370     34      173      170      174
     371     41      175      171      176
     372     31      175      171      243
     373     31      176      171      243
     374     41      177      172      178
     375     41      179      173      180
     376     41      181      174      182
     377     38      183      184      188
     378     38      183      184      189
     379     37      183      185      190
     380     37      183      185      191
     381      6      183      185      218
     382     38      183      186      192
     383     38      183      186      193
     384     38      183      187      194
     385     38      183      187      195
     386     30      183      187      252
     387     22      184      183      185
     388     34      184      183      186
     389     34      184      183      187
     390     22      185      183      186
     391     22      185      183      187
     392      9      185      218      219
     393      9      185      218      223
     394     34      186      183      187
     395     29      187      252      251
     396     31      187      252      256
     397     31      187      252      257
     398     41      188      184      189
     399     39      190      185      191
     400      7      190      185      218
     401      7      191      185      218
     402     41      192      186      193
     403     41      194      187      195
     404     31      194      187      252
     405     31      195      187      252
     406     11      196      197      198
     407     15      196      197      202
     408     11      196      201      200
     409     15      196      201      206
     410     13      197      196      201
     411     10      197      198      199
     412     12      197      198      203
     413     12      198      197      202
     414     10      198      199      200
     415     12      198      199      204
     416     12      199      198      203
     417     10      199      200      201
     418     12      199      200      205
     419     12      200      199      204
     420     12      200      201      206
     421     12      201      200      205
     422      1      207      208      209
     423      2      207      208      213
     424      1      207      212      211
     425      2      207      212      217
     426      8      208      207      212
     427     10      208      209      210
     428     12      208      209      214
     429     12      209      208      213
     430     10      209      210      211
     431     12      209      210      215
     432     12      210      209      214
     433     10      210      211      212
     434     12      210      211      216
     435     12      211      210      215
     436     12      211      212      217
     437     12      212      211      216
     438      1      218      219      220
     439      2      218      219      224
     440      1      218      223      222
     441      2      218      223      228
     442      8      219      218      223
     443     10      219      220      221
     444     12      219      220      225
     445     12      220      219      224
     446     10      220      221      222
     447     12      220      221      226
     448     12      221      220      225
     449     10      221      222      223
     450     12      221      222      227
     451     12      222      221      226
     452     12      222      223      228
     453     12      223      222      227
     454      1      229      230      231
     455      2      229      230      235
     456      1      229      234      233
     457      2      229      234      239
     458      5      229      254      251
     459      7      229      254      260
     460      7      229      254      261
     461      8      230      229      234
     462      9      230      229      254
     463     10      230      231      232
     464     12      230      231      236
     465     12      231      230      235
     466     10      231      232      233
     467     12      231      232      237
     468     12      232      231      236
     469     10      232      233      234
     470     12      232      233      238
     471     12      233      232      237
     472     12      233      234      239
     473      9      234      229      254
     474     12      234      233      238
     475     36      240      241      245
     476     36      240      241      246
     477     36      240      242      247
     478     36      240      242      248
     479     36      240      243      249
     480     36      240      243      250
     481     32      241      240      242
     482     32      241      240      243
     483     33      241      240      244
     484     32      242      240      243
     485     33      242      240      244
     486     33      243      240      244
     487     41      245      241      246
     488     41      247      242      248
     489     41      249      243      250
     490     36      251      252      256
     491     36      251      252      257
     492     36      251      253      258
     493     36      251      253      259
     494     35      251      254      260
     495     35      251      254      261
     496     32      252      251      253
     497     19      252      251      254
     498     33      252      251      255
     499     19      253      251      254
     500     33      253      251      255
     501     20      254      251      255
     502     41      256      252      257
     503     41      258      253      259
     504     39      260      254      261

Dihedrals

       1     14        1        2       71       72
       2     14        1        2       71       76
       3     19        2       71       72       73
       4     29        2       71       72       77
       5     19        2       71       76       75
       6     29        2       71       76       80
       7     59        3        1        2        6
       8     59        3        1        2        7
       9      5        3        1        2       71
      10     59        4        1        2        6
      11     59        4        1        2        7
      12      5        4        1        2       71
      13     59        5        1        2        6
      14     59        5        1        2        7
      15      5        5        1        2       71
      16     18        6        2       71       72
      17     18        6        2       71       76
      18     18        7        2       71       72
      19     18        7        2       71       76
      20     40        8        9      146      144
      21     41        8        9      146      151
      22     41        8        9      146      152
      23     36        9      146      144      145
      24     36        9      146      144      147
      25     49        9      146      144      148
      26     62       10        8        9       13
      27     62       10        8        9       14
      28     43       10        8        9      146
      29     62       11        8        9       13
      30     62       11        8        9       14
      31     43       11        8        9      146
      32     62       12        8        9       13
      33     62       12        8        9       14
      34     43       12        8        9      146
      35     57       13        9      146      144
      36     63       13        9      146      151
      37     63       13        9      146      152
      38     57       14        9      146      144
      39     63       14        9      146      151
      40     63       14        9      146      152
      41     40       15       16      159      157
      42     41       15       16      159      164
      43     41       15       16      159      165
      44     49       16      159      157      158
      45     36       16      159      157      160
      46     49       16      159      157      161
      47     62       17       15       16       20
      48     62       17       15       16       21
      49     43       17       15       16      159
      50     62       18       15       16       20
      51     62       18       15       16       21
      52     43       18       15       16      159
      53     62       19       15       16       20
      54     62       19       15       16       21
      55     43       19       15       16      159
      56     57       20       16      159      157
      57     63       20       16      159      164
      58     63       20       16      159      165
      59     57       21       16      159      157
      60     63       21       16      159      164
      61     63       21       16      159      165
      62     40       22       23      161      157
      63     41       22       23      161      168
      64     41       22       23      161      169
      65     49       23      161      157      158
      66     49       23      161      157      159
      67     36       23      161      157      160
      68     62       24       22       23       27
      69     62       24       22       23       28
      70     43       24       22       23      161
      71     62       25       22       23       27
      72     62       25       22       23       28
      73     43       25       22       23      161
      74     62       26       22       23       27
      75     62       26       22       23       28
      76     43       26       22       23      161
      77     57       27       23      161      157
      78     63       27       23      161      168
      79     63       27       23      161      169
      80     57       28       23      161      157
      81     63       28       23      161      168
      82     63       28       23      161      169
      83     39       29       30      242      240
      84     41       29       30      242      247
      85     41       29       30      242      248
      86     47       30      242      240      241
      87     47       30      242      240      243
      88     48       30      242      240      244
      89     62       31       29       30       34
      90     62       31       29       30       35
      91     43       31       29       30      242
      92     62       32       29       30       34
      93     62       32       29       30       35
      94     43       32       29       30      242
      95     62       33       29       30       34
      96     62       33       29       30       35
      97     43       33       29       30      242
      98     55       34       30      242      240
      99     63       34       30      242      247
     100     63       34       30      242      248
     101     55       35       30      242      240
     102     63       35       30      242      247
     103     63       35       30      242      248
     104     40       36       37      172      170
     105     41       36       37      172      177
     106     41       36       37      172      178
     107     49       37      172      170      171
     108     49       37      172      170      173
     109     49       37      172      170      174
     110     62       38       36       37       41
     111     62       38       36       37       42
     112     43       38       36       37      172
     113     62       39       36       37       41
     114     62       39       36       37       42
     115     43       39       36       37      172
     116     62       40       36       37       41
     117     62       40       36       37       42
     118     43       40       36       37      172
     119     57       41       37      172      170
     120     63       41       37      172      177
     121     63       41       37      172      178
     122     57       42       37      172      170
     123     63       42       37      172      177
     124     63       42       37      172      178
     125     40       43       44      173      170
     126     41       43       44      173      179
     127     41       43       44      173      180
     128     49       44      173      170      171
     129     49       44      173      170      172
     130     49       44      173      170      174
     131     62       45       43       44       48
     132     62       45       43       44       49
     133     43       45       43       44      173
     134     62       46       43       44       48
     135     62       46       43       44       49
     136     43       46       43       44      173
     137     62       47       43       44       48
     138     62       47       43       44       49
     139     43       47       43       44      173
     140     57       48       44      173      170
     141     63       48       44      173      179
     142     63       48       44      173      180
     143     57       49       44      173      170
     144     63       49       44      173      179
     145     63       49       44      173      180
     146     38       50       51      120      119
     147     41       50       51      120      123
     148     41       50       51      120      124
     149     46       51      120      119      121
     150     46       51      120      119      122
     151     44       51      120      119      174
     152     62       52       50       51       55
     153     62       52       50       51       56
     154     43       52       50       51      120
     155     62       53       50       51       55
     156     62       53       50       51       56
     157     43       53       50       51      120
     158     62       54       50       51       55
     159     62       54       50       51       56
     160     43       54       50       51      120
     161     46       55       51      120      119
     162     63       55       51      120      123
     163     63       55       51      120      124
     164     46       56       51      120      119
     165     63       56       51      120      123
     166     63       56       51      120      124
     167     38       57       58      126      125
     168     41       57       58      126      129
     169     41       57       58      126      130
     170     46       58      126      125      127
     171     46       58      126      125      128
     172     44       58      126      125      186
     173     62       59       57       58       62
     174     62       59       57       58       63
     175     43       59       57       58      126
     176     62       60       57       58       62
     177     62       60       57       58       63
     178     43       60       57       58      126
     179     62       61       57       58       62
     180     62       61       57       58       63
     181     43       61       57       58      126
     182     46       62       58      126      125
     183     63       62       58      126      129
     184     63       62       58      126      130
     185     46       63       58      126      125
     186     63       63       58      126      129
     187     63       63       58      126      130
     188     39       64       65      253      251
     189     41       64       65      253      258
     190     41       64       65      253      259
     191     47       65      253      251      252
     192     33       65      253      251      254
     193     48       65      253      251      255
     194     62       66       64       65       69
     195     62       66       64       65       70
     196     43       66       64       65      253
     197     62       67       64       65       69
     198     62       67       64       65       70
     199     43       67       64       65      253
     200     62       68       64       65       69
     201     62       68       64       65       70
     202     43       68       64       65      253
     203     55       69       65      253      251
     204     63       69       65      253      258
     205     63       69       65      253      259
     206     55       70       65      253      251
     207     63       70       65      253      258
     208     63       70       65      253      259
     209      1       71       72       73       74
     210      4       71       72       73       78
     211      1       71       76       75       74
     212      4       71       76       75       79
     213     12       72       71       76       75
     214     13       72       71       76       80
     215     12       72       73       74       75
     216     19       72       73       74      101
     217     12       73       72       71       76
     218     12       73       74       75       76
     219     13       73       74       75       79
     220     15       73       74      101      102
     221     18       73       74      101      103
     222     18       73       74      101      104
     223      4       74       73       72       77
     224      4       74       75       76       80
     225      7       74      101      102      105
     226      7       74      101      102      106
     227      6       74      101      102      132
     228     13       75       74       73       78
     229     15       75       74      101      102
     230     18       75       74      101      103
     231     18       75       74      101      104
     232     13       76       71       72       77
     233     19       76       75       74      101
     234     58       77       72       73       78
     235     29       78       73       74      101
     236     29       79       75       74      101
     237     58       79       75       76       80
     238      1       81       82       83       84
     239      4       81       82       83       88
     240      1       81       86       85       84
     241      4       81       86       85       89
     242      6       81      114      113      108
     243      7       81      114      113      115
     244      7       81      114      113      116
     245     12       82       81       86       85
     246     13       82       81       86       90
     247     15       82       81      114      113
     248     18       82       81      114      117
     249     18       82       81      114      118
     250     12       82       83       84       85
     251     19       82       83       84      145
     252     12       83       82       81       86
     253     19       83       82       81      114
     254     12       83       84       85       86
     255     13       83       84       85       89
     256     17       83       84      145      144
     257     18       83       84      145      149
     258     18       83       84      145      150
     259      4       84       83       82       87
     260      4       84       85       86       90
     261     11       84      145      144      146
     262     10       84      145      144      147
     263     11       84      145      144      148
     264     13       85       84       83       88
     265     17       85       84      145      144
     266     18       85       84      145      149
     267     18       85       84      145      150
     268     19       85       86       81      114
     269     13       86       81       82       87
     270     15       86       81      114      113
     271     18       86       81      114      117
     272     18       86       81      114      118
     273     19       86       85       84      145
     274     29       87       82       81      114
     275     58       87       82       83       88
     276     29       88       83       84      145
     277     29       89       85       84      145
     278     58       89       85       86       90
     279     29       90       86       81      114
     280      3       91       92       93       94
     281      4       91       92       93       98
     282      3       91       96       95       94
     283      4       91       96       95       99
     284     10       91      147      144      145
     285     11       91      147      144      146
     286     11       91      147      144      148
     287     12       92       91       96       95
     288     13       92       91       96      100
     289     17       92       91      147      144
     290     18       92       91      147      153
     291     18       92       91      147      154
     292     23       92       93       94       95
     293     24       92       93       94      196
     294     12       93       92       91       96
     295     19       93       92       91      147
     296     23       93       94       95       96
     297     25       93       94       95       99
     298     26       93       94      196      197
     299     26       93       94      196      201
     300     27       94       93       92       97
     301     27       94       95       96      100
     302     24       94      196      197      198
     303     28       94      196      197      202
     304     24       94      196      201      200
     305     28       94      196      201      206
     306     25       95       94       93       98
     307     26       95       94      196      197
     308     26       95       94      196      201
     309     19       95       96       91      147
     310     13       96       91       92       97
     311     17       96       91      147      144
     312     18       96       91      147      153
     313     18       96       91      147      154
     314     24       96       95       94      196
     315     29       97       92       91      147
     316     58       97       92       93       98
     317     28       98       93       94      196
     318     28       99       95       94      196
     319     58       99       95       96      100
     320     29      100       96       91      147
     321     31      101      102      132      131
     322     32      101      102      132      136
     323     32      101      102      132      137
     324     49      102      132      131      133
     325     49      102      132      131      134
     326     49      102      132      131      135
     327     60      103      101      102      105
     328     60      103      101      102      106
     329     42      103      101      102      132
     330     60      104      101      102      105
     331     60      104      101      102      106
     332     42      104      101      102      132
     333     57      105      102      132      131
     334     63      105      102      132      136
     335     63      105      102      132      137
     336     57      106      102      132      131
     337     63      106      102      132      136
     338     63      106      102      132      137
     339     30      107      108      113      114
     340     46      107      108      113      115
     341     46      107      108      113      116
     342     49      107      133      131      132
     343     49      107      133      131      134
     344     49      107      133      131      135
     345     45      108      107      133      131
     346     46      108      107      133      138
     347     46      108      107      133      139
     348     42      108      113      114      117
     349     42      108      113      114      118
     350     63      109      107      108      111
     351     63      109      107      108      112
     352     46      109      107      108      113
     353     57      109      107      133      131
     354     63      109      107      133      138
     355     63      109      107      133      139
     356     63      110      107      108      111
     357     63      110      107      108      112
     358     46      110      107      108      113
     359     57      110      107      133      131
     360     63      110      107      133      138
     361     63      110      107      133      139
     362     46      111      108      107      133
     363     32      111      108      113      114
     364     63      111      108      113      115
     365     63      111      108      113      116
     366     46      112      108      107      133
     367     32      112      108      113      114
     368     63      112      108      113      115
     369     63      112      108      113      116
     370     44      113      108      107      133
     371     60      115      113      114      117
     372     60      115      113      114      118
     373     60      116      113      114      117
     374     60      116      113      114      118
     375     49      119      174      170      171
     376     49      119      174      170      172
     377     49      119      174      170      173
     378     45      120      119      174      170
     379     46      120      119      174      181
     380     46      120      119      174      182
     381     63      121      119      120      123
     382     63      121      119      120      124
     383     57      121      119      174      170
     384     63      121      119      174      181
     385     63      121      119      174      182
     386     63      122      119      120      123
     387     63      122      119      120      124
     388     57      122      119      174      170
     389     63      122      119      174      181
     390     63      122      119      174      182
     391     46      123      120      119      174
     392     46      124      120      119      174
     393     49      125      186      183      184
     394     36      125      186      183      185
     395     49      125      186      183      187
     396     45      126      125      186      183
     397     46      126      125      186      192
     398     46      126      125      186      193
     399     63      127      125      126      129
     400     63      127      125      126      130
     401     57      127      125      186      183
     402     63      127      125      186      192
     403     63      127      125      186      193
     404     63      128      125      126      129
     405     63      128      125      126      130
     406     57      128      125      186      183
     407     63      128      125      186      192
     408     63      128      125      186      193
     409     46      129      126      125      186
     410     46      130      126      125      186
     411     54      131      134      241      240
     412     57      131      134      241      245
     413     57      131      134      241      246
     414     56      131      135      184      183
     415     57      131      135      184      188
     416     57      131      135      184      189
     417     53      132      131      133      138
     418     53      132      131      133      139
     419     53      132      131      134      140
     420     53      132      131      134      141
     421     49      132      131      134      241
     422     53      132      131      135      142
     423     53      132      131      135      143
     424     49      132      131      135      184
     425     53      133      131      132      136
     426     53      133      131      132      137
     427     53      133      131      134      140
     428     53      133      131      134      141
     429     49      133      131      134      241
     430     53      133      131      135      142
     431     53      133      131      135      143
     432     49      133      131      135      184
     433     53      134      131      132      136
     434     53      134      131      132      137
     435     53      134      131      133      138
     436     53      134      131      133      139
     437     53      134      131      135      142
     438     53      134      131      135      143
     439     49      134      131      135      184
     440     47      134      241      240      242
     441     47      134      241      240      243
     442     48      134      241      240      244
     443     53      135      131      132      136
     444     53      135      131      132      137
     445     53      135      131      133      138
     446     53      135      131      133      139
     447     53      135      131      134      140
     448     53      135      131      134      141
     449     49      135      131      134      241
     450     36      135      184      183      185
     451     49      135      184      183      186
     452     49      135      184      183      187
     453     55      140      134      241      240
     454     63      140      134      241      245
     455     63      140      134      241      246
     456     55      141      134      241      240
     457     63      141      134      241      245
     458     63      141      134      241      246
     459     57      142      135      184      183
     460     63      142      135      184      188
     461     63      142      135      184      189
     462     57      143      135      184      183
     463     63      143      135      184      188
     464     63      143      135      184      189
     465     56      144      148      158      157
     466     57      144      148      158      162
     467     57      144      148      158      163
     468     37      145      144      146      151
     469     37      145      144      146      152
     470     35      145      144      147      153
     471     35      145      144      147      154
     472     37      145      144      148      155
     473     37      145      144      148      156
     474     36      145      144      148      158
     475     52      146      144      145      149
     476     52      146      144      145      150
     477     52      146      144      147      153
     478     52      146      144      147      154
     479     53      146      144      148      155
     480     53      146      144      148      156
     481     49      146      144      148      158
     482     35      147      144      145      149
     483     35      147      144      145      150
     484     37      147      144      146      151
     485     37      147      144      146      152
     486     37      147      144      148      155
     487     37      147      144      148      156
     488     36      147      144      148      158
     489     52      148      144      145      149
     490     52      148      144      145      150
     491     53      148      144      146      151
     492     53      148      144      146      152
     493     52      148      144      147      153
     494     52      148      144      147      154
     495     49      148      158      157      159
     496     36      148      158      157      160
     497     49      148      158      157      161
     498     57      155      148      158      157
     499     63      155      148      158      162
     500     63      155      148      158      163
     501     57      156      148      158      157
     502     63      156      148      158      162
     503     63      156      148      158      163
     504     17      157      160      207      208
     505     17      157      160      207      212
     506     53      158      157      159      164
     507     53      158      157      159      165
     508     52      158      157      160      166
     509     52      158      157      160      167
     510     11      158      157      160      207
     511     53      158      157      161      168
     512     53      158      157      161      169
     513     53      159      157      158      162
     514     53      159      157      158      163
     515     52      159      157      160      166
     516     52      159      157      160      167
     517     11      159      157      160      207
     518     53      159      157      161      168
     519     53      159      157      161      169
     520     37      160      157      158      162
     521     37      160      157      158      163
     522     37      160      157      159      164
     523     37      160      157      159      165
     524     37      160      157      161      168
     525     37      160      157      161      169
     526     19      160      207      208      209
     527     29      160      207      208      213
     528     19      160      207      212      211
     529     29      160      207      212      217
     530     53      161      157      158      162
     531     53      161      157      158      163
     532     53      161      157      159      164
     533     53      161      157      159      165
     534     52      161      157      160      166
     535     52      161      157      160      167
     536     11      161      157      160      207
     537     18      166      160      207      208
     538     18      166      160      207      212
     539     18      167      160      207      208
     540     18      167      160      207      212
     541     54      170      171      243      240
     542     57      170      171      243      249
     543     57      170      171      243      250
     544     53      171      170      172      177
     545     53      171      170      172      178
     546     53      171      170      173      179
     547     53      171      170      173      180
     548     53      171      170      174      181
     549     53      171      170      174      182
     550     47      171      243      240      241
     551     47      171      243      240      242
     552     48      171      243      240      244
     553     53      172      170      171      175
     554     53      172      170      171      176
     555     49      172      170      171      243
     556     53      172      170      173      179
     557     53      172      170      173      180
     558     53      172      170      174      181
     559     53      172      170      174      182
     560     53      173      170      171      175
     561     53      173      170      171      176
     562     49      173      170      171      243
     563     53      173      170      172      177
     564     53      173      170      172      178
     565     53      173      170      174      181
     566     53      173      170      174      182
     567     53      174      170      171      175
     568     53      174      170      171      176
     569     49      174      170      171      243
     570     53      174      170      172      177
     571     53      174      170      172      178
     572     53      174      170      173      179
     573     53      174      170      173      180
     574     55      175      171      243      240
     575     63      175      171      243      249
     576     63      175      171      243      250
     577     55      176      171      243      240
     578     63      176      171      243      249
     579     63      176      171      243      250
     580     17      183      185      218      219
     581     17      183      185      218      223
     582     54      183      187      252      251
     583     57      183      187      252      256
     584     57      183      187      252      257
     585     52      184      183      185      190
     586     52      184      183      185      191
     587     11      184      183      185      218
     588     53      184      183      186      192
     589     53      184      183      186      193
     590     53      184      183      187      194
     591     53      184      183      187      195
     592     49      184      183      187      252
     593     37      185      183      184      188
     594     37      185      183      184      189
     595     37      185      183      186      192
     596     37      185      183      186      193
     597     37      185      183      187      194
     598     37      185      183      187      195
     599     36      185      183      187      252
     600     19      185      218      219      220
     601     29      185      218      219      224
     602     19      185      218      223      222
     603     29      185      218      223      228
     604     53      186      183      184      188
     605     53      186      183      184      189
     606     52      186      183      185      190
     607     52      186      183      185      191
     608     11      186      183      185      218
     609     53      186      183      187      194
     610     53      186      183      187      195
     611     49      186      183      187      252
     612     53      187      183      184      188
     613     53      187      183      184      189
     614     52      187      183      185      190
     615     52      187      183      185      191
     616     11      187      183      185      218
     617     53      187      183      186      192
     618     53      187      183      186      193
     619     47      187      252      251      253
     620     33      187      252      251      254
     621     48      187      252      251      255
     622     18      190      185      218      219
     623     18      190      185      218      223
     624     18      191      185      218      219
     625     18      191      185      218      223
     626     55      194      187      252      251
     627     63      194      187      252      256
     628     63      194      187      252      257
     629     55      195      187      252      251
     630     63      195      187      252      256
     631     63      195      187      252      257
     632     21      196      197      198      199
     633     27      196      197      198      203
     634     21      196      201      200      199
     635     27      196      201      200      205
     636     23      197      196      201      200
     637     25      197      196      201      206
     638     20      197      198      199      200
     639     22      197      198      199      204
     640     23      198      197      196      201
     641     20      198      199      200      201
     642     22      198      199      200      205
     643     22      199      198      197      202
     644     22      199      200      201      206
     645     22      200      199      198      203
     646     25      201      196      197      202
     647     22      201      200      199      204
     648     58      202      197      198      203
     649     58      203      198      199      204
     650     58      204      199      200      205
     651     58      205      200      201      206
     652      2      207      208      209      210
     653      4      207      208      209      214
     654      2      207      212      211      210
     655      4      207      212      211      216
     656     12      208      207      212      211
     657     13      208      207      212      217
     658     20      208      209      210      211
     659     22      208      209      210      215
     660     12      209      208      207      212
     661     20      209      210      211      212
     662     22      209      210      211      216
     663     22      210      209      208      213
     664     22      210      211      212      217
     665     22      211      210      209      214
     666     13      212      207      208      213
     667     22      212      211      210      215
     668     58      213      208      209      214
     669     58      214      209      210      215
     670     58      215      210      211      216
     671     58      216      211      212      217
     672      2      218      219      220      221
     673      4      218      219      220      225
     674      2      218      223      222      221
     675      4      218      223      222      227
     676     12      219      218      223      222
     677     13      219      218      223      228
     678     20      219      220      221      222
     679     22      219      220      221      226
     680     12      220      219      218      223
     681     20      220      221      222      223
     682     22      220      221      222      227
     683     22      221      220      219      224
     684     22      221      222      223      228
     685     22      222      221      220      225
     686     13      223      218      219      224
     687     22      223      222      221      226
     688     58      224      219      220      225
     689     58      225      220      221      226
     690     58      226      221      222      227
     691     58      227      222      223      228
     692      2      229      230      231      232
     693      4      229      230      231      236
     694      2      229      234      233      232
     695      4      229      234      233      238
     696      8      229      254      251      252
     697      8      229      254      251      253
     698      9      229      254      251      255
     699     12      230      229      234      233
     700     13      230      229      234      239
     701     16      230      229      254      251
     702     18      230      229      254      260
     703     18      230      229      254      261
     704     20      230      231      232      233
     705     22      230      231      232      237
     706     12      231      230      229      234
     707     19      231      230      229      254
     708     20      231      232      233      234
     709     22      231      232      233      238
     710     22      232      231      230      235
     711     22      232      233      234      239
     712     22      233      232      231      236
     713     19      233      234      229      254
     714     13      234      229      230      235
     715     16      234      229      254      251
     716     18      234      229      254      260
     717     18      234      229      254      261
     718     22      234      233      232      237
     719     29      235      230      229      254
     720     58      235      230      231      236
     721     58      236      231      232      237
     722     58      237      232      233      238
     723     58      238      233      234      239
     724     29      239      234      229      254
     725     51      241      240      242      247
     726     51      241      240      242      248
     727     51      241      240      243      249
     728     51      241      240      243      250
     729     51      242      240      241      245
     730     51      242      240      241      246
     731     51      242      240      243      249
     732     51      242      240      243      250
     733     51      243      240      241      245
     734     51      243      240      241      246
     735     51      243      240      242      247
     736     51      243      240      242      248
     737     64      244      240      241      245
     738     64      244      240      241      246
     739     64      244      240      242      247
     740     64      244      240      242      248
     741     64      244      240      243      249
     742     64      244      240      243      250
     743     51      252      251      253      258
     744     51      252      251      253      259
     745     50      252      251      254      260
     746     50      252      251      254      261
     747     51      253      251      252      256
     748     51      253      251      252      257
     749     50      253      251      254      260
     750     50      253      251      254      261
     751     34      254      251      252      256
     752     34      254      251      252      257
     753     34      254      251      253      258
     754     34      254      251      253      259
     755     64      255      251      252      256
     756     64      255      251      252      257
     757     64      255      251      253      258
     758     64      255      251      253      259
     759     61      255      251      254      260
     760     61      255      251      254      261

Impropers

       1      1        2       71       72       76
       2      2       71       72       73       77
       3      2       72       73       74       78
       4      1       73       74       75      101
       5      2       74       75       76       79
       6      2       71       76       75       80
       7      1       82       81       86      114
       8      2       81       82       83       87
       9      2       82       83       84       88
      10      1       83       84       85      145
      11      2       84       85       86       89
      12      2       81       86       85       90
      13      1       92       91       96      147
      14      2       91       92       93       97
      15      4       92       93       94       98
      16      5       93       94       95      196
      17      4       94       95       96       99
      18      2       91       96       95      100
      19      5       94      196      197      201
      20      4      196      197      198      202
      21      3      197      198      199      203
      22      3      198      199      200      204
      23      3      199      200      201      205
      24      4      196      201      200      206
      25      1      160      207      208      212
      26      2      207      208      209      213
      27      3      208      209      210      214
      28      3      209      210      211      215
      29      3      210      211      212      216
      30      2      207      212      211      217
      31      1      185      218      219      223
      32      2      218      219      220      224
      33      3      219      220      221      225
      34      3      220      221      222      226
      35      3      221      222      223      227
      36      2      218      223      222      228
      37      1      230      229      234      254
      38      2      229      230      231      235
      39      3      230      231      232      236
      40      3      231      232      233      237
      41      3      232      233      234      238
      42      2      229      234      233      239

