LAMMPS data file generated by clean-room 1-hop pipeline

     200 atoms
     220 bonds
     360 angles
     560 dihedrals
     120 impropers

       3 atom types
       4 bond types
       5 angle types
       8 dihedral types
       2 improper types

  -33.826800    33.690000 xlo xhi
  -28.886100    31.701300 ylo yhi
  -34.693700    33.969100 zlo zhi

Masses

       1    12.011000
       2    12.011000
       3     1.008000

Pair Coeffs

       1     0.070000     3.550000
       2     0.070000     3.550000
       3     0.030000     2.420000

Bond Coeffs

       1   469.000000     1.400000
       2   469.000000     1.400000
       3   367.000000     1.080000
       4   385.000000     1.460000

Angle Coeffs

       1    63.000000   120.000000
       2    35.000000   120.000000
       3    63.000000   120.000000
       4    63.000000   120.000000
       5    35.000000   120.000000

Dihedral Coeffs

       1     0.000000     7.250000     0.000000     0.000000
       2     0.000000     7.250000     0.000000     0.000000
       3     0.000000     7.250000     0.000000     0.000000
       4     0.000000     1.650000     0.000000    -0.050000
       5     0.000000     7.250000     0.000000     0.000000
       6     0.000000     7.250000     0.000000     0.000000
       7     0.000000     7.250000     0.000000     0.000000
       8     0.000000     7.250000     0.000000     0.000000

Improper Coeffs

       1     2.500000   -1    2
       2     2.500000   -1    2

Atoms

       1    1      2  -0.03953996    11.237800    -6.486900     5.054100
       2    1      1  -0.14780260    10.785800    -7.821400     5.670400
       3    1      1  -0.14780260    10.239600    -7.853800     7.106900
       4    1      2  -0.03953996    10.095400    -6.543600     7.902800
       5    1      1  -0.14780260    10.628300    -5.222500     7.321400
       6    1      1  -0.14780260    11.216500    -5.198100     5.898200
       7    1      3   0.16757258    10.840500    -8.781300     5.056900
       8    1      3   0.16757258     9.895000    -8.839000     7.564400
       9    1      3   0.16757258    10.559200    -4.262500     7.929200
      10    1      3   0.16757258    11.599000    -4.218300     5.454900
      11    1      2  -0.03953996    11.662100    -6.438200     3.577400
      12    1      1  -0.14780260    11.440300    -7.668100     2.677000
      13    1      1  -0.14780260    11.728600    -7.576900     1.166300
      14    1      2  -0.03953996    12.291400    -6.270800     0.573800
      15    1      1  -0.14780260    12.608900    -5.079200     1.494200
      16    1      1  -0.14780260    12.264400    -5.150300     2.991300
      17    1      3   0.16757258    11.030600    -8.634500     3.123100
      18    1      3   0.16757258    11.517500    -8.469100     0.487900
      19    1      3   0.16757258    13.060700    -4.129300     1.057500
      20    1      3   0.16757258    12.450300    -4.248300     3.663600
      21    1      2  -0.03953996    12.474700    -6.105900    -0.944000
      22    1      1  -0.14780260    11.873100    -7.131300    -1.923500
      23    1      1  -0.14780260    11.818400    -6.807800    -3.429600
      24    1      2  -0.03953996    12.407900    -5.482500    -3.944400
      25    1      1  -0.14780260    13.178800    -4.556800    -2.988000
      26    1      1  -0.14780260    13.186700    -4.852300    -1.480600
      27    1      3   0.16757258    11.416800    -8.099500    -1.529500
      28    1      3   0.16757258    11.310900    -7.527700    -4.152300
      29    1      3   0.16757258    13.688600    -3.618300    -3.389000
      30    1      3   0.16757258    13.690000    -4.128400    -0.759000
      31    1      2  -0.03953996    12.143000    -5.001400    -5.379100
      32    1      1  -0.14780260    11.160100    -5.745700    -6.305900
      33    1      1  -0.14780260    10.689100    -5.074000    -7.613100
      34    1      2  -0.03953996    11.231500    -3.681800    -7.993200
      35    1      1  -0.14780260    12.332800    -3.025200    -7.145200
      36    1      1  -0.14780260    12.783000    -3.681500    -5.833900
      37    1      3   0.16757258    10.742900    -6.763000    -6.001900
      38    1      3   0.16757258     9.919600    -5.588000    -8.277400
      39    1      3   0.16757258    12.781900    -2.027700    -7.468000
      40    1      3   0.16757258    13.558500    -3.168400    -5.175800
      41    1      2  -0.03953996    10.640800    -2.892100    -9.172300
      42    1      1  -0.14780260     9.449300    -3.441700    -9.981700
      43    1      1  -0.14780260     8.772200    -2.550600   -11.045300
      44    1      2  -0.03953996     9.300100    -1.123300   -11.298400
      45    1      1  -0.14780260    10.540300    -0.615100   -10.548200
      46    1      1  -0.14780260    11.208300    -1.497900    -9.484700
      47    1      3   0.16757258     9.051400    -4.487300    -9.772900
      48    1      3   0.16757258     7.866300    -2.937300   -11.622500
      49    1      3   0.16757258    10.942500     0.428900   -10.757100
      50    1      3   0.16757258    12.110400    -1.106200    -8.903100
      51    1      2  -0.03953996     8.555700    -0.152200   -12.229500
      52    1      1  -0.14780260     7.243700    -0.573100   -12.913700
      53    1      1  -0.14780260     6.391000     0.482800   -13.640400
      54    1      2  -0.03953996     6.848200     1.953300   -13.658800
      55    1      1  -0.14780260     8.240100     2.335700   -13.128700
      56    1      1  -0.14780260     9.092300     1.281200   -12.403900
      57    1      3   0.16757258     6.881400    -1.653100   -12.843900
      58    1      3   0.16757258     5.397300     0.189700   -14.111400
      59    1      3   0.16757258     8.611500     3.408800   -13.220900
      60    1      3   0.16757258    10.101700     1.571700   -11.956300
      61    1      2  -0.03953996     5.856700     3.056700   -14.052700
      62    1      1  -0.14780260     4.416300     2.684900   -14.441400
      63    1      1  -0.14780260     3.321800     3.759800   -14.379800
      64    1      2  -0.03953996     3.681400     5.186900   -13.930600
      65    1      1  -0.14780260     5.155500     5.613200   -13.821000
      66    1      1  -0.14780260     6.253200     4.535800   -13.888100
      67    1      3   0.16757258     4.149000     1.605700   -14.693700
      68    1      3   0.16757258     2.234200     3.480800   -14.580100
      69    1      3   0.16757258     5.426900     6.698400   -13.609800
      70    1      3   0.16757258     7.347400     4.821300   -13.733800
      71    1      2  -0.03953996     2.552800     6.089800   -13.416200
      72    1      1  -0.14780260     1.149000     5.481600   -13.324000
      73    1      1  -0.14780260     0.070900     6.182400   -12.495600
      74    1      2  -0.03953996     0.375900     7.519100   -11.801000
      75    1      1  -0.14780260     1.727400     8.224100   -12.035700
      76    1      1  -0.14780260     2.829900     7.495800   -12.839800
      77    1      3   0.16757258     0.928900     4.474600   -13.815000
      78    1      3   0.16757258    -0.951800     5.700100   -12.369800
      79    1      3   0.16757258     1.925600     9.251300   -11.586500
      80    1      3   0.16757258     3.857300     7.976200   -12.969400
      81    1      2  -0.03953996    -0.712900     8.071000   -10.868300
      82    1      1  -0.14780260    -1.906800     7.145800   -10.612200
      83    1      1  -0.14780260    -3.093000     7.635100    -9.789100
      84    1      2  -0.03953996    -3.094000     9.049500    -9.201000
      85    1      1  -0.14780260    -1.857100     9.962500    -9.360500
      86    1      1  -0.14780260    -0.658100     9.472600   -10.214100
      87    1      3   0.16757258    -1.917300     6.096600   -11.056400
      88    1      3   0.16757258    -3.988300     6.952600    -9.621900
      89    1      3   0.16757258    -1.840400    10.998000    -8.882800
      90    1      3   0.16757258     0.246500    10.147000   -10.375500
      91    1      2  -0.03953996    -4.393300     9.473200    -8.504700
      92    1      1  -0.14780260    -5.614900     8.584200    -8.769200
      93    1      1  -0.14780260    -6.918400     8.820800    -8.010000
      94    1      2  -0.03953996    -6.977900     9.889200    -6.912000
      95    1      1  -0.14780260    -5.794200    10.862700    -6.710900
      96    1      1  -0.14780260    -4.497400    10.670200    -7.535800
      97    1      3   0.16757258    -5.542200     7.729100    -9.521900
      98    1      3   0.16757258    -7.822000     8.159000    -8.208900
      99    1      3   0.16757258    -5.865100    11.701300    -5.939400
     100    1      3   0.16757258    -3.611700    11.370800    -7.389900
     101    1      2  -0.03953996    -8.195200     9.844000    -5.975500
     102    1      1  -0.14780260    -9.305700     8.839600    -6.320300
     103    1      1  -0.14780260   -10.356000     8.467100    -5.269200
     104    1      2  -0.03953996   -10.296200     9.103700    -3.874000
     105    1      1  -0.14780260    -9.310600    10.258600    -3.592200
     106    1      1  -0.14780260    -8.255000    10.638300    -4.655900
     107    1      3   0.16757258    -9.308900     8.322600    -7.336000
     108    1      3   0.16757258   -11.140100     7.672600    -5.501300
     109    1      3   0.16757258    -9.324000    10.788500    -2.583800
     110    1      3   0.16757258    -7.487600    11.454200    -4.439200
     111    1      2  -0.03953996   -11.137900     8.473800    -2.752900
     112    1      1  -0.14780260   -11.954400     7.208400    -3.070300
     113    1      1  -0.14780260   -12.577600     6.391100    -1.928900
     114    1      2  -0.03953996   -12.407300     6.855100    -0.474000
     115    1      1  -0.14780260   -11.724100     8.203600    -0.168200
     116    1      1  -0.14780260   -11.074000     9.010200    -1.311000
     117    1      3   0.16757258   -12.048800     6.848600    -4.146600
     118    1      3   0.16757258   -13.133500     5.420400    -2.158000
     119    1      3   0.16757258   -11.656400     8.579400     0.906300
     120    1      3   0.16757258   -10.513700     9.975900    -1.084800
     121    1      2  -0.03953996   -12.834800     5.916200     0.667400
     122    1      1  -0.14780260   -13.319000     4.492100     0.333800
     123    1      1  -0.14780260   -13.521000     3.467600     1.464200
     124    1      2  -0.03953996   -13.268300     3.879600     2.925000
     125    1      1  -0.14780260   -12.930300     5.342900     3.266400
     126    1      1  -0.14780260   -12.696100     6.359800     2.134100
     127    1      3   0.16757258   -13.481200     4.185700    -0.748900
     128    1      3   0.16757258   -13.826800     2.393400     1.216900
     129    1      3   0.16757258   -12.806500     5.659400     4.353200
     130    1      3   0.16757258   -12.390800     7.430900     2.381500
     131    1      2  -0.03953996   -13.259700     2.816000     4.034600
     132    1      1  -0.14780260   -13.382100     1.325000     3.670100
     133    1      1  -0.14780260   -13.118000     0.250500     4.741100
     134    1      2  -0.03953996   -12.760200     0.674800     6.176200
     135    1      1  -0.14780260   -12.796600     2.162200     6.573100
     136    1      1  -0.14780260   -13.032000     3.236500     5.497200
     137    1      3   0.16757258   -13.618700     1.017600     2.598500
     138    1      3   0.16757258   -13.150400    -0.854000     4.462600
     139    1      3   0.16757258   -12.598800     2.469800     7.653300
     140    1      3   0.16757258   -13.003200     4.342300     5.776000
     141    1      2  -0.03953996   -12.263500    -0.366300     7.193700
     142    1      1  -0.14780260   -12.039300    -1.832800     6.773300
     143    1      1  -0.14780260   -11.283100    -2.791400     7.715900
     144    1      2  -0.03953996   -10.769900    -2.277400     9.075000
     145    1      1  -0.14780260   -11.141300    -0.863500     9.553500
     146    1      1  -0.14780260   -11.885300     0.094400     8.610600
     147    1      3   0.16757258   -12.385000    -2.192900     5.747900
     148    1      3   0.16757258   -11.063100    -3.861200     7.389100
     149    1      3   0.16757258   -10.818000    -0.509500    10.587200
     150    1      3   0.16757258   -12.113900     1.160500     8.943500
     151    1      2  -0.03953996    -9.783700    -3.109300     9.912400
     152    1      1  -0.14780260    -9.298300    -4.488100     9.423200
     153    1      1  -0.14780260    -8.114200    -5.177500    10.132500
     154    1      2  -0.03953996    -7.412000    -4.469200    11.307600
     155    1      1  -0.14780260    -7.996500    -3.168500    11.883000
     156    1      1  -0.14780260    -9.190200    -2.493800    11.190700
     157    1      3   0.16757258    -9.782600    -4.974500     8.513500
     158    1      3   0.16757258    -7.726000    -6.181200     9.754900
     159    1      3   0.16757258    -7.517600    -2.684900    12.795200
     160    1      3   0.16757258    -9.599700    -1.506600    11.592600
     161    1      2  -0.03953996    -6.069100    -4.981700    11.853700
     162    1      1  -0.14780260    -5.459100    -6.303100    11.349500
     163    1      1  -0.14780260    -4.026500    -6.692200    11.766300
     164    1      2  -0.03953996    -3.198800    -5.735200    12.645900
     165    1      1  -0.14780260    -3.846000    -4.465700    13.224100
     166    1      1  -0.14780260    -5.291700    -4.103900    12.849800
     167    1      3   0.16757258    -6.055600    -6.978900    10.650400
     168    1      3   0.16757258    -3.564100    -7.662000    11.387200
     169    1      3   0.16757258    -3.245900    -3.782100    13.913300
     170    1      3   0.16757258    -5.770600    -3.159900    13.270200
     171    1      2  -0.03953996    -1.703800    -5.997800    12.891900
     172    1      1  -0.14780260    -1.061800    -7.330600    12.465400
     173    1      1  -0.14780260     0.461800    -7.518900    12.590500
     174    1      2  -0.03953996     1.342600    -6.352400    13.078000
     175    1      1  -0.14780260     0.691700    -5.049800    13.573800
     176    1      1  -0.14780260    -0.836700    -4.885600    13.508600
     177    1      3   0.16757258    -1.709600    -8.168400    12.045000
     178    1      3   0.16757258     0.943900    -8.503700    12.272700
     179    1      3   0.16757258     1.341500    -4.200800    13.969100
     180    1      3   0.16757258    -1.322700    -3.921600    13.873000
     181    1      2  -0.03953996     2.872800    -6.458200    12.971400
     182    1      1  -0.14780260     3.514900    -7.805600    12.604000
     183    1      1  -0.14780260     5.003300    -7.863100    12.225700
     184    1      2  -0.03953996     5.824300    -6.563300    12.155600
     185    1      1  -0.14780260     5.229200    -5.247000    12.687000
     186    1      1  -0.14780260     3.750600    -5.199400    13.118700
     187    1      3   0.16757258     2.878500    -8.751200    12.570900
     188    1      3   0.16757258     5.477300    -8.855200    11.920600
     189    1      3   0.16757258     5.863900    -4.298400    12.709600
     190    1      3   0.16757258     3.291500    -4.223200    13.478500
     191    1      2  -0.03953996     9.310700    -6.554800     9.223300
     192    1      1  -0.14780260     8.769900    -7.892300     9.749500
     193    1      1  -0.14780260     7.691100    -7.900100    10.840900
     194    1      2  -0.03953996     7.161400    -6.569100    11.398000
     195    1      1  -0.14780260     7.871700    -5.248100    11.044200
     196    1      1  -0.14780260     8.954400    -5.239300     9.945400
     197    1      3   0.16757258     9.120000    -8.872900     9.283800
     198    1      3   0.16757258     7.233800    -8.886100    11.185500
     199    1      3   0.16757258     7.548000    -4.271100    11.538800
     200    1      3   0.16757258     9.438200    -4.260700     9.625200

Bonds

       1      2        1        2
       2      4        1       11
       3      1        2        3
       4      3        2        7
       5      2        3        4
       6      3        3        8
       7      2        4        5
       8      4        4      191
       9      1        5        6
      10      3        5        9
      11      2        6        1
      12      3        6       10
      13      2       11       12
      14      1       12       13
      15      3       12       17
      16      2       13       14
      17      3       13       18
      18      2       14       15
      19      4       14       21
      20      1       15       16
      21      3       15       19
      22      2       16       11
      23      3       16       20
      24      2       21       22
      25      1       22       23
      26      3       22       27
      27      2       23       24
      28      3       23       28
      29      2       24       25
      30      4       24       31
      31      1       25       26
      32      3       25       29
      33      2       26       21
      34      3       26       30
      35      2       31       32
      36      1       32       33
      37      3       32       37
      38      2       33       34
      39      3       33       38
      40      2       34       35
      41      4       34       41
      42      1       35       36
      43      3       35       39
      44      2       36       31
      45      3       36       40
      46      2       41       42
      47      1       42       43
      48      3       42       47
      49      2       43       44
      50      3       43       48
      51      2       44       45
      52      4       44       51
      53      1       45       46
      54      3       45       49
      55      2       46       41
      56      3       46       50
      57      2       51       52
      58      1       52       53
      59      3       52       57
      60      2       53       54
      61      3       53       58
      62      2       54       55
      63      4       54       61
      64      1       55       56
      65      3       55       59
      66      2       56       51
      67      3       56       60
      68      2       61       62
      69      1       62       63
      70      3       62       67
      71      2       63       64
      72      3       63       68
      73      2       64       65
      74      4       64       71
      75      1       65       66
      76      3       65       69
      77      2       66       61
      78      3       66       70
      79      2       71       72
      80      1       72       73
      81      3       72       77
      82      2       73       74
      83      3       73       78
      84      2       74       75
      85      4       74       81
      86      1       75       76
      87      3       75       79
      88      2       76       71
      89      3       76       80
      90      2       81       82
      91      1       82       83
      92      3       82       87
      93      2       83       84
      94      3       83       88
      95      2       84       85
      96      4       84       91
      97      1       85       86
      98      3       85       89
      99      2       86       81
     100      3       86       90
     101      2       91       92
     102      1       92       93
     103      3       92       97
     104      2       93       94
     105      3       93       98
     106      2       94       95
     107      4       94      101
     108      1       95       96
     109      3       95       99
     110      2       96       91
     111      3       96      100
     112      2      101      102
     113      1      102      103
     114      3      102      107
     115      2      103      104
     116      3      103      108
     117      2      104      105
     118      4      104      111
     119      1      105      106
     120      3      105      109
     121      2      106      101
     122      3      106      110
     123      2      111      112
     124      1      112      113
     125      3      112      117
     126      2      113      114
     127      3      113      118
     128      2      114      115
     129      4      114      121
     130      1      115      116
     131      3      115      119
     132      2      116      111
     133      3      116      120
     134      2      121      122
     135      1      122      123
     136      3      122      127
     137      2      123      124
     138      3      123      128
     139      2      124      125
     140      4      124      131
     141      1      125      126
     142      3      125      129
     143      2      126      121
     144      3      126      130
     145      2      131      132
     146      1      132      133
     147      3      132      137
     148      2      133      134
     149      3      133      138
     150      2      134      135
     151      4      134      141
     152      1      135      136
     153      3      135      139
     154      2      136      131
     155      3      136      140
     156      2      141      142
     157      1      142      143
     158      3      142      147
     159      2      143      144
     160      3      143      148
     161      2      144      145
     162      4      144      151
     163      1      145      146
     164      3      145      149
     165      2      146      141
     166      3      146      150
     167      2      151      152
     168      1      152      153
     169      3      152      157
     170      2      153      154
     171      3      153      158
     172      2      154      155
     173      4      154      161
     174      1      155      156
     175      3      155      159
     176      2      156      151
     177      3      156      160
     178      2      161      162
     179      1      162      163
     180      3      162      167
     181      2      163      164
     182      3      163      168
     183      2      164      165
     184      4      164      171
     185      1      165      166
     186      3      165      169
     187      2      166      161
     188      3      166      170
     189      2      171      172
     190      1      172      173
     191      3      172      177
     192      2      173      174
     193      3      173      178
     194      2      174      175
     195      4      174      181
     196      1      175      176
     197      3      175      179
     198      2      176      171
     199      3      176      180
     200      2      181      182
     201      1      182      183
     202      3      182      187
     203      2      183      184
     204      3      183      188
     205      2      184      185
     206      4      184      194
     207      1      185      186
     208      3      185      189
     209      2      186      181
     210      3      186      190
     211      2      191      192
     212      1      192      193
     213      3      192      197
     214      2      193      194
     215      3      193      198
     216      2      194      195
     217      1      195      196
     218      3      195      199
     219      2      196      191
     220      3      196      200

Angles

       1      1        1        2        3
       2      5        1        2        7
       3      1        1        6        5
       4      5        1        6       10
       5      4        1       11       12
       6      4        1       11       16
       7      3        2        1        6
       8      4        2        1       11
       9      1        2        3        4
      10      2        2        3        8
      11      2        3        2        7
      12      3        3        4        5
      13      4        3        4      191
      14      5        4        3        8
      15      1        4        5        6
      16      5        4        5        9
      17      4        4      191      192
      18      4        4      191      196
      19      4        5        4      191
      20      2        5        6       10
      21      4        6        1       11
      22      2        6        5        9
      23      1       11       12       13
      24      5       11       12       17
      25      1       11       16       15
      26      5       11       16       20
      27      3       12       11       16
      28      1       12       13       14
      29      2       12       13       18
      30      2       13       12       17
      31      3       13       14       15
      32      4       13       14       21
      33      5       14       13       18
      34      1       14       15       16
      35      5       14       15       19
      36      4       14       21       22
      37      4       14       21       26
      38      4       15       14       21
      39      2       15       16       20
      40      2       16       15       19
      41      1       21       22       23
      42      5       21       22       27
      43      1       21       26       25
      44      5       21       26       30
      45      3       22       21       26
      46      1       22       23       24
      47      2       22       23       28
      48      2       23       22       27
      49      3       23       24       25
      50      4       23       24       31
      51      5       24       23       28
      52      1       24       25       26
      53      5       24       25       29
      54      4       24       31       32
      55      4       24       31       36
      56      4       25       24       31
      57      2       25       26       30
      58      2       26       25       29
      59      1       31       32       33
      60      5       31       32       37
      61      1       31       36       35
      62      5       31       36       40
      63      3       32       31       36
      64      1       32       33       34
      65      2       32       33       38
      66      2       33       32       37
      67      3       33       34       35
      68      4       33       34       41
      69      5       34       33       38
      70      1       34       35       36
      71      5       34       35       39
      72      4       34       41       42
      73      4       34       41       46
      74      4       35       34       41
      75      2       35       36       40
      76      2       36       35       39
      77      1       41       42       43
      78      5       41       42       47
      79      1       41       46       45
      80      5       41       46       50
      81      3       42       41       46
      82      1       42       43       44
      83      2       42       43       48
      84      2       43       42       47
      85      3       43       44       45
      86      4       43       44       51
      87      5       44       43       48
      88      1       44       45       46
      89      5       44       45       49
      90      4       44       51       52
      91      4       44       51       56
      92      4       45       44       51
      93      2       45       46       50
      94      2       46       45       49
      95      1       51       52       53
      96      5       51       52       57
      97      1       51       56       55
      98      5       51       56       60
      99      3       52       51       56
     100      1       52       53       54
     101      2       52       53       58
     102      2       53       52       57
     103      3       53       54       55
     104      4       53       54       61
     105      5       54       53       58
     106      1       54       55       56
     107      5       54       55       59
     108      4       54       61       62
     109      4       54       61       66
     110      4       55       54       61
     111      2       55       56       60
     112      2       56       55       59
     113      1       61       62       63
     114      5       61       62       67
     115      1       61       66       65
     116      5       61       66       70
     117      3       62       61       66
     118      1       62       63       64
     119      2       62       63       68
     120      2       63       62       67
     121      3       63       64       65
     122      4       63       64       71
     123      5       64       63       68
     124      1       64       65       66
     125      5       64       65       69
     126      4       64       71       72
     127      4       64       71       76
     128      4       65       64       71
     129      2       65       66       70
     130      2       66       65       69
     131      1       71       72       73
     132      5       71       72       77
     133      1       71       76       75
     134      5       71       76       80
     135      3       72       71       76
     136      1       72       73       74
     137      2       72       73       78
     138      2       73       72       77
     139      3       73       74       75
     140      4       73       74       81
     141      5       74       73       78
     142      1       74       75       76
     143      5       74       75       79
     144      4       74       81       82
     145      4       74       81       86
     146      4       75       74       81
     147      2       75       76       80
     148      2       76       75       79
     149      1       81       82       83
     150      5       81       82       87
     151      1       81       86       85
     152      5       81       86       90
     153      3       82       81       86
     154      1       82       83       84
     155      2       82       83       88
     156      2       83       82       87
     157      3       83       84       85
     158      4       83       84       91
     159      5       84       83       88
     160      1       84       85       86
     161      5       84       85       89
     162      4       84       91       92
     163      4       84       91       96
     164      4       85       84       91
     165      2       85       86       90
     166      2       86       85       89
     167      1       91       92       93
     168      5       91       92       97
     169      1       91       96       95
     170      5       91       96      100
     171      3       92       91       96
     172      1       92       93       94
     173      2       92       93       98
     174      2       93       92       97
     175      3       93       94       95
     176      4       93       94      101
     177      5       94       93       98
     178      1       94       95       96
     179      5       94       95       99
     180      4       94      101      102
     181      4       94      101      106
     182      4       95       94      101
     183      2       95       96      100
     184      2       96       95       99
     185      1      101      102      103
     186      5      101      102      107
     187      1      101      106      105
     188      5      101      106      110
     189      3      102      101      106
     190      1      102      103      104
     191      2      102      103      108
     192      2      103      102      107
     193      3      103      104      105
     194      4      103      104      111
     195      5      104      103      108
     196      1      104      105      106
     197      5      104      105      109
     198      4      104      111      112
     199      4      104      111      116
     200      4      105      104      111
     201      2      105      106      110
     202      2      106      105      109
     203      1      111      112      113
     204      5      111      112      117
     205      1      111      116      115
     206      5      111      116      120
     207      3      112      111      116
     208      1      112      113      114
     209      2      112      113      118
     210      2      113      112      117
     211      3      113      114      115
     212      4      113      114      121
     213      5      114      113      118
     214      1      114      115      116
     215      5      114      115      119
     216      4      114      121      122
     217      4      114      121      126
     218      4      115      114      121
     219      2      115      116      120
     220      2      116      115      119
     221      1      121      122      123
     222      5      121      122      127
     223      1      121      126      125
     224      5      121      126      130
     225      3      122      121      126
     226      1      122      123      124
     227      2      122      123      128
     228      2      123      122      127
     229      3      123      124      125
     230      4      123      124      131
     231      5      124      123      128
     232      1      124      125      126
     233      5      124      125      129
     234      4      124      131      132
     235      4      124      131      136
     236      4      125      124      131
     237      2      125      126      130
     238      2      126      125      129
     239      1      131      132      133
     240      5      131      132      137
     241      1      131      136      135
     242      5      131      136      140
     243      3      132      131      136
     244      1      132      133      134
     245      2      132      133      138
     246      2      133      132      137
     247      3      133      134      135
     248      4      133      134      141
     249      5      134      133      138
     250      1      134      135      136
     251      5      134      135      139
     252      4      134      141      142
     253      4      134      141      146
     254      4      135      134      141
     255      2      135      136      140
     256      2      136      135      139
     257      1      141      142      143
     258      5      141      142      147
     259      1      141      146      145
     260      5      141      146      150
     261      3      142      141      146
     262      1      142      143      144
     263      2      142      143      148
     264      2      143      142      147
     265      3      143      144      145
     266      4      143      144      151
     267      5      144      143      148
     268      1      144      145      146
     269      5      144      145      149
     270      4      144      151      152
     271      4      144      151      156
     272      4      145      144      151
     273      2      145      146      150
     274      2      146      145      149
     275      1      151      152      153
     276      5      151      152      157
     277      1      151      156      155
     278      5      151      156      160
     279      3      152      151      156
     280      1      152      153      154
     281      2      152      153      158
     282      2      153      152      157
     283      3      153      154      155
     284      4      153      154      161
     285      5      154      153      158
     286      1      154      155      156
     287      5      154      155      159
     288      4      154      161      162
     289      4      154      161      166
     290      4      155      154      161
     291      2      155      156      160
     292      2      156      155      159
     293      1      161      162      163
     294      5      161      162      167
     295      1      161      166      165
     296      5      161      166      170
     297      3      162      161      166
     298      1      162      163      164
     299      2      162      163      168
     300      2      163      162      167
     301      3      163      164      165
     302      4      163      164      171
     303      5      164      163      168
     304      1      164      165      166
     305      5      164      165      169
     306      4      164      171      172
     307      4      164      171      176
     308      4      165      164      171
     309      2      165      166      170
     310      2      166      165      169
     311      1      171      172      173
     312      5      171      172      177
     313      1      171      176      175
     314      5      171      176      180
     315      3      172      171      176
     316      1      172      173      174
     317      2      172      173      178
     318      2      173      172      177
     319      3      173      174      175
     320      4      173      174      181
     321      5      174      173      178
     322      1      174      175      176
     323      5      174      175      179
     324      4      174      181      182
     325      4      174      181      186
     326      4      175      174      181
     327      2      175      176      180
     328      2      176      175      179
     329      1      181      182      183
     330      5      181      182      187
     331      1      181      186      185
     332      5      181      186      190
     333      3      182      181      186
     334      1      182      183      184
     335      2      182      183      188
     336      2      183      182      187
     337      3      183      184      185
     338      4      183      184      194
     339      5      184      183      188
     340      1      184      185      186
     341      5      184      185      189
     342      4      184      194      193
     343      4      184      194      195
     344      4      185      184      194
     345      2      185      186      190
     346      2      186      185      189
     347      1      191      192      193
     348      5      191      192      197
     349      1      191      196      195
     350      5      191      196      200
     351      3      192      191      196
     352      1      192      193      194
     353      2      192      193      198
     354      2      193      192      197
     355      3      193      194      195
     356      5      194      193      198
     357      1      194      195      196
     358      5      194      195      199
     359      2      195      196      200
     360      2      196      195      199

Dihedrals

       1      5        1        2        3        4
       2      6        1        2        3        8
       3      5        1        6        5        4
       4      6        1        6        5        9
       5      2        1       11       12       13
       6      7        1       11       12       17
       7      2        1       11       16       15
       8      7        1       11       16       20
       9      1        2        1        6        5
      10      3        2        1        6       10
      11      4        2        1       11       12
      12      4        2        1       11       16
      13      1        2        3        4        5
      14      2        2        3        4      191
      15      1        3        2        1        6
      16      2        3        2        1       11
      17      1        3        4        5        6
      18      3        3        4        5        9
      19      4        3        4      191      192
      20      4        3        4      191      196
      21      6        4        3        2        7
      22      6        4        5        6       10
      23      2        4      191      192      193
      24      7        4      191      192      197
      25      2        4      191      196      195
      26      7        4      191      196      200
      27      3        5        4        3        8
      28      4        5        4      191      192
      29      4        5        4      191      196
      30      2        5        6        1       11
      31      3        6        1        2        7
      32      4        6        1       11       12
      33      4        6        1       11       16
      34      2        6        5        4      191
      35      7        7        2        1       11
      36      8        7        2        3        8
      37      7        8        3        4      191
      38      7        9        5        4      191
      39      8        9        5        6       10
      40      7       10        6        1       11
      41      5       11       12       13       14
      42      6       11       12       13       18
      43      5       11       16       15       14
      44      6       11       16       15       19
      45      1       12       11       16       15
      46      3       12       11       16       20
      47      1       12       13       14       15
      48      2       12       13       14       21
      49      1       13       12       11       16
      50      1       13       14       15       16
      51      3       13       14       15       19
      52      4       13       14       21       22
      53      4       13       14       21       26
      54      6       14       13       12       17
      55      6       14       15       16       20
      56      2       14       21       22       23
      57      7       14       21       22       27
      58      2       14       21       26       25
      59      7       14       21       26       30
      60      3       15       14       13       18
      61      4       15       14       21       22
      62      4       15       14       21       26
      63      3       16       11       12       17
      64      2       16       15       14       21
      65      8       17       12       13       18
      66      7       18       13       14       21
      67      7       19       15       14       21
      68      8       19       15       16       20
      69      5       21       22       23       24
      70      6       21       22       23       28
      71      5       21       26       25       24
      72      6       21       26       25       29
      73      1       22       21       26       25
      74      3       22       21       26       30
      75      1       22       23       24       25
      76      2       22       23       24       31
      77      1       23       22       21       26
      78      1       23       24       25       26
      79      3       23       24       25       29
      80      4       23       24       31       32
      81      4       23       24       31       36
      82      6       24       23       22       27
      83      6       24       25       26       30
      84      2       24       31       32       33
      85      7       24       31       32       37
      86      2       24       31       36       35
      87      7       24       31       36       40
      88      3       25       24       23       28
      89      4       25       24       31       32
      90      4       25       24       31       36
      91      3       26       21       22       27
      92      2       26       25       24       31
      93      8       27       22       23       28
      94      7       28       23       24       31
      95      7       29       25       24       31
      96      8       29       25       26       30
      97      5       31       32       33       34
      98      6       31       32       33       38
      99      5       31       36       35       34
     100      6       31       36       35       39
     101      1       32       31       36       35
     102      3       32       31       36       40
     103      1       32       33       34       35
     104      2       32       33       34       41
     105      1       33       32       31       36
     106      1       33       34       35       36
     107      3       33       34       35       39
     108      4       33       34       41       42
     109      4       33       34       41       46
     110      6       34       33       32       37
     111      6       34       35       36       40
     112      2       34       41       42       43
     113      7       34       41       42       47
     114      2       34       41       46       45
     115      7       34       41       46       50
     116      3       35       34       33       38
     117      4       35       34       41       42
     118      4       35       34       41       46
     119      3       36       31       32       37
     120      2       36       35       34       41
     121      8       37       32       33       38
     122      7       38       33       34       41
     123      7       39       35       34       41
     124      8       39       35       36       40
     125      5       41       42       43       44
     126      6       41       42       43       48
     127      5       41       46       45       44
     128      6       41       46       45       49
     129      1       42       41       46       45
     130      3       42       41       46       50
     131      1       42       43       44       45
     132      2       42       43       44       51
     133      1       43       42       41       46
     134      1       43       44       45       46
     135      3       43       44       45       49
     136      4       43       44       51       52
     137      4       43       44       51       56
     138      6       44       43       42       47
     139      6       44       45       46       50
     140      2       44       51       52       53
     141      7       44       51       52       57
     142      2       44       51       56       55
     143      7       44       51       56       60
     144      3       45       44       43       48
     145      4       45       44       51       52
     146      4       45       44       51       56
     147      3       46       41       42       47
     148      2       46       45       44       51
     149      8       47       42       43       48
     150      7       48       43       44       51
     151      7       49       45       44       51
     152      8       49       45       46       50
     153      5       51       52       53       54
     154      6       51       52       53       58
     155      5       51       56       55       54
     156      6       51       56       55       59
     157      1       52       51       56       55
     158      3       52       51       56       60
     159      1       52       53       54       55
     160      2       52       53       54       61
     161      1       53       52       51       56
     162      1       53       54       55       56
     163      3       53       54       55       59
     164      4       53       54       61       62
     165      4       53       54       61       66
     166      6       54       53       52       57
     167      6       54       55       56       60
     168      2       54       61       62       63
     169      7       54       61       62       67
     170      2       54       61       66       65
     171      7       54       61       66       70
     172      3       55       54       53       58
     173      4       55       54       61       62
     174      4       55       54       61       66
     175      3       56       51       52       57
     176      2       56       55       54       61
     177      8       57       52       53       58
     178      7       58       53       54       61
     179      7       59       55       54       61
     180      8       59       55       56       60
     181      5       61       62       63       64
     182      6       61       62       63       68
     183      5       61       66       65       64
     184      6       61       66       65       69
     185      1       62       61       66       65
     186      3       62       61       66       70
     187      1       62       63       64       65
     188      2       62       63       64       71
     189      1       63       62       61       66
     190      1       63       64       65       66
     191      3       63       64       65       69
     192      4       63       64       71       72
     193      4       63       64       71       76
     194      6       64       63       62       67
     195      6       64       65       66       70
     196      2       64       71       72       73
     197      7       64       71       72       77
     198      2       64       71       76       75
     199      7       64       71       76       80
     200      3       65       64       63       68
     201      4       65       64       71       72
     202      4       65       64       71       76
     203      3       66       61       62       67
     204      2       66       65       64       71
     205      8       67       62       63       68
     206      7       68       63       64       71
     207      7       69       65       64       71
     208      8       69       65       66       70
     209      5       71       72       73       74
     210      6       71       72       73       78
     211      5       71       76       75       74
     212      6       71       76       75       79
     213      1       72       71       76       75
     214      3       72       71       76       80
     215      1       72       73       74       75
     216      2       72       73       74       81
     217      1       73       72       71       76
     218      1       73       74       75       76
     219      3       73       74       75       79
     220      4       73       74       81       82
     221      4       73       74       81       86
     222      6       74       73       72       77
     223      6       74       75       76       80
     224      2       74       81       82       83
     225      7       74       81       82       87
     226      2       74       81       86       85
     227      7       74       81       86       90
     228      3       75       74       73       78
     229      4       75       74       81       82
     230      4       75       74       81       86
     231      3       76       71       72       77
     232      2       76       75       74       81
     233      8       77       72       73       78
     234      7       78       73       74       81
     235      7       79       75       74       81
     236      8       79       75       76       80
     237      5       81       82       83       84
     238      6       81       82       83       88
     239      5       81       86       85       84
     240      6       81       86       85       89
     241      1       82       81       86       85
     242      3       82       81       86       90
     243      1       82       83       84       85
     244      2       82       83       84       91
     245      1       83       82       81       86
     246      1       83       84       85       86
     247      3       83       84       85       89
     248      4       83       84       91       92
     249      4       83       84       91       96
     250      6       84       83       82       87
     251      6       84       85       86       90
     252      2       84       91       92       93
     253      7       84       91       92       97
     254      2       84       91       96       95
     255      7       84       91       96      100
     256      3       85       84       83       88
     257      4       85       84       91       92
     258      4       85       84       91       96
     259      3       86       81       82       87
     260      2       86       85       84       91
     261      8       87       82       83       88
     262      7       88       83       84       91
     263      7       89       85       84       91
     264      8       89       85       86       90
     265      5       91       92       93       94
     266      6       91       92       93       98
     267      5       91       96       95       94
     268      6       91       96       95       99
     269      1       92       91       96       95
     270      3       92       91       96      100
     271      1       92       93       94       95
     272      2       92       93       94      101
     273      1       93       92       91       96
     274      1       93       94       95       96
     275      3       93       94       95       99
     276      4       93       94      101      102
     277      4       93       94      101      106
     278      6       94       93       92       97
     279      6       94       95       96      100
     280      2       94      101      102      103
     281      7       94      101      102      107
     282      2       94      101      106      105
     283      7       94      101      106      110
     284      3       95       94       93       98
     285      4       95       94      101      102
     286      4       95       94      101      106
     287      3       96       91       92       97
     288      2       96       95       94      101
     289      8       97       92       93       98
     290      7       98       93       94      101
     291      7       99       95       94      101
     292      8       99       95       96      100
     293      5      101      102      103      104
     294      6      101      102      103      108
     295      5      101      106      105      104
     296      6      101      106      105      109
     297      1      102      101      106      105
     298      3      102      101      106      110
     299      1      102      103      104      105
     300      2      102      103      104      111
     301      1      103      102      101      106
     302      1      103      104      105      106
     303      3      103      104      105      109
     304      4      103      104      111      112
     305      4      103      104      111      116
     306      6      104      103      102      107
     307      6      104      105      106      110
     308      2      104      111      112      113
     309      7      104      111      112      117
     310      2      104      111      116      115
     311      7      104      111      116      120
     312      3      105      104      103      108
     313      4      105      104      111      112
     314      4      105      104      111      116
     315      3      106      101      102      107
     316      2      106      105      104      111
     317      8      107      102      103      108
     318      7      108      103      104      111
     319      7      109      105      104      111
     320      8      109      105      106      110
     321      5      111      112      113      114
     322      6      111      112      113      118
     323      5      111      116      115      114
     324      6      111      116      115      119
     325      1      112      111      116      115
     326      3      112      111      116      120
     327      1      112      113      114      115
     328      2      112      113      114      121
     329      1      113      112      111      116
     330      1      113      114      115      116
     331      3      113      114      115      119
     332      4      113      114      121      122
     333      4      113      114      121      126
     334      6      114      113      112      117
     335      6      114      115      116      120
     336      2      114      121      122      123
     337      7      114      121      122      127
     338      2      114      121      126      125
     339      7      114      121      126      130
     340      3      115      114      113      118
     341      4      115      114      121      122
     342      4      115      114      121      126
     343      3      116      111      112      117
     344      2      116      115      114      121
     345      8      117      112      113      118
     346      7      118      113      114      121
     347      7      119      115      114      121
     348      8      119      115      116      120
     349      5      121      122      123      124
     350      6      121      122      123      128
     351      5      121      126      125      124
     352      6      121      126      125      129
     353      1      122      121      126      125
     354      3      122      121      126      130
     355      1      122      123      124      125
     356      2      122      123      124      131
     357      1      123      122      121      126
     358      1      123      124      125      126
     359      3      123      124      125      129
     360      4      123      124      131      132
     361      4      123      124      131      136
     362      6      124      123      122      127
     363      6      124      125      126      130
     364      2      124      131      132      133
     365      7      124      131      132      137
     366      2      124      131      136      135
     367      7      124      131      136      140
     368      3      125      124      123      128
     369      4      125      124      131      132
     370      4      125      124      131      136
     371      3      126      121      122      127
     372      2      126      125      124      131
     373      8      127      122      123      128
     374      7      128      123      124      131
     375      7      129      125      124      131
     376      8      129      125      126      130
     377      5      131      132      133      134
     378      6      131      132      133      138
     379      5      131      136      135      134
     380      6      131      136      135      139
     381      1      132      131      136      135
     382      3      132      131      136      140
     383      1      132      133      134      135
     384      2      132      133      134      141
     385      1      133      132      131      136
     386      1      133      134      135      136
     387      3      133      134      135      139
     388      4      133      134      141      142
     389      4      133      134      141      146
     390      6      134      133      132      137
     391      6      134      135      136      140
     392      2      134      141      142      143
     393      7      134      141      142      147
     394      2      134      141      146      145
     395      7      134      141      146      150
     396      3      135      134      133      138
     397      4      135      134      141      142
     398      4      135      134      141      146
     399      3      136      131      132      137
     400      2      136      135      134      141
     401      8      137      132      133      138
     402      7      138      133      134      141
     403      7      139      135      134      141
     404      8      139      135      136      140
     405      5      141      142      143      144
     406      6      141      142      143      148
     407      5      141      146      145      144
     408      6      141      146      145      149
     409      1      142      141      146      145
     410      3      142      141      146      150
     411      1      142      143      144      145
     412      2      142      143      144      151
     413      1      143      142      141      146
     414      1      143      144      145      146
     415      3      143      144      145      149
     416      4      143      144      151      152
     417      4      143      144      151      156
     418      6      144      143      142      147
     419      6      144      145      146      150
     420      2      144      151      152      153
     421      7      144      151      152      157
     422      2      144      151      156      155
     423      7      144      151      156      160
     424      3      145      144      143      148
     425      4      145      144      151      152
     426      4      145      144      151      156
     427      3      146      141      142      147
     428      2      146      145      144      151
     429      8      147      142      143      148
     430      7      148      143      144      151
     431      7      149      145      144      151
     432      8      149      145      146      150
     433      5      151      152      153      154
     434      6      151      152      153      158
     435      5      151      156      155      154
     436      6      151      156      155      159
     437      1      152      151      156      155
     438      3      152      151      156      160
     439      1      152      153      154      155
     440      2      152      153      154      161
     441      1      153      152      151      156
     442      1      153      154      155      156
     443      3      153      154      155      159
     444      4      153      154      161      162
     445      4      153      154      161      166
     446      6      154      153      152      157
     447      6      154      155      156      160
     448      2      154      161      162      163
     449      7      154      161      162      167
     450      2      154      161      166      165
     451      7      154      161      166      170
     452      3      155      154      153      158
     453      4      155      154      161      162
     454      4      155      154      161      166
     455      3      156      151      152      157
     456      2      156      155      154      161
     457      8      157      152      153      158
     458      7      158      153      154      161
     459      7      159      155      154      161
     460      8      159      155      156      160
     461      5      161      162      163      164
     462      6      161      162      163      168
     463      5      161      166      165      164
     464      6      161      166      165      169
     465      1      162      161      166      165
     466      3      162      161      166      170
     467      1      162      163      164      165
     468      2      162      163      164      171
     469      1      163      162      161      166
     470      1      163      164      165      166
     471      3      163      164      165      169
     472      4      163      164      171      172
     473      4      163      164      171      176
     474      6      164      163      162      167
     475      6      164      165      166      170
     476      2      164      171      172      173
     477      7      164      171      172      177
     478      2      164      171      176      175
     479      7      164      171      176      180
     480      3      165      164      163      168
     481      4      165      164      171      172
     482      4      165      164      171      176
     483      3      166      161      162      167
     484      2      166      165      164      171
     485      8      167      162      163      168
     486      7      168      163      164      171
     487      7      169      165      164      171
     488      8      169      165      166      170
     489      5      171      172      173      174
     490      6      171      172      173      178
     491      5      171      176      175      174
     492      6      171      176      175      179
     493      1      172      171      176      175
     494      3      172      171      176      180
     495      1      172      173      174      175
     496      2      172      173      174      181
     497      1      173      172      171      176
     498      1      173      174      175      176
     499      3      173      174      175      179
     500      4      173      174      181      182
     501      4      173      174      181      186
     502      6      174      173      172      177
     503      6      174      175      176      180
     504      2      174      181      182      183
     505      7      174      181      182      187
     506      2      174      181      186      185
     507      7      174      181      186      190
     508      3      175      174      173      178
     509      4      175      174      181      182
     510      4      175      174      181      186
     511      3      176      171      172      177
     512      2      176      175      174      181
     513      8      177      172      173      178
     514      7      178      173      174      181
     515      7      179      175      174      181
     516      8      179      175      176      180
     517      5      181      182      183      184
     518      6      181      182      183      188
     519      5      181      186      185      184
     520      6      181      186      185      189
     521      1      182      181      186      185
     522      3      182      181      186      190
     523      1      182      183      184      185
     524      2      182      183      184      194
     525      1      183      182      181      186
     526      1      183      184      185      186
     527      3      183      184      185      189
     528      4      183      184      194      193
     529      4      183      184      194      195
     530      6      184      183      182      187
     531      6      184      185      186      190
     532      2      184      194      193      192
     533      7      184      194      193      198
     534      2      184      194      195      196
     535      7      184      194      195      199
     536      3      185      184      183      188
     537      4      185      184      194      193
     538      4      185      184      194      195
     539      3      186      181      182      187
     540      2      186      185      184      194
     541      8      187      182      183      188
     542      7      188      183      184      194
     543      7      189      185      184      194
     544      8      189      185      186      190
     545      5      191      192      193      194
     546      6      191      192      193      198
     547      5      191      196      195      194
     548      6      191      196      195      199
     549      1      192      191      196      195
     550      3      192      191      196      200
     551      1      192      193      194      195
     552      1      193      192      191      196
     553      1      193      194      195      196
     554      3      193      194      195      199
     555      6      194      193      192      197
     556      6      194      195      196      200
     557      3      195      194      193      198
     558      3      196      191      192      197
     559      8      197      192      193      198
     560      8      199      195      196      200

Impropers

       1      2        2        1        6       11
       2      1        1        2        3        7
       3      1        2        3        4        8
       4      2        3        4        5      191
       5      1        4        5        6        9
       6      1        1        6        5       10
       7      2        1       11       12       16
       8      1       11       12       13       17
       9      1       12       13       14       18
      10      2       13       14       15       21
      11      1       14       15       16       19
      12      1       11       16       15       20
      13      2       14       21       22       26
      14      1       21       22       23       27
      15      1       22       23       24       28
      16      2       23       24       25       31
      17      1       24       25       26       29
      18      1       21       26       25       30
      19      2       24       31       32       36
      20      1       31       32       33       37
      21      1       32       33       34       38
      22      2       33       34       35       41
      23      1       34       35       36       39
      24      1       31       36       35       40
      25      2       34       41       42       46
      26      1       41       42       43       47
      27      1       42       43       44       48
      28      2       43       44       45       51
      29      1       44       45       46       49
      30      1       41       46       45       50
      31      2       44       51       52       56
      32      1       51       52       53       57
      33      1       52       53       54       58
      34      2       53       54       55       61
      35      1       54       55       56       59
      36      1       51       56       55       60
      37      2       54       61       62       66
      38      1       61       62       63       67
      39      1       62       63       64       68
      40      2       63       64       65       71
      41      1       64       65       66       69
      42      1       61       66       65       70
      43      2       64       71       72       76
      44      1       71       72       73       77
      45      1       72       73       74       78
      46      2       73       74       75       81
      47      1       74       75       76       79
      48      1       71       76       75       80
      49      2       74       81       82       86
      50      1       81       82       83       87
      51      1       82       83       84       88
      52      2       83       84       85       91
      53      1       84       85       86       89
      54      1       81       86       85       90
      55      2       84       91       92       96
      56      1       91       92       93       97
      57      1       92       93       94       98
      58      2       93       94       95      101
      59      1       94       95       96       99
      60      1       91       96       95      100
      61      2       94      101      102      106
      62      1      101      102      103      107
      63      1      102      103      104      108
      64      2      103      104      105      111
      65      1      104      105      106      109
      66      1      101      106      105      110
      67      2      104      111      112      116
      68      1      111      112      113      117
      69      1      112      113      114      118
      70      2      113      114      115      121
      71      1      114      115      116      119
      72      1      111      116      115      120
      73      2      114      121      122      126
      74      1      121      122      123      127
      75      1      122      123      124      128
      76      2      123      124      125      131
      77      1      124      125      126      129
      78      1      121      126      125      130
      79      2      124      131      132      136
      80      1      131      132      133      137
      81      1      132      133      134      138
      82      2      133      134      135      141
      83      1      134      135      136      139
      84      1      131      136      135      140
      85      2      134      141      142      146
      86      1      141      142      143      147
      87      1      142      143      144      148
      88      2      143      144      145      151
      89      1      144      145      146      149
      90      1      141      146      145      150
      91      2      144      151      152      156
      92      1      151      152      153      157
      93      1      152      153      154      158
      94      2      153      154      155      161
      95      1      154      155      156      159
      96      1      151      156      155      160
      97      2      154      161      162      166
      98      1      161      162      163      167
      99      1      162      163      164      168
     100      2      163      164      165      171
     101      1      164      165      166      169
     102      1      161      166      165      170
     103      2      164      171      172      176
     104      1      171      172      173      177
     105      1      172      173      174      178
     106      2      173      174      175      181
     107      1      174      175      176      179
     108      1      171      176      175      180
     109      2      174      181      182      186
     110      1      181      182      183      187
     111      1      182      183      184      188
     112      2      183      184      185      194
     113      1      184      185      186      189
     114      1      181      186      185      190
     115      2        4      191      192      196
     116      1      191      192      193      197
     117      1      192      193      194      198
     118      2      184      194      193      195
     119      1      194      195      196      199
     120      1      191      196      195      200

