LAMMPS data file generated by clean-room 1-hop pipeline

     210 atoms
     231 bonds
     378 angles
     588 dihedrals
     126 impropers

       3 atom types
       4 bond types
       5 angle types
       8 dihedral types
       2 improper types

  -29.443300    30.915200 xlo xhi
  -33.337200    35.457800 ylo yhi
  -36.811500    36.002200 zlo zhi

Masses

       1    12.011000
       2    12.011000
       3     1.008000

Pair Coeffs

       1     0.070000     3.550000
       2     0.070000     3.550000
       3     0.030000     2.420000

Bond Coeffs

       1   469.000000     1.400000
       2   469.000000     1.400000
       3   367.000000     1.080000
       4   385.000000     1.460000

Angle Coeffs

       1    63.000000   120.000000
       2    35.000000   120.000000
       3    63.000000   120.000000
       4    63.000000   120.000000
       5    35.000000   120.000000

Dihedral Coeffs

       1     0.000000     7.250000     0.000000     0.000000
       2     0.000000     7.250000     0.000000     0.000000
       3     0.000000     7.250000     0.000000     0.000000
       4     0.000000     1.650000     0.000000    -0.050000
       5     0.000000     7.250000     0.000000     0.000000
       6     0.000000     7.250000     0.000000     0.000000
       7     0.000000     7.250000     0.000000     0.000000
       8     0.000000     7.250000     0.000000     0.000000

Improper Coeffs

       1     2.500000   -1    2
       2     2.500000   -1    2

Atoms

       1    1      2  -0.03953996    -8.535300     5.845000    11.065900
       2    1      1  -0.14780260    -8.581500     5.672200     9.542300
       3    1      1  -0.14780260    -8.137400     6.824700     8.636200
       4    1      2  -0.03953996    -7.766500     8.186600     9.244900
       5    1      1  -0.14780260    -7.957500     8.435100    10.753600
       6    1      1  -0.14780260    -8.293600     7.242200    11.677500
       7    1      3   0.16757258    -8.857400     4.662700     9.089900
       8    1      3   0.16757258    -8.056300     6.664500     7.510400
       9    1      3   0.16757258    -7.770300     9.469500    11.194500
      10    1      3   0.16757258    -8.329100     7.385700    12.807900
      11    1      2  -0.03953996    -8.577800     4.578100    11.935600
      12    1      1  -0.14780260    -8.971000     3.241600    11.280600
      13    1      1  -0.14780260    -8.653700     1.917500    11.993300
      14    1      2  -0.03953996    -7.894300     1.939400    13.329800
      15    1      1  -0.14780260    -7.685200     3.273300    14.074000
      16    1      1  -0.14780260    -8.058300     4.600500    13.384200
      17    1      3   0.16757258    -9.443300     3.232300    10.243000
      18    1      3   0.16757258    -8.905600     0.923800    11.494400
      19    1      3   0.16757258    -7.207700     3.281200    15.109100
      20    1      3   0.16757258    -7.868600     5.594000    13.910300
      21    1      2  -0.03953996    -7.220700     0.652100    13.834700
      22    1      1  -0.14780260    -7.479900    -0.683100    13.111700
      23    1      1  -0.14780260    -6.586800    -1.901700    13.409800
      24    1      2  -0.03953996    -5.410300    -1.762500    14.392800
      25    1      1  -0.14780260    -5.249300    -0.475400    15.222600
      26    1      1  -0.14780260    -6.176200     0.725900    14.962200
      27    1      3   0.16757258    -8.302400    -0.756200    12.325600
      28    1      3   0.16757258    -6.756300    -2.884100    12.856700
      29    1      3   0.16757258    -4.420900    -0.399300    16.002200
      30    1      3   0.16757258    -6.042600     1.690500    15.554800
      31    1      2  -0.03953996    -4.335500    -2.861200    14.465900
      32    1      1  -0.14780260    -4.542300    -4.197500    13.729000
      33    1      1  -0.14780260    -3.381500    -5.205000    13.628600
      34    1      2  -0.03953996    -2.003000    -4.846000    14.213900
      35    1      1  -0.14780260    -1.828200    -3.557400    15.037400
      36    1      1  -0.14780260    -3.006400    -2.578500    15.189200
      37    1      3   0.16757258    -5.543800    -4.428300    13.235600
      38    1      3   0.16757258    -3.527400    -6.191500    13.076000
      39    1      3   0.16757258    -0.820800    -3.317400    15.514200
      40    1      3   0.16757258    -2.877100    -1.617900    15.789400
      41    1      2  -0.03953996    -0.783200    -5.731500    13.904700
      42    1      1  -0.14780260    -0.976600    -7.093500    13.214400
      43    1      1  -0.14780260     0.250300    -7.900200    12.752500
      44    1      2  -0.03953996     1.663700    -7.315500    12.927600
      45    1      1  -0.14780260     1.861500    -5.994100    13.692700
      46    1      1  -0.14780260     0.636100    -5.215900    14.207900
      47    1      3   0.16757258    -2.027500    -7.493900    13.026900
      48    1      3   0.16757258     0.110100    -8.907200    12.236700
      49    1      3   0.16757258     2.911600    -5.582800    13.859600
      50    1      3   0.16757258     0.778100    -4.233600    14.768900
      51    1      2  -0.03953996     2.862900    -8.016700    12.265900
      52    1      1  -0.14780260     2.673200    -9.401100    11.621900
      53    1      1  -0.14780260     3.812200   -10.026500    10.799300
      54    1      2  -0.03953996     5.119000    -9.244600    10.578700
      55    1      1  -0.14780260     5.348600    -7.906100    11.305600
      56    1      1  -0.14780260     4.224900    -7.302400    12.171100
      57    1      3   0.16757258     1.680800    -9.950900    11.733700
      58    1      3   0.16757258     3.669400   -11.046500    10.310300
      59    1      3   0.16757258     6.336600    -7.350900    11.182100
      60    1      3   0.16757258     4.383800    -6.304600    12.699300
      61    1      2  -0.03953996     6.141700    -9.769300     9.556200
      62    1      1  -0.14780260     5.904000   -11.135800     8.891200
      63    1      1  -0.14780260     6.768800   -11.567100     7.696000
      64    1      2  -0.03953996     7.851000   -10.619300     7.151700
      65    1      1  -0.14780260     8.186300    -9.317800     7.905500
      66    1      1  -0.14780260     7.335500    -8.897500     9.121200
      67    1      3   0.16757258     5.061500   -11.810000     9.259100
      68    1      3   0.16757258     6.572200   -12.564200     7.179400
      69    1      3   0.16757258     9.033000    -8.647500     7.540200
      70    1      3   0.16757258     7.555500    -7.918600     9.662600
      71    1      2  -0.03953996     8.503900   -10.933900     5.794900
      72    1      1  -0.14780260     8.084600   -12.208000     5.041200
      73    1      1  -0.14780260     8.501500   -12.403300     3.574500
      74    1      2  -0.03953996     9.342400   -11.326600     2.868100
      75    1      1  -0.14780260     9.899300   -10.134100     3.669900
      76    1      1  -0.14780260     9.476400    -9.935300     5.139100
      77    1      3   0.16757258     7.423400   -12.982000     5.554600
      78    1      3   0.16757258     8.149300   -13.321500     2.997800
      79    1      3   0.16757258    10.581400    -9.374000     3.163200
      80    1      3   0.16757258     9.843200    -9.027100     5.722600
      81    1      2  -0.03953996     9.525900   -11.393100     1.342200
      82    1      1  -0.14780260     8.806900   -12.493300     0.539700
      83    1      1  -0.14780260     8.755300   -12.412900    -0.996400
      84    1      2  -0.03953996     9.448100   -11.247500    -1.723500
      85    1      1  -0.14780260    10.304900   -10.243200    -0.929800
      86    1      1  -0.14780260    10.332200   -10.306400     0.608500
      87    1      3   0.16757258     8.268600   -13.337200     1.085400
      88    1      3   0.16757258     8.173300   -13.192200    -1.591100
      89    1      3   0.16757258    10.873900    -9.421100    -1.477700
      90    1      3   0.16757258    10.915200    -9.527800     1.203200
      91    1      2  -0.03953996     9.199200   -11.016900    -3.223500
      92    1      1  -0.14780260     8.162100   -11.870100    -3.980000
      93    1      1  -0.14780260     7.706300   -11.448000    -5.391000
      94    1      2  -0.03953996     8.316400   -10.194200    -6.045000
      95    1      1  -0.14780260     9.477400    -9.454200    -5.357500
      96    1      1  -0.14780260     9.909700    -9.855900    -3.938400
      97    1      3   0.16757258     7.693000   -12.778500    -3.475400
      98    1      3   0.16757258     6.893800   -12.037800    -5.931200
      99    1      3   0.16757258     9.978500    -8.572500    -5.878400
     100    1      3   0.16757258    10.726000    -9.268500    -3.401400
     101    1      2  -0.03953996     7.718100    -9.601100    -7.331900
     102    1      1  -0.14780260     6.438700   -10.189400    -7.960800
     103    1      1  -0.14780260     5.732000    -9.434900    -9.107500
     104    1      2  -0.03953996     6.324400    -8.110400    -9.629200
     105    1      1  -0.14780260     7.664900    -7.596400    -9.079300
     106    1      1  -0.14780260     8.358900    -8.338000    -7.928400
     107    1      3   0.16757258     5.994100   -11.156700    -7.552800
     108    1      3   0.16757258     4.763400    -9.842100    -9.549900
     109    1      3   0.16757258     8.125600    -6.643700    -9.503500
     110    1      3   0.16757258     9.331300    -7.932500    -7.492500
     111    1      2  -0.03953996     5.581300    -7.249900   -10.665300
     112    1      1  -0.14780260     4.187700    -7.647600   -11.191800
     113    1      1  -0.14780260     3.436300    -6.706000   -12.158100
     114    1      2  -0.03953996     4.094700    -5.386000   -12.609600
     115    1      1  -0.14780260     5.503100    -5.018700   -12.115900
     116    1      1  -0.14780260     6.240500    -5.943700   -11.137700
     117    1      3   0.16757258     3.706700    -8.625000   -10.855100
     118    1      3   0.16757258     2.395900    -6.983000   -12.533200
     119    1      3   0.16757258     5.992000    -4.048500   -12.461700
     120    1      3   0.16757258     7.274600    -5.657400   -10.752500
     121    1      2  -0.03953996     3.355600    -4.395400   -13.526100
     122    1      1  -0.14780260     1.882700    -4.620100   -13.917600
     123    1      1  -0.14780260     1.124700    -3.527300   -14.698800
     124    1      2  -0.03953996     1.852700    -2.232100   -15.110900
     125    1      1  -0.14780260     3.355100    -2.069500   -14.827500
     126    1      1  -0.14780260     4.100200    -3.139900   -14.014100
     127    1      3   0.16757258     1.345400    -5.574200   -13.600100
     128    1      3   0.16757258     0.020200    -3.664100   -14.946300
     129    1      3   0.16757258     3.903100    -1.132300   -15.175500
     130    1      3   0.16757258     5.200900    -2.995100   -13.754800
     131    1      2  -0.03953996     1.064300    -1.045100   -15.690400
     132    1      1  -0.14780260    -0.473800    -1.070900   -15.691200
     133    1      1  -0.14780260    -1.252700     0.242300   -15.882900
     134    1      2  -0.03953996    -0.486900     1.557900   -16.116700
     135    1      1  -0.14780260     1.027700     1.526800   -16.385700
     136    1      1  -0.14780260     1.812000     0.224400   -16.141300
     137    1      3   0.16757258    -1.030700    -2.040900   -15.470900
     138    1      3   0.16757258    -2.388800     0.251800   -15.789100
     139    1      3   0.16757258     1.578500     2.482400   -16.674200
     140    1      3   0.16757258     2.947900     0.214100   -16.238700
     141    1      2  -0.03953996    -1.200400     2.899800   -15.883400
     142    1      1  -0.14780260    -2.556700     2.899900   -15.161300
     143    1      1  -0.14780260    -3.059700     4.189900   -14.496500
     144    1      2  -0.03953996    -2.254400     5.492600   -14.644000
     145    1      1  -0.14780260    -1.051900     5.547600   -15.605100
     146    1      1  -0.14780260    -0.494400     4.235000   -16.193600
     147    1      3   0.16757258    -3.137600     1.927000   -15.035400
     148    1      3   0.16757258    -4.003100     4.171900   -13.856600
     149    1      3   0.16757258    -0.521600     6.536800   -15.804600
     150    1      3   0.16757258     0.463600     4.245900   -16.811500
     151    1      2  -0.03953996    -2.564000     6.666900   -13.700300
     152    1      1  -0.14780260    -3.269600     6.358900   -12.371700
     153    1      1  -0.14780260    -3.322900     7.426200   -11.272000
     154    1      2  -0.03953996    -2.800200     8.845600   -11.547900
     155    1      1  -0.14780260    -2.264000     9.212100   -12.945500
     156    1      1  -0.14780260    -2.084200     8.101600   -14.005000
     157    1      3   0.16757258    -3.683400     5.315000   -12.174500
     158    1      3   0.16757258    -3.746300     7.165800   -10.246000
     159    1      3   0.16757258    -1.934400    10.279700   -13.171400
     160    1      3   0.16757258    -1.591300     8.339300   -15.005100
     161    1      2  -0.03953996    -2.731300     9.828900   -10.368000
     162    1      1  -0.14780260    -2.480200     9.238600    -8.975900
     163    1      1  -0.14780260    -2.391500    10.160700    -7.760300
     164    1      2  -0.03953996    -2.706500    11.656700    -7.899300
     165    1      1  -0.14780260    -2.979200    12.265100    -9.290000
     166    1      1  -0.14780260    -2.923400    11.352900   -10.540800
     167    1      3   0.16757258    -2.334500     8.114800    -8.851300
     168    1      3   0.16757258    -2.145100     9.726700    -6.735300
     169    1      3   0.16757258    -3.203400    13.377600    -9.397700
     170    1      3   0.16757258    -3.071700    11.796600   -11.580400
     171    1      2  -0.03953996    -2.773000    12.451400    -6.587100
     172    1      1  -0.14780260    -2.089000    11.797700    -5.385900
     173    1      1  -0.14780260    -2.470700    12.223400    -3.976000
     174    1      2  -0.03953996    -3.539000    13.299700    -3.759900
     175    1      1  -0.14780260    -4.029000    14.153400    -4.950700
     176    1      1  -0.14780260    -3.634200    13.722900    -6.390500
     177    1      3   0.16757258    -1.357500    10.937700    -5.544100
     178    1      3   0.16757258    -2.021900    11.681900    -3.078600
     179    1      3   0.16757258    -4.733300    15.033800    -4.782000
     180    1      3   0.16757258    -4.043700    14.286400    -7.292800
     181    1      2  -0.03953996    -4.166400    13.291500    -2.359900
     182    1      1  -0.14780260    -3.998100    11.966100    -1.618000
     183    1      1  -0.14780260    -4.366900    11.857300    -0.150300
     184    1      2  -0.03953996    -4.890100    13.078000     0.605800
     185    1      1  -0.14780260    -5.213400    14.387600    -0.154600
     186    1      1  -0.14780260    -4.855000    14.492400    -1.666000
     187    1      3   0.16757258    -3.562500    11.063800    -2.162000
     188    1      3   0.16757258    -4.211000    10.872400     0.402600
     189    1      3   0.16757258    -5.669000    15.276900     0.394300
     190    1      3   0.16757258    -5.049600    15.457800    -2.240300
     191    1      2  -0.03953996    -4.980700    12.872100     2.123300
     192    1      1  -0.14780260    -4.263300    11.616600     2.627200
     193    1      1  -0.14780260    -4.476000    11.129900     4.052200
     194    1      2  -0.03953996    -5.434500    11.878400     4.978800
     195    1      1  -0.14780260    -6.010100    13.252100     4.557100
     196    1      1  -0.14780260    -5.778700    13.758800     3.106100
     197    1      3   0.16757258    -3.606700    11.015700     1.914700
     198    1      3   0.16757258    -3.980800    10.165300     4.404600
     199    1      3   0.16757258    -6.650200    13.855200     5.282400
     200    1      3   0.16757258    -6.237800    14.742000     2.756500
     201    1      2  -0.03953996    -7.084900     9.209800     8.323400
     202    1      1  -0.14780260    -6.210800     8.646500     7.198600
     203    1      1  -0.14780260    -5.562000     9.590600     6.190400
     204    1      2  -0.03953996    -5.897600    11.086800     6.209200
     205    1      1  -0.14780260    -6.728800    11.681100     7.365800
     206    1      1  -0.14780260    -7.277300    10.737100     8.466500
     207    1      3   0.16757258    -6.040100     7.522100     7.118600
     208    1      3   0.16757258    -4.883200     9.172200     5.375400
     209    1      3   0.16757258    -6.943300    12.800000     7.405900
     210    1      3   0.16757258    -7.870000    11.161100     9.343100

Bonds

       1      2        1        2
       2      4        1       11
       3      1        2        3
       4      3        2        7
       5      2        3        4
       6      3        3        8
       7      2        4        5
       8      4        4      201
       9      1        5        6
      10      3        5        9
      11      2        6        1
      12      3        6       10
      13      2       11       12
      14      1       12       13
      15      3       12       17
      16      2       13       14
      17      3       13       18
      18      2       14       15
      19      4       14       21
      20      1       15       16
      21      3       15       19
      22      2       16       11
      23      3       16       20
      24      2       21       22
      25      1       22       23
      26      3       22       27
      27      2       23       24
      28      3       23       28
      29      2       24       25
      30      4       24       31
      31      1       25       26
      32      3       25       29
      33      2       26       21
      34      3       26       30
      35      2       31       32
      36      1       32       33
      37      3       32       37
      38      2       33       34
      39      3       33       38
      40      2       34       35
      41      4       34       41
      42      1       35       36
      43      3       35       39
      44      2       36       31
      45      3       36       40
      46      2       41       42
      47      1       42       43
      48      3       42       47
      49      2       43       44
      50      3       43       48
      51      2       44       45
      52      4       44       51
      53      1       45       46
      54      3       45       49
      55      2       46       41
      56      3       46       50
      57      2       51       52
      58      1       52       53
      59      3       52       57
      60      2       53       54
      61      3       53       58
      62      2       54       55
      63      4       54       61
      64      1       55       56
      65      3       55       59
      66      2       56       51
      67      3       56       60
      68      2       61       62
      69      1       62       63
      70      3       62       67
      71      2       63       64
      72      3       63       68
      73      2       64       65
      74      4       64       71
      75      1       65       66
      76      3       65       69
      77      2       66       61
      78      3       66       70
      79      2       71       72
      80      1       72       73
      81      3       72       77
      82      2       73       74
      83      3       73       78
      84      2       74       75
      85      4       74       81
      86      1       75       76
      87      3       75       79
      88      2       76       71
      89      3       76       80
      90      2       81       82
      91      1       82       83
      92      3       82       87
      93      2       83       84
      94      3       83       88
      95      2       84       85
      96      4       84       91
      97      1       85       86
      98      3       85       89
      99      2       86       81
     100      3       86       90
     101      2       91       92
     102      1       92       93
     103      3       92       97
     104      2       93       94
     105      3       93       98
     106      2       94       95
     107      4       94      101
     108      1       95       96
     109      3       95       99
     110      2       96       91
     111      3       96      100
     112      2      101      102
     113      1      102      103
     114      3      102      107
     115      2      103      104
     116      3      103      108
     117      2      104      105
     118      4      104      111
     119      1      105      106
     120      3      105      109
     121      2      106      101
     122      3      106      110
     123      2      111      112
     124      1      112      113
     125      3      112      117
     126      2      113      114
     127      3      113      118
     128      2      114      115
     129      4      114      121
     130      1      115      116
     131      3      115      119
     132      2      116      111
     133      3      116      120
     134      2      121      122
     135      1      122      123
     136      3      122      127
     137      2      123      124
     138      3      123      128
     139      2      124      125
     140      4      124      131
     141      1      125      126
     142      3      125      129
     143      2      126      121
     144      3      126      130
     145      2      131      132
     146      1      132      133
     147      3      132      137
     148      2      133      134
     149      3      133      138
     150      2      134      135
     151      4      134      141
     152      1      135      136
     153      3      135      139
     154      2      136      131
     155      3      136      140
     156      2      141      142
     157      1      142      143
     158      3      142      147
     159      2      143      144
     160      3      143      148
     161      2      144      145
     162      4      144      151
     163      1      145      146
     164      3      145      149
     165      2      146      141
     166      3      146      150
     167      2      151      152
     168      1      152      153
     169      3      152      157
     170      2      153      154
     171      3      153      158
     172      2      154      155
     173      4      154      161
     174      1      155      156
     175      3      155      159
     176      2      156      151
     177      3      156      160
     178      2      161      162
     179      1      162      163
     180      3      162      167
     181      2      163      164
     182      3      163      168
     183      2      164      165
     184      4      164      171
     185      1      165      166
     186      3      165      169
     187      2      166      161
     188      3      166      170
     189      2      171      172
     190      1      172      173
     191      3      172      177
     192      2      173      174
     193      3      173      178
     194      2      174      175
     195      4      174      181
     196      1      175      176
     197      3      175      179
     198      2      176      171
     199      3      176      180
     200      2      181      182
     201      1      182      183
     202      3      182      187
     203      2      183      184
     204      3      183      188
     205      2      184      185
     206      4      184      191
     207      1      185      186
     208      3      185      189
     209      2      186      181
     210      3      186      190
     211      2      191      192
     212      1      192      193
     213      3      192      197
     214      2      193      194
     215      3      193      198
     216      2      194      195
     217      4      194      204
     218      1      195      196
     219      3      195      199
     220      2      196      191
     221      3      196      200
     222      2      201      202
     223      1      202      203
     224      3      202      207
     225      2      203      204
     226      3      203      208
     227      2      204      205
     228      1      205      206
     229      3      205      209
     230      2      206      201
     231      3      206      210

Angles

       1      1        1        2        3
       2      5        1        2        7
       3      1        1        6        5
       4      5        1        6       10
       5      4        1       11       12
       6      4        1       11       16
       7      3        2        1        6
       8      4        2        1       11
       9      1        2        3        4
      10      2        2        3        8
      11      2        3        2        7
      12      3        3        4        5
      13      4        3        4      201
      14      5        4        3        8
      15      1        4        5        6
      16      5        4        5        9
      17      4        4      201      202
      18      4        4      201      206
      19      4        5        4      201
      20      2        5        6       10
      21      4        6        1       11
      22      2        6        5        9
      23      1       11       12       13
      24      5       11       12       17
      25      1       11       16       15
      26      5       11       16       20
      27      3       12       11       16
      28      1       12       13       14
      29      2       12       13       18
      30      2       13       12       17
      31      3       13       14       15
      32      4       13       14       21
      33      5       14       13       18
      34      1       14       15       16
      35      5       14       15       19
      36      4       14       21       22
      37      4       14       21       26
      38      4       15       14       21
      39      2       15       16       20
      40      2       16       15       19
      41      1       21       22       23
      42      5       21       22       27
      43      1       21       26       25
      44      5       21       26       30
      45      3       22       21       26
      46      1       22       23       24
      47      2       22       23       28
      48      2       23       22       27
      49      3       23       24       25
      50      4       23       24       31
      51      5       24       23       28
      52      1       24       25       26
      53      5       24       25       29
      54      4       24       31       32
      55      4       24       31       36
      56      4       25       24       31
      57      2       25       26       30
      58      2       26       25       29
      59      1       31       32       33
      60      5       31       32       37
      61      1       31       36       35
      62      5       31       36       40
      63      3       32       31       36
      64      1       32       33       34
      65      2       32       33       38
      66      2       33       32       37
      67      3       33       34       35
      68      4       33       34       41
      69      5       34       33       38
      70      1       34       35       36
      71      5       34       35       39
      72      4       34       41       42
      73      4       34       41       46
      74      4       35       34       41
      75      2       35       36       40
      76      2       36       35       39
      77      1       41       42       43
      78      5       41       42       47
      79      1       41       46       45
      80      5       41       46       50
      81      3       42       41       46
      82      1       42       43       44
      83      2       42       43       48
      84      2       43       42       47
      85      3       43       44       45
      86      4       43       44       51
      87      5       44       43       48
      88      1       44       45       46
      89      5       44       45       49
      90      4       44       51       52
      91      4       44       51       56
      92      4       45       44       51
      93      2       45       46       50
      94      2       46       45       49
      95      1       51       52       53
      96      5       51       52       57
      97      1       51       56       55
      98      5       51       56       60
      99      3       52       51       56
     100      1       52       53       54
     101      2       52       53       58
     102      2       53       52       57
     103      3       53       54       55
     104      4       53       54       61
     105      5       54       53       58
     106      1       54       55       56
     107      5       54       55       59
     108      4       54       61       62
     109      4       54       61       66
     110      4       55       54       61
     111      2       55       56       60
     112      2       56       55       59
     113      1       61       62       63
     114      5       61       62       67
     115      1       61       66       65
     116      5       61       66       70
     117      3       62       61       66
     118      1       62       63       64
     119      2       62       63       68
     120      2       63       62       67
     121      3       63       64       65
     122      4       63       64       71
     123      5       64       63       68
     124      1       64       65       66
     125      5       64       65       69
     126      4       64       71       72
     127      4       64       71       76
     128      4       65       64       71
     129      2       65       66       70
     130      2       66       65       69
     131      1       71       72       73
     132      5       71       72       77
     133      1       71       76       75
     134      5       71       76       80
     135      3       72       71       76
     136      1       72       73       74
     137      2       72       73       78
     138      2       73       72       77
     139      3       73       74       75
     140      4       73       74       81
     141      5       74       73       78
     142      1       74       75       76
     143      5       74       75       79
     144      4       74       81       82
     145      4       74       81       86
     146      4       75       74       81
     147      2       75       76       80
     148      2       76       75       79
     149      1       81       82       83
     150      5       81       82       87
     151      1       81       86       85
     152      5       81       86       90
     153      3       82       81       86
     154      1       82       83       84
     155      2       82       83       88
     156      2       83       82       87
     157      3       83       84       85
     158      4       83       84       91
     159      5       84       83       88
     160      1       84       85       86
     161      5       84       85       89
     162      4       84       91       92
     163      4       84       91       96
     164      4       85       84       91
     165      2       85       86       90
     166      2       86       85       89
     167      1       91       92       93
     168      5       91       92       97
     169      1       91       96       95
     170      5       91       96      100
     171      3       92       91       96
     172      1       92       93       94
     173      2       92       93       98
     174      2       93       92       97
     175      3       93       94       95
     176      4       93       94      101
     177      5       94       93       98
     178      1       94       95       96
     179      5       94       95       99
     180      4       94      101      102
     181      4       94      101      106
     182      4       95       94      101
     183      2       95       96      100
     184      2       96       95       99
     185      1      101      102      103
     186      5      101      102      107
     187      1      101      106      105
     188      5      101      106      110
     189      3      102      101      106
     190      1      102      103      104
     191      2      102      103      108
     192      2      103      102      107
     193      3      103      104      105
     194      4      103      104      111
     195      5      104      103      108
     196      1      104      105      106
     197      5      104      105      109
     198      4      104      111      112
     199      4      104      111      116
     200      4      105      104      111
     201      2      105      106      110
     202      2      106      105      109
     203      1      111      112      113
     204      5      111      112      117
     205      1      111      116      115
     206      5      111      116      120
     207      3      112      111      116
     208      1      112      113      114
     209      2      112      113      118
     210      2      113      112      117
     211      3      113      114      115
     212      4      113      114      121
     213      5      114      113      118
     214      1      114      115      116
     215      5      114      115      119
     216      4      114      121      122
     217      4      114      121      126
     218      4      115      114      121
     219      2      115      116      120
     220      2      116      115      119
     221      1      121      122      123
     222      5      121      122      127
     223      1      121      126      125
     224      5      121      126      130
     225      3      122      121      126
     226      1      122      123      124
     227      2      122      123      128
     228      2      123      122      127
     229      3      123      124      125
     230      4      123      124      131
     231      5      124      123      128
     232      1      124      125      126
     233      5      124      125      129
     234      4      124      131      132
     235      4      124      131      136
     236      4      125      124      131
     237      2      125      126      130
     238      2      126      125      129
     239      1      131      132      133
     240      5      131      132      137
     241      1      131      136      135
     242      5      131      136      140
     243      3      132      131      136
     244      1      132      133      134
     245      2      132      133      138
     246      2      133      132      137
     247      3      133      134      135
     248      4      133      134      141
     249      5      134      133      138
     250      1      134      135      136
     251      5      134      135      139
     252      4      134      141      142
     253      4      134      141      146
     254      4      135      134      141
     255      2      135      136      140
     256      2      136      135      139
     257      1      141      142      143
     258      5      141      142      147
     259      1      141      146      145
     260      5      141      146      150
     261      3      142      141      146
     262      1      142      143      144
     263      2      142      143      148
     264      2      143      142      147
     265      3      143      144      145
     266      4      143      144      151
     267      5      144      143      148
     268      1      144      145      146
     269      5      144      145      149
     270      4      144      151      152
     271      4      144      151      156
     272      4      145      144      151
     273      2      145      146      150
     274      2      146      145      149
     275      1      151      152      153
     276      5      151      152      157
     277      1      151      156      155
     278      5      151      156      160
     279      3      152      151      156
     280      1      152      153      154
     281      2      152      153      158
     282      2      153      152      157
     283      3      153      154      155
     284      4      153      154      161
     285      5      154      153      158
     286      1      154      155      156
     287      5      154      155      159
     288      4      154      161      162
     289      4      154      161      166
     290      4      155      154      161
     291      2      155      156      160
     292      2      156      155      159
     293      1      161      162      163
     294      5      161      162      167
     295      1      161      166      165
     296      5      161      166      170
     297      3      162      161      166
     298      1      162      163      164
     299      2      162      163      168
     300      2      163      162      167
     301      3      163      164      165
     302      4      163      164      171
     303      5      164      163      168
     304      1      164      165      166
     305      5      164      165      169
     306      4      164      171      172
     307      4      164      171      176
     308      4      165      164      171
     309      2      165      166      170
     310      2      166      165      169
     311      1      171      172      173
     312      5      171      172      177
     313      1      171      176      175
     314      5      171      176      180
     315      3      172      171      176
     316      1      172      173      174
     317      2      172      173      178
     318      2      173      172      177
     319      3      173      174      175
     320      4      173      174      181
     321      5      174      173      178
     322      1      174      175      176
     323      5      174      175      179
     324      4      174      181      182
     325      4      174      181      186
     326      4      175      174      181
     327      2      175      176      180
     328      2      176      175      179
     329      1      181      182      183
     330      5      181      182      187
     331      1      181      186      185
     332      5      181      186      190
     333      3      182      181      186
     334      1      182      183      184
     335      2      182      183      188
     336      2      183      182      187
     337      3      183      184      185
     338      4      183      184      191
     339      5      184      183      188
     340      1      184      185      186
     341      5      184      185      189
     342      4      184      191      192
     343      4      184      191      196
     344      4      185      184      191
     345      2      185      186      190
     346      2      186      185      189
     347      1      191      192      193
     348      5      191      192      197
     349      1      191      196      195
     350      5      191      196      200
     351      3      192      191      196
     352      1      192      193      194
     353      2      192      193      198
     354      2      193      192      197
     355      3      193      194      195
     356      4      193      194      204
     357      5      194      193      198
     358      1      194      195      196
     359      5      194      195      199
     360      4      194      204      203
     361      4      194      204      205
     362      4      195      194      204
     363      2      195      196      200
     364      2      196      195      199
     365      1      201      202      203
     366      5      201      202      207
     367      1      201      206      205
     368      5      201      206      210
     369      3      202      201      206
     370      1      202      203      204
     371      2      202      203      208
     372      2      203      202      207
     373      3      203      204      205
     374      5      204      203      208
     375      1      204      205      206
     376      5      204      205      209
     377      2      205      206      210
     378      2      206      205      209

Dihedrals

       1      5        1        2        3        4
       2      6        1        2        3        8
       3      5        1        6        5        4
       4      6        1        6        5        9
       5      2        1       11       12       13
       6      7        1       11       12       17
       7      2        1       11       16       15
       8      7        1       11       16       20
       9      1        2        1        6        5
      10      3        2        1        6       10
      11      4        2        1       11       12
      12      4        2        1       11       16
      13      1        2        3        4        5
      14      2        2        3        4      201
      15      1        3        2        1        6
      16      2        3        2        1       11
      17      1        3        4        5        6
      18      3        3        4        5        9
      19      4        3        4      201      202
      20      4        3        4      201      206
      21      6        4        3        2        7
      22      6        4        5        6       10
      23      2        4      201      202      203
      24      7        4      201      202      207
      25      2        4      201      206      205
      26      7        4      201      206      210
      27      3        5        4        3        8
      28      4        5        4      201      202
      29      4        5        4      201      206
      30      2        5        6        1       11
      31      3        6        1        2        7
      32      4        6        1       11       12
      33      4        6        1       11       16
      34      2        6        5        4      201
      35      7        7        2        1       11
      36      8        7        2        3        8
      37      7        8        3        4      201
      38      7        9        5        4      201
      39      8        9        5        6       10
      40      7       10        6        1       11
      41      5       11       12       13       14
      42      6       11       12       13       18
      43      5       11       16       15       14
      44      6       11       16       15       19
      45      1       12       11       16       15
      46      3       12       11       16       20
      47      1       12       13       14       15
      48      2       12       13       14       21
      49      1       13       12       11       16
      50      1       13       14       15       16
      51      3       13       14       15       19
      52      4       13       14       21       22
      53      4       13       14       21       26
      54      6       14       13       12       17
      55      6       14       15       16       20
      56      2       14       21       22       23
      57      7       14       21       22       27
      58      2       14       21       26       25
      59      7       14       21       26       30
      60      3       15       14       13       18
      61      4       15       14       21       22
      62      4       15       14       21       26
      63      3       16       11       12       17
      64      2       16       15       14       21
      65      8       17       12       13       18
      66      7       18       13       14       21
      67      7       19       15       14       21
      68      8       19       15       16       20
      69      5       21       22       23       24
      70      6       21       22       23       28
      71      5       21       26       25       24
      72      6       21       26       25       29
      73      1       22       21       26       25
      74      3       22       21       26       30
      75      1       22       23       24       25
      76      2       22       23       24       31
      77      1       23       22       21       26
      78      1       23       24       25       26
      79      3       23       24       25       29
      80      4       23       24       31       32
      81      4       23       24       31       36
      82      6       24       23       22       27
      83      6       24       25       26       30
      84      2       24       31       32       33
      85      7       24       31       32       37
      86      2       24       31       36       35
      87      7       24       31       36       40
      88      3       25       24       23       28
      89      4       25       24       31       32
      90      4       25       24       31       36
      91      3       26       21       22       27
      92      2       26       25       24       31
      93      8       27       22       23       28
      94      7       28       23       24       31
      95      7       29       25       24       31
      96      8       29       25       26       30
      97      5       31       32       33       34
      98      6       31       32       33       38
      99      5       31       36       35       34
     100      6       31       36       35       39
     101      1       32       31       36       35
     102      3       32       31       36       40
     103      1       32       33       34       35
     104      2       32       33       34       41
     105      1       33       32       31       36
     106      1       33       34       35       36
     107      3       33       34       35       39
     108      4       33       34       41       42
     109      4       33       34       41       46
     110      6       34       33       32       37
     111      6       34       35       36       40
     112      2       34       41       42       43
     113      7       34       41       42       47
     114      2       34       41       46       45
     115      7       34       41       46       50
     116      3       35       34       33       38
     117      4       35       34       41       42
     118      4       35       34       41       46
     119      3       36       31       32       37
     120      2       36       35       34       41
     121      8       37       32       33       38
     122      7       38       33       34       41
     123      7       39       35       34       41
     124      8       39       35       36       40
     125      5       41       42       43       44
     126      6       41       42       43       48
     127      5       41       46       45       44
     128      6       41       46       45       49
     129      1       42       41       46       45
     130      3       42       41       46       50
     131      1       42       43       44       45
     132      2       42       43       44       51
     133      1       43       42       41       46
     134      1       43       44       45       46
     135      3       43       44       45       49
     136      4       43       44       51       52
     137      4       43       44       51       56
     138      6       44       43       42       47
     139      6       44       45       46       50
     140      2       44       51       52       53
     141      7       44       51       52       57
     142      2       44       51       56       55
     143      7       44       51       56       60
     144      3       45       44       43       48
     145      4       45       44       51       52
     146      4       45       44       51       56
     147      3       46       41       42       47
     148      2       46       45       44       51
     149      8       47       42       43       48
     150      7       48       43       44       51
     151      7       49       45       44       51
     152      8       49       45       46       50
     153      5       51       52       53       54
     154      6       51       52       53       58
     155      5       51       56       55       54
     156      6       51       56       55       59
     157      1       52       51       56       55
     158      3       52       51       56       60
     159      1       52       53       54       55
     160      2       52       53       54       61
     161      1       53       52       51       56
     162      1       53       54       55       56
     163      3       53       54       55       59
     164      4       53       54       61       62
     165      4       53       54       61       66
     166      6       54       53       52       57
     167      6       54       55       56       60
     168      2       54       61       62       63
     169      7       54       61       62       67
     170      2       54       61       66       65
     171      7       54       61       66       70
     172      3       55       54       53       58
     173      4       55       54       61       62
     174      4       55       54       61       66
     175      3       56       51       52       57
     176      2       56       55       54       61
     177      8       57       52       53       58
     178      7       58       53       54       61
     179      7       59       55       54       61
     180      8       59       55       56       60
     181      5       61       62       63       64
     182      6       61       62       63       68
     183      5       61       66       65       64
     184      6       61       66       65       69
     185      1       62       61       66       65
     186      3       62       61       66       70
     187      1       62       63       64       65
     188      2       62       63       64       71
     189      1       63       62       61       66
     190      1       63       64       65       66
     191      3       63       64       65       69
     192      4       63       64       71       72
     193      4       63       64       71       76
     194      6       64       63       62       67
     195      6       64       65       66       70
     196      2       64       71       72       73
     197      7       64       71       72       77
     198      2       64       71       76       75
     199      7       64       71       76       80
     200      3       65       64       63       68
     201      4       65       64       71       72
     202      4       65       64       71       76
     203      3       66       61       62       67
     204      2       66       65       64       71
     205      8       67       62       63       68
     206      7       68       63       64       71
     207      7       69       65       64       71
     208      8       69       65       66       70
     209      5       71       72       73       74
     210      6       71       72       73       78
     211      5       71       76       75       74
     212      6       71       76       75       79
     213      1       72       71       76       75
     214      3       72       71       76       80
     215      1       72       73       74       75
     216      2       72       73       74       81
     217      1       73       72       71       76
     218      1       73       74       75       76
     219      3       73       74       75       79
     220      4       73       74       81       82
     221      4       73       74       81       86
     222      6       74       73       72       77
     223      6       74       75       76       80
     224      2       74       81       82       83
     225      7       74       81       82       87
     226      2       74       81       86       85
     227      7       74       81       86       90
     228      3       75       74       73       78
     229      4       75       74       81       82
     230      4       75       74       81       86
     231      3       76       71       72       77
     232      2       76       75       74       81
     233      8       77       72       73       78
     234      7       78       73       74       81
     235      7       79       75       74       81
     236      8       79       75       76       80
     237      5       81       82       83       84
     238      6       81       82       83       88
     239      5       81       86       85       84
     240      6       81       86       85       89
     241      1       82       81       86       85
     242      3       82       81       86       90
     243      1       82       83       84       85
     244      2       82       83       84       91
     245      1       83       82       81       86
     246      1       83       84       85       86
     247      3       83       84       85       89
     248      4       83       84       91       92
     249      4       83       84       91       96
     250      6       84       83       82       87
     251      6       84       85       86       90
     252      2       84       91       92       93
     253      7       84       91       92       97
     254      2       84       91       96       95
     255      7       84       91       96      100
     256      3       85       84       83       88
     257      4       85       84       91       92
     258      4       85       84       91       96
     259      3       86       81       82       87
     260      2       86       85       84       91
     261      8       87       82       83       88
     262      7       88       83       84       91
     263      7       89       85       84       91
     264      8       89       85       86       90
     265      5       91       92       93       94
     266      6       91       92       93       98
     267      5       91       96       95       94
     268      6       91       96       95       99
     269      1       92       91       96       95
     270      3       92       91       96      100
     271      1       92       93       94       95
     272      2       92       93       94      101
     273      1       93       92       91       96
     274      1       93       94       95       96
     275      3       93       94       95       99
     276      4       93       94      101      102
     277      4       93       94      101      106
     278      6       94       93       92       97
     279      6       94       95       96      100
     280      2       94      101      102      103
     281      7       94      101      102      107
     282      2       94      101      106      105
     283      7       94      101      106      110
     284      3       95       94       93       98
     285      4       95       94      101      102
     286      4       95       94      101      106
     287      3       96       91       92       97
     288      2       96       95       94      101
     289      8       97       92       93       98
     290      7       98       93       94      101
     291      7       99       95       94      101
     292      8       99       95       96      100
     293      5      101      102      103      104
     294      6      101      102      103      108
     295      5      101      106      105      104
     296      6      101      106      105      109
     297      1      102      101      106      105
     298      3      102      101      106      110
     299      1      102      103      104      105
     300      2      102      103      104      111
     301      1      103      102      101      106
     302      1      103      104      105      106
     303      3      103      104      105      109
     304      4      103      104      111      112
     305      4      103      104      111      116
     306      6      104      103      102      107
     307      6      104      105      106      110
     308      2      104      111      112      113
     309      7      104      111      112      117
     310      2      104      111      116      115
     311      7      104      111      116      120
     312      3      105      104      103      108
     313      4      105      104      111      112
     314      4      105      104      111      116
     315      3      106      101      102      107
     316      2      106      105      104      111
     317      8      107      102      103      108
     318      7      108      103      104      111
     319      7      109      105      104      111
     320      8      109      105      106      110
     321      5      111      112      113      114
     322      6      111      112      113      118
     323      5      111      116      115      114
     324      6      111      116      115      119
     325      1      112      111      116      115
     326      3      112      111      116      120
     327      1      112      113      114      115
     328      2      112      113      114      121
     329      1      113      112      111      116
     330      1      113      114      115      116
     331      3      113      114      115      119
     332      4      113      114      121      122
     333      4      113      114      121      126
     334      6      114      113      112      117
     335      6      114      115      116      120
     336      2      114      121      122      123
     337      7      114      121      122      127
     338      2      114      121      126      125
     339      7      114      121      126      130
     340      3      115      114      113      118
     341      4      115      114      121      122
     342      4      115      114      121      126
     343      3      116      111      112      117
     344      2      116      115      114      121
     345      8      117      112      113      118
     346      7      118      113      114      121
     347      7      119      115      114      121
     348      8      119      115      116      120
     349      5      121      122      123      124
     350      6      121      122      123      128
     351      5      121      126      125      124
     352      6      121      126      125      129
     353      1      122      121      126      125
     354      3      122      121      126      130
     355      1      122      123      124      125
     356      2      122      123      124      131
     357      1      123      122      121      126
     358      1      123      124      125      126
     359      3      123      124      125      129
     360      4      123      124      131      132
     361      4      123      124      131      136
     362      6      124      123      122      127
     363      6      124      125      126      130
     364      2      124      131      132      133
     365      7      124      131      132      137
     366      2      124      131      136      135
     367      7      124      131      136      140
     368      3      125      124      123      128
     369      4      125      124      131      132
     370      4      125      124      131      136
     371      3      126      121      122      127
     372      2      126      125      124      131
     373      8      127      122      123      128
     374      7      128      123      124      131
     375      7      129      125      124      131
     376      8      129      125      126      130
     377      5      131      132      133      134
     378      6      131      132      133      138
     379      5      131      136      135      134
     380      6      131      136      135      139
     381      1      132      131      136      135
     382      3      132      131      136      140
     383      1      132      133      134      135
     384      2      132      133      134      141
     385      1      133      132      131      136
     386      1      133      134      135      136
     387      3      133      134      135      139
     388      4      133      134      141      142
     389      4      133      134      141      146
     390      6      134      133      132      137
     391      6      134      135      136      140
     392      2      134      141      142      143
     393      7      134      141      142      147
     394      2      134      141      146      145
     395      7      134      141      146      150
     396      3      135      134      133      138
     397      4      135      134      141      142
     398      4      135      134      141      146
     399      3      136      131      132      137
     400      2      136      135      134      141
     401      8      137      132      133      138
     402      7      138      133      134      141
     403      7      139      135      134      141
     404      8      139      135      136      140
     405      5      141      142      143      144
     406      6      141      142      143      148
     407      5      141      146      145      144
     408      6      141      146      145      149
     409      1      142      141      146      145
     410      3      142      141      146      150
     411      1      142      143      144      145
     412      2      142      143      144      151
     413      1      143      142      141      146
     414      1      143      144      145      146
     415      3      143      144      145      149
     416      4      143      144      151      152
     417      4      143      144      151      156
     418      6      144      143      142      147
     419      6      144      145      146      150
     420      2      144      151      152      153
     421      7      144      151      152      157
     422      2      144      151      156      155
     423      7      144      151      156      160
     424      3      145      144      143      148
     425      4      145      144      151      152
     426      4      145      144      151      156
     427      3      146      141      142      147
     428      2      146      145      144      151
     429      8      147      142      143      148
     430      7      148      143      144      151
     431      7      149      145      144      151
     432      8      149      145      146      150
     433      5      151      152      153      154
     434      6      151      152      153      158
     435      5      151      156      155      154
     436      6      151      156      155      159
     437      1      152      151      156      155
     438      3      152      151      156      160
     439      1      152      153      154      155
     440      2      152      153      154      161
     441      1      153      152      151      156
     442      1      153      154      155      156
     443      3      153      154      155      159
     444      4      153      154      161      162
     445      4      153      154      161      166
     446      6      154      153      152      157
     447      6      154      155      156      160
     448      2      154      161      162      163
     449      7      154      161      162      167
     450      2      154      161      166      165
     451      7      154      161      166      170
     452      3      155      154      153      158
     453      4      155      154      161      162
     454      4      155      154      161      166
     455      3      156      151      152      157
     456      2      156      155      154      161
     457      8      157      152      153      158
     458      7      158      153      154      161
     459      7      159      155      154      161
     460      8      159      155      156      160
     461      5      161      162      163      164
     462      6      161      162      163      168
     463      5      161      166      165      164
     464      6      161      166      165      169
     465      1      162      161      166      165
     466      3      162      161      166      170
     467      1      162      163      164      165
     468      2      162      163      164      171
     469      1      163      162      161      166
     470      1      163      164      165      166
     471      3      163      164      165      169
     472      4      163      164      171      172
     473      4      163      164      171      176
     474      6      164      163      162      167
     475      6      164      165      166      170
     476      2      164      171      172      173
     477      7      164      171      172      177
     478      2      164      171      176      175
     479      7      164      171      176      180
     480      3      165      164      163      168
     481      4      165      164      171      172
     482      4      165      164      171      176
     483      3      166      161      162      167
     484      2      166      165      164      171
     485      8      167      162      163      168
     486      7      168      163      164      171
     487      7      169      165      164      171
     488      8      169      165      166      170
     489      5      171      172      173      174
     490      6      171      172      173      178
     491      5      171      176      175      174
     492      6      171      176      175      179
     493      1      172      171      176      175
     494      3      172      171      176      180
     495      1      172      173      174      175
     496      2      172      173      174      181
     497      1      173      172      171      176
     498      1      173      174      175      176
     499      3      173      174      175      179
     500      4      173      174      181      182
     501      4      173      174      181      186
     502      6      174      173      172      177
     503      6      174      175      176      180
     504      2      174      181      182      183
     505      7      174      181      182      187
     506      2      174      181      186      185
     507      7      174      181      186      190
     508      3      175      174      173      178
     509      4      175      174      181      182
     510      4      175      174      181      186
     511      3      176      171      172      177
     512      2      176      175      174      181
     513      8      177      172      173      178
     514      7      178      173      174      181
     515      7      179      175      174      181
     516      8      179      175      176      180
     517      5      181      182      183      184
     518      6      181      182      183      188
     519      5      181      186      185      184
     520      6      181      186      185      189
     521      1      182      181      186      185
     522      3      182      181      186      190
     523      1      182      183      184      185
     524      2      182      183      184      191
     525      1      183      182      181      186
     526      1      183      184      185      186
     527      3      183      184      185      189
     528      4      183      184      191      192
     529      4      183      184      191      196
     530      6      184      183      182      187
     531      6      184      185      186      190
     532      2      184      191      192      193
     533      7      184      191      192      197
     534      2      184      191      196      195
     535      7      184      191      196      200
     536      3      185      184      183      188
     537      4      185      184      191      192
     538      4      185      184      191      196
     539      3      186      181      182      187
     540      2      186      185      184      191
     541      8      187      182      183      188
     542      7      188      183      184      191
     543      7      189      185      184      191
     544      8      189      185      186      190
     545      5      191      192      193      194
     546      6      191      192      193      198
     547      5      191      196      195      194
     548      6      191      196      195      199
     549      1      192      191      196      195
     550      3      192      191      196      200
     551      1      192      193      194      195
     552      2      192      193      194      204
     553      1      193      192      191      196
     554      1      193      194      195      196
     555      3      193      194      195      199
     556      4      193      194      204      203
     557      4      193      194      204      205
     558      6      194      193      192      197
     559      6      194      195      196      200
     560      2      194      204      203      202
     561      7      194      204      203      208
     562      2      194      204      205      206
     563      7      194      204      205      209
     564      3      195      194      193      198
     565      4      195      194      204      203
     566      4      195      194      204      205
     567      3      196      191      192      197
     568      2      196      195      194      204
     569      8      197      192      193      198
     570      7      198      193      194      204
     571      7      199      195      194      204
     572      8      199      195      196      200
     573      5      201      202      203      204
     574      6      201      202      203      208
     575      5      201      206      205      204
     576      6      201      206      205      209
     577      1      202      201      206      205
     578      3      202      201      206      210
     579      1      202      203      204      205
     580      1      203      202      201      206
     581      1      203      204      205      206
     582      3      203      204      205      209
     583      6      204      203      202      207
     584      6      204      205      206      210
     585      3      205      204      203      208
     586      3      206      201      202      207
     587      8      207      202      203      208
     588      8      209      205      206      210

Impropers

       1      2        2        1        6       11
       2      1        1        2        3        7
       3      1        2        3        4        8
       4      2        3        4        5      201
       5      1        4        5        6        9
       6      1        1        6        5       10
       7      2        1       11       12       16
       8      1       11       12       13       17
       9      1       12       13       14       18
      10      2       13       14       15       21
      11      1       14       15       16       19
      12      1       11       16       15       20
      13      2       14       21       22       26
      14      1       21       22       23       27
      15      1       22       23       24       28
      16      2       23       24       25       31
      17      1       24       25       26       29
      18      1       21       26       25       30
      19      2       24       31       32       36
      20      1       31       32       33       37
      21      1       32       33       34       38
      22      2       33       34       35       41
      23      1       34       35       36       39
      24      1       31       36       35       40
      25      2       34       41       42       46
      26      1       41       42       43       47
      27      1       42       43       44       48
      28      2       43       44       45       51
      29      1       44       45       46       49
      30      1       41       46       45       50
      31      2       44       51       52       56
      32      1       51       52       53       57
      33      1       52       53       54       58
      34      2       53       54       55       61
      35      1       54       55       56       59
      36      1       51       56       55       60
      37      2       54       61       62       66
      38      1       61       62       63       67
      39      1       62       63       64       68
      40      2       63       64       65       71
      41      1       64       65       66       69
      42      1       61       66       65       70
      43      2       64       71       72       76
      44      1       71       72       73       77
      45      1       72       73       74       78
      46      2       73       74       75       81
      47      1       74       75       76       79
      48      1       71       76       75       80
      49      2       74       81       82       86
      50      1       81       82       83       87
      51      1       82       83       84       88
      52      2       83       84       85       91
      53      1       84       85       86       89
      54      1       81       86       85       90
      55      2       84       91       92       96
      56      1       91       92       93       97
      57      1       92       93       94       98
      58      2       93       94       95      101
      59      1       94       95       96       99
      60      1       91       96       95      100
      61      2       94      101      102      106
      62      1      101      102      103      107
      63      1      102      103      104      108
      64      2      103      104      105      111
      65      1      104      105      106      109
      66      1      101      106      105      110
      67      2      104      111      112      116
      68      1      111      112      113      117
      69      1      112      113      114      118
      70      2      113      114      115      121
      71      1      114      115      116      119
      72      1      111      116      115      120
      73      2      114      121      122      126
      74      1      121      122      123      127
      75      1      122      123      124      128
      76      2      123      124      125      131
      77      1      124      125      126      129
      78      1      121      126      125      130
      79      2      124      131      132      136
      80      1      131      132      133      137
      81      1      132      133      134      138
      82      2      133      134      135      141
      83      1      134      135      136      139
      84      1      131      136      135      140
      85      2      134      141      142      146
      86      1      141      142      143      147
      87      1      142      143      144      148
      88      2      143      144      145      151
      89      1      144      145      146      149
      90      1      141      146      145      150
      91      2      144      151      152      156
      92      1      151      152      153      157
      93      1      152      153      154      158
      94      2      153      154      155      161
      95      1      154      155      156      159
      96      1      151      156      155      160
      97      2      154      161      162      166
      98      1      161      162      163      167
      99      1      162      163      164      168
     100      2      163      164      165      171
     101      1      164      165      166      169
     102      1      161      166      165      170
     103      2      164      171      172      176
     104      1      171      172      173      177
     105      1      172      173      174      178
     106      2      173      174      175      181
     107      1      174      175      176      179
     108      1      171      176      175      180
     109      2      174      181      182      186
     110      1      181      182      183      187
     111      1      182      183      184      188
     112      2      183      184      185      191
     113      1      184      185      186      189
     114      1      181      186      185      190
     115      2      184      191      192      196
     116      1      191      192      193      197
     117      1      192      193      194      198
     118      2      193      194      195      204
     119      1      194      195      196      199
     120      1      191      196      195      200
     121      2        4      201      202      206
     122      1      201      202      203      207
     123      1      202      203      204      208
     124      2      194      204      203      205
     125      1      204      205      206      209
     126      1      201      206      205      210

