LAMMPS data file generated by clean-room 1-hop pipeline

     168 atoms
     168 bonds
     336 angles
     504 dihedrals
       0 impropers

       2 atom types
       2 bond types
       3 angle types
       3 dihedral types
       0 improper types

  -30.159600    28.562100 xlo xhi
  -28.956400    25.440200 ylo yhi
  -32.993600    32.767600 zlo zhi

Masses

       1    12.011000
       2     1.008000

Pair Coeffs

       1     0.066000     3.500000
       2     0.030000     2.500000

Bond Coeffs

       1   268.000000     1.529000
       2   340.000000     1.090000

Angle Coeffs

       1    58.350000   112.700000
       2    37.500000   110.700000
       3    33.000000   107.800000

Dihedral Coeffs

       1     0.850000    -0.200000     0.200000     0.000000
       2     0.000000     0.000000     0.300000     0.000000
       3     0.000000     0.000000     0.300000     0.000000

Improper Coeffs


Atoms

       1    1      1  -0.19413973    -2.594000     0.756700   -11.920900
       2    1      1  -0.19413973    -2.072100     2.164300   -11.579600
       3    1      2   0.09706986    -2.308500     0.498300   -12.993600
       4    1      2   0.09706986    -2.156500    -0.018200   -11.207100
       5    1      2   0.09706986    -2.430500     2.456900   -10.538400
       6    1      2   0.09706986    -2.505600     2.894900   -12.341300
       7    1      1  -0.19413973    -4.126700     0.794100   -11.769400
       8    1      1  -0.19413973    -4.430200     1.033400   -10.279200
       9    1      2   0.09706986    -4.556000     1.633500   -12.410300
      10    1      2   0.09706986    -4.578800    -0.203600   -12.086400
      11    1      2   0.09706986    -3.912600     1.987100    -9.927300
      12    1      2   0.09706986    -4.012000     0.147300    -9.696700
      13    1      1  -0.19413973    -5.939800     1.147000    -9.990000
      14    1      1  -0.19413973    -6.070000     1.145900    -8.456600
      15    1      2   0.09706986    -6.362400     2.101400   -10.448700
      16    1      2   0.09706986    -6.489600     0.238500   -10.406000
      17    1      2   0.09706986    -5.454600     1.999400    -8.017500
      18    1      2   0.09706986    -5.639100     0.156500    -8.089100
      19    1      1  -0.19413973    -7.513600     1.257200    -7.930300
      20    1      1  -0.19413973    -7.366900     0.965300    -6.426200
      21    1      2   0.09706986    -7.940600     2.294600    -8.132000
      22    1      2   0.09706986    -8.175700     0.459200    -8.404000
      23    1      2   0.09706986    -6.622700     1.699900    -5.972400
      24    1      2   0.09706986    -6.934700    -0.086300    -6.342700
      25    1      1  -0.19413973    -8.653900     1.003100    -5.581300
      26    1      1  -0.19413973    -8.172800     0.421400    -4.239400
      27    1      2   0.09706986    -9.044600     2.069600    -5.479900
      28    1      2   0.09706986    -9.455800     0.325000    -6.025400
      29    1      2   0.09706986    -7.289300     1.038800    -3.866700
      30    1      2   0.09706986    -7.808500    -0.636900    -4.458500
      31    1      1  -0.19413973    -9.196500     0.330700    -3.093400
      32    1      1  -0.19413973    -8.428300    -0.485300    -2.036600
      33    1      2   0.09706986   -10.130500    -0.238600    -3.417100
      34    1      2   0.09706986    -9.472700     1.371300    -2.717500
      35    1      2   0.09706986    -7.434800     0.033200    -1.825600
      36    1      2   0.09706986    -8.214900    -1.506600    -2.497000
      37    1      1  -0.19413973    -9.133400    -0.707900    -0.686400
      38    1      1  -0.19413973    -8.203400    -1.690900     0.050300
      39    1      2   0.09706986   -10.159600    -1.184100    -0.828400
      40    1      2   0.09706986    -9.230200     0.280500    -0.125600
      41    1      2   0.09706986    -7.148600    -1.258900     0.072200
      42    1      2   0.09706986    -8.190300    -2.663000    -0.546400
      43    1      1  -0.19413973    -8.616500    -2.003700     1.500200
      44    1      1  -0.19413973    -7.665200    -3.116800     1.981200
      45    1      2   0.09706986    -9.690900    -2.380800     1.544100
      46    1      2   0.09706986    -8.506700    -1.065900     2.140200
      47    1      2   0.09706986    -6.584900    -2.787000     1.828300
      48    1      2   0.09706986    -7.863900    -4.045400     1.349600
      49    1      1  -0.19413973    -7.856800    -3.461100     3.469900
      50    1      1  -0.19413973    -6.979500    -4.687400     3.790800
      51    1      2   0.09706986    -8.946600    -3.720300     3.681600
      52    1      2   0.09706986    -7.545000    -2.566800     4.104500
      53    1      2   0.09706986    -5.899200    -4.485000     3.487800
      54    1      2   0.09706986    -7.376200    -5.577200     3.198900
      55    1      1  -0.19413973    -7.015200    -5.005200     5.297200
      56    1      1  -0.19413973    -6.275900    -6.331200     5.562800
      57    1      2   0.09706986    -8.093300    -5.113000     5.651600
      58    1      2   0.09706986    -6.513100    -4.152500     5.863200
      59    1      2   0.09706986    -5.221800    -6.288600     5.130800
      60    1      2   0.09706986    -6.854600    -7.182300     5.073000
      61    1      1  -0.19413973    -6.178700    -6.552900     7.083300
      62    1      1  -0.19413973    -5.568100    -7.929100     7.412800
      63    1      2   0.09706986    -7.214200    -6.492200     7.556100
      64    1      2   0.09706986    -5.519600    -5.730100     7.516700
      65    1      2   0.09706986    -4.573800    -8.058900     6.870300
      66    1      2   0.09706986    -6.288500    -8.755900     7.102100
      67    1      1  -0.19413973    -5.308500    -7.950000     8.930200
      68    1      1  -0.19413973    -4.258300    -6.844800     9.134700
      69    1      2   0.09706986    -6.270000    -7.718100     9.496300
      70    1      2   0.09706986    -4.887500    -8.956400     9.261900
      71    1      2   0.09706986    -4.668200    -5.877800     8.692000
      72    1      2   0.09706986    -3.323900    -7.143900     8.554000
      73    1      1  -0.19413973    -3.852700    -6.552100    10.591200
      74    1      1  -0.19413973    -2.763700    -5.480100    10.411600
      75    1      2   0.09706986    -4.744300    -6.145500    11.174700
      76    1      2   0.09706986    -3.427300    -7.475600    11.105100
      77    1      2   0.09706986    -3.207400    -4.640400     9.782200
      78    1      2   0.09706986    -1.907900    -5.955700     9.826700
      79    1      1  -0.19413973    -2.175100    -4.828000    11.675600
      80    1      1  -0.19413973    -1.127600    -3.890900    11.049400
      81    1      2   0.09706986    -2.978700    -4.243600    12.235000
      82    1      2   0.09706986    -1.682000    -5.592800    12.361900
      83    1      2   0.09706986    -1.662600    -3.246500    10.275900
      84    1      2   0.09706986    -0.369700    -4.547700    10.507300
      85    1      1  -0.19413973    -0.350900    -2.930300    11.966900
      86    1      1  -0.19413973     0.598200    -2.274400    10.947700
      87    1      2   0.09706986    -1.053400    -2.168000    12.441300
      88    1      2   0.09706986     0.236500    -3.490500    12.767600
      89    1      2   0.09706986    -0.036100    -1.843800    10.103800
      90    1      2   0.09706986     1.249600    -3.106500    10.519900
      91    1      1  -0.19413973     1.532100    -1.151900    11.433000
      92    1      1  -0.19413973     2.377400    -0.881800    10.173600
      93    1      2   0.09706986     0.936300    -0.233900    11.752700
      94    1      2   0.09706986     2.198500    -1.511600    12.285000
      95    1      2   0.09706986     1.683800    -0.621300     9.306800
      96    1      2   0.09706986     2.916000    -1.855900     9.928000
      97    1      1  -0.19413973     3.444200     0.221600    10.280400
      98    1      1  -0.19413973     4.264000     0.077800     8.983200
      99    1      2   0.09706986     2.964000     1.250800    10.377200
     100    1      2   0.09706986     4.124100     0.019600    11.173500
     101    1      2   0.09706986     3.596600     0.209600     8.068000
     102    1      2   0.09706986     4.680600    -0.983100     8.983300
     103    1      1  -0.19413973     5.458600     1.044800     8.891600
     104    1      1  -0.19413973     6.346400     0.510900     7.751400
     105    1      2   0.09706986     6.059500     0.984100     9.859000
     106    1      2   0.09706986     5.117200     2.117400     8.714600
     107    1      2   0.09706986     5.795000     0.512500     6.752400
     108    1      2   0.09706986     6.603300    -0.563800     8.031500
     109    1      1  -0.19413973     7.672200     1.285200     7.631700
     110    1      1  -0.19413973     7.530500     2.650100     6.931400
     111    1      2   0.09706986     8.381500     0.669000     6.986500
     112    1      2   0.09706986     8.127600     1.405400     8.669900
     113    1      2   0.09706986     6.798500     3.339500     7.468400
     114    1      2   0.09706986     8.562100     3.133000     6.900300
     115    1      1  -0.19413973     7.083000     2.359000     5.485700
     116    1      1  -0.19413973     7.234100     3.583800     4.562800
     117    1      2   0.09706986     6.011400     1.971200     5.479100
     118    1      2   0.09706986     7.771700     1.551800     5.068300
     119    1      2   0.09706986     6.562900     4.444300     4.895000
     120    1      2   0.09706986     8.324400     3.915400     4.586700
     121    1      1  -0.19413973     6.877000     3.120800     3.136300
     122    1      1  -0.19413973     7.215600     4.168300     2.057600
     123    1      2   0.09706986     5.769300     2.858800     3.092100
     124    1      2   0.09706986     7.488000     2.186500     2.901300
     125    1      2   0.09706986     6.637200     5.136800     2.232600
     126    1      2   0.09706986     8.334800     4.377900     2.076900
     127    1      1  -0.19413973     6.822000     3.546400     0.704000
     128    1      1  -0.19413973     7.214000     4.409900    -0.511000
     129    1      2   0.09706986     5.694200     3.383800     0.698000
     130    1      2   0.09706986     7.341600     2.536000     0.598400
     131    1      2   0.09706986     6.729500     5.440200    -0.440600
     132    1      2   0.09706986     8.347200     4.514900    -0.573800
     133    1      1  -0.19413973     6.664600     3.658500    -1.738000
     134    1      1  -0.19413973     6.951800     4.345200    -3.087300
     135    1      2   0.09706986     5.534300     3.584100    -1.611100
     136    1      2   0.09706986     7.103400     2.605800    -1.762900
     137    1      2   0.09706986     6.554300     5.414400    -3.068100
     138    1      2   0.09706986     8.068000     4.348100    -3.315900
     139    1      1  -0.19413973     6.160600     3.531000    -4.128900
     140    1      1  -0.19413973     6.232600     4.094300    -5.561100
     141    1      2   0.09706986     5.068000     3.557100    -3.805400
     142    1      2   0.09706986     6.518500     2.447700    -4.130500
     143    1      2   0.09706986     5.925800     5.192900    -5.548000
     144    1      2   0.09706986     7.278400     3.987800    -6.001900
     145    1      1  -0.19413973     5.182200     3.302300    -6.363600
     146    1      1  -0.19413973     4.986000     3.832700    -7.795800
     147    1      2   0.09706986     4.189600     3.433100    -5.817600
     148    1      2   0.09706986     5.447800     2.193500    -6.389300
     149    1      2   0.09706986     4.798000     4.956100    -7.745900
     150    1      2   0.09706986     5.898100     3.623200    -8.448200
     151    1      1  -0.19413973     3.711300     3.160900    -8.342800
     152    1      1  -0.19413973     3.302000     3.755500    -9.701800
     153    1      2   0.09706986     2.870700     3.390100    -7.605400
     154    1      2   0.09706986     3.840600     2.031200    -8.422700
     155    1      2   0.09706986     3.273100     4.890200    -9.600100
     156    1      2   0.09706986     4.042800     3.463600   -10.519400
     157    1      1  -0.19413973     1.871700     3.274400   -10.016100
     158    1      1  -0.19413973     1.337700     3.988000   -11.270900
     159    1      2   0.09706986     1.210100     3.576500    -9.137300
     160    1      2   0.09706986     1.828500     2.143200   -10.146800
     161    1      2   0.09706986     1.488000     5.109900   -11.133000
     162    1      2   0.09706986     1.895300     3.641500   -12.203300
     163    1      1  -0.19413973    -0.533300     2.251200   -11.614000
     164    1      1  -0.19413973    -0.177200     3.731400   -11.385800
     165    1      2   0.09706986    -0.132300     1.916500   -12.626100
     166    1      2   0.09706986    -0.090700     1.601100   -10.786200
     167    1      2   0.09706986    -0.667300     4.080800   -10.418200
     168    1      2   0.09706986    -0.598200     4.338400   -12.256100

Bonds

       1      1        1        2
       2      2        1        3
       3      2        1        4
       4      1        1        7
       5      2        2        5
       6      2        2        6
       7      1        2      163
       8      1        7        8
       9      2        7        9
      10      2        7       10
      11      2        8       11
      12      2        8       12
      13      1        8       13
      14      1       13       14
      15      2       13       15
      16      2       13       16
      17      2       14       17
      18      2       14       18
      19      1       14       19
      20      1       19       20
      21      2       19       21
      22      2       19       22
      23      2       20       23
      24      2       20       24
      25      1       20       25
      26      1       25       26
      27      2       25       27
      28      2       25       28
      29      2       26       29
      30      2       26       30
      31      1       26       31
      32      1       31       32
      33      2       31       33
      34      2       31       34
      35      2       32       35
      36      2       32       36
      37      1       32       37
      38      1       37       38
      39      2       37       39
      40      2       37       40
      41      2       38       41
      42      2       38       42
      43      1       38       43
      44      1       43       44
      45      2       43       45
      46      2       43       46
      47      2       44       47
      48      2       44       48
      49      1       44       49
      50      1       49       50
      51      2       49       51
      52      2       49       52
      53      2       50       53
      54      2       50       54
      55      1       50       55
      56      1       55       56
      57      2       55       57
      58      2       55       58
      59      2       56       59
      60      2       56       60
      61      1       56       61
      62      1       61       62
      63      2       61       63
      64      2       61       64
      65      2       62       65
      66      2       62       66
      67      1       62       67
      68      1       67       68
      69      2       67       69
      70      2       67       70
      71      2       68       71
      72      2       68       72
      73      1       68       73
      74      1       73       74
      75      2       73       75
      76      2       73       76
      77      2       74       77
      78      2       74       78
      79      1       74       79
      80      1       79       80
      81      2       79       81
      82      2       79       82
      83      2       80       83
      84      2       80       84
      85      1       80       85
      86      1       85       86
      87      2       85       87
      88      2       85       88
      89      2       86       89
      90      2       86       90
      91      1       86       91
      92      1       91       92
      93      2       91       93
      94      2       91       94
      95      2       92       95
      96      2       92       96
      97      1       92       97
      98      1       97       98
      99      2       97       99
     100      2       97      100
     101      2       98      101
     102      2       98      102
     103      1       98      103
     104      1      103      104
     105      2      103      105
     106      2      103      106
     107      2      104      107
     108      2      104      108
     109      1      104      109
     110      1      109      110
     111      2      109      111
     112      2      109      112
     113      2      110      113
     114      2      110      114
     115      1      110      115
     116      1      115      116
     117      2      115      117
     118      2      115      118
     119      2      116      119
     120      2      116      120
     121      1      116      121
     122      1      121      122
     123      2      121      123
     124      2      121      124
     125      2      122      125
     126      2      122      126
     127      1      122      127
     128      1      127      128
     129      2      127      129
     130      2      127      130
     131      2      128      131
     132      2      128      132
     133      1      128      133
     134      1      133      134
     135      2      133      135
     136      2      133      136
     137      2      134      137
     138      2      134      138
     139      1      134      139
     140      1      139      140
     141      2      139      141
     142      2      139      142
     143      2      140      143
     144      2      140      144
     145      1      140      145
     146      1      145      146
     147      2      145      147
     148      2      145      148
     149      2      146      149
     150      2      146      150
     151      1      146      151
     152      1      151      152
     153      2      151      153
     154      2      151      154
     155      2      152      155
     156      2      152      156
     157      1      152      157
     158      1      157      158
     159      2      157      159
     160      2      157      160
     161      2      158      161
     162      2      158      162
     163      1      158      164
     164      1      163      164
     165      2      163      165
     166      2      163      166
     167      2      164      167
     168      2      164      168

Angles

       1      2        1        2        5
       2      2        1        2        6
       3      1        1        2      163
       4      1        1        7        8
       5      2        1        7        9
       6      2        1        7       10
       7      2        2        1        3
       8      2        2        1        4
       9      1        2        1        7
      10      1        2      163      164
      11      2        2      163      165
      12      2        2      163      166
      13      3        3        1        4
      14      2        3        1        7
      15      2        4        1        7
      16      3        5        2        6
      17      2        5        2      163
      18      2        6        2      163
      19      2        7        8       11
      20      2        7        8       12
      21      1        7        8       13
      22      2        8        7        9
      23      2        8        7       10
      24      1        8       13       14
      25      2        8       13       15
      26      2        8       13       16
      27      3        9        7       10
      28      3       11        8       12
      29      2       11        8       13
      30      2       12        8       13
      31      2       13       14       17
      32      2       13       14       18
      33      1       13       14       19
      34      2       14       13       15
      35      2       14       13       16
      36      1       14       19       20
      37      2       14       19       21
      38      2       14       19       22
      39      3       15       13       16
      40      3       17       14       18
      41      2       17       14       19
      42      2       18       14       19
      43      2       19       20       23
      44      2       19       20       24
      45      1       19       20       25
      46      2       20       19       21
      47      2       20       19       22
      48      1       20       25       26
      49      2       20       25       27
      50      2       20       25       28
      51      3       21       19       22
      52      3       23       20       24
      53      2       23       20       25
      54      2       24       20       25
      55      2       25       26       29
      56      2       25       26       30
      57      1       25       26       31
      58      2       26       25       27
      59      2       26       25       28
      60      1       26       31       32
      61      2       26       31       33
      62      2       26       31       34
      63      3       27       25       28
      64      3       29       26       30
      65      2       29       26       31
      66      2       30       26       31
      67      2       31       32       35
      68      2       31       32       36
      69      1       31       32       37
      70      2       32       31       33
      71      2       32       31       34
      72      1       32       37       38
      73      2       32       37       39
      74      2       32       37       40
      75      3       33       31       34
      76      3       35       32       36
      77      2       35       32       37
      78      2       36       32       37
      79      2       37       38       41
      80      2       37       38       42
      81      1       37       38       43
      82      2       38       37       39
      83      2       38       37       40
      84      1       38       43       44
      85      2       38       43       45
      86      2       38       43       46
      87      3       39       37       40
      88      3       41       38       42
      89      2       41       38       43
      90      2       42       38       43
      91      2       43       44       47
      92      2       43       44       48
      93      1       43       44       49
      94      2       44       43       45
      95      2       44       43       46
      96      1       44       49       50
      97      2       44       49       51
      98      2       44       49       52
      99      3       45       43       46
     100      3       47       44       48
     101      2       47       44       49
     102      2       48       44       49
     103      2       49       50       53
     104      2       49       50       54
     105      1       49       50       55
     106      2       50       49       51
     107      2       50       49       52
     108      1       50       55       56
     109      2       50       55       57
     110      2       50       55       58
     111      3       51       49       52
     112      3       53       50       54
     113      2       53       50       55
     114      2       54       50       55
     115      2       55       56       59
     116      2       55       56       60
     117      1       55       56       61
     118      2       56       55       57
     119      2       56       55       58
     120      1       56       61       62
     121      2       56       61       63
     122      2       56       61       64
     123      3       57       55       58
     124      3       59       56       60
     125      2       59       56       61
     126      2       60       56       61
     127      2       61       62       65
     128      2       61       62       66
     129      1       61       62       67
     130      2       62       61       63
     131      2       62       61       64
     132      1       62       67       68
     133      2       62       67       69
     134      2       62       67       70
     135      3       63       61       64
     136      3       65       62       66
     137      2       65       62       67
     138      2       66       62       67
     139      2       67       68       71
     140      2       67       68       72
     141      1       67       68       73
     142      2       68       67       69
     143      2       68       67       70
     144      1       68       73       74
     145      2       68       73       75
     146      2       68       73       76
     147      3       69       67       70
     148      3       71       68       72
     149      2       71       68       73
     150      2       72       68       73
     151      2       73       74       77
     152      2       73       74       78
     153      1       73       74       79
     154      2       74       73       75
     155      2       74       73       76
     156      1       74       79       80
     157      2       74       79       81
     158      2       74       79       82
     159      3       75       73       76
     160      3       77       74       78
     161      2       77       74       79
     162      2       78       74       79
     163      2       79       80       83
     164      2       79       80       84
     165      1       79       80       85
     166      2       80       79       81
     167      2       80       79       82
     168      1       80       85       86
     169      2       80       85       87
     170      2       80       85       88
     171      3       81       79       82
     172      3       83       80       84
     173      2       83       80       85
     174      2       84       80       85
     175      2       85       86       89
     176      2       85       86       90
     177      1       85       86       91
     178      2       86       85       87
     179      2       86       85       88
     180      1       86       91       92
     181      2       86       91       93
     182      2       86       91       94
     183      3       87       85       88
     184      3       89       86       90
     185      2       89       86       91
     186      2       90       86       91
     187      2       91       92       95
     188      2       91       92       96
     189      1       91       92       97
     190      2       92       91       93
     191      2       92       91       94
     192      1       92       97       98
     193      2       92       97       99
     194      2       92       97      100
     195      3       93       91       94
     196      3       95       92       96
     197      2       95       92       97
     198      2       96       92       97
     199      2       97       98      101
     200      2       97       98      102
     201      1       97       98      103
     202      2       98       97       99
     203      2       98       97      100
     204      1       98      103      104
     205      2       98      103      105
     206      2       98      103      106
     207      3       99       97      100
     208      3      101       98      102
     209      2      101       98      103
     210      2      102       98      103
     211      2      103      104      107
     212      2      103      104      108
     213      1      103      104      109
     214      2      104      103      105
     215      2      104      103      106
     216      1      104      109      110
     217      2      104      109      111
     218      2      104      109      112
     219      3      105      103      106
     220      3      107      104      108
     221      2      107      104      109
     222      2      108      104      109
     223      2      109      110      113
     224      2      109      110      114
     225      1      109      110      115
     226      2      110      109      111
     227      2      110      109      112
     228      1      110      115      116
     229      2      110      115      117
     230      2      110      115      118
     231      3      111      109      112
     232      3      113      110      114
     233      2      113      110      115
     234      2      114      110      115
     235      2      115      116      119
     236      2      115      116      120
     237      1      115      116      121
     238      2      116      115      117
     239      2      116      115      118
     240      1      116      121      122
     241      2      116      121      123
     242      2      116      121      124
     243      3      117      115      118
     244      3      119      116      120
     245      2      119      116      121
     246      2      120      116      121
     247      2      121      122      125
     248      2      121      122      126
     249      1      121      122      127
     250      2      122      121      123
     251      2      122      121      124
     252      1      122      127      128
     253      2      122      127      129
     254      2      122      127      130
     255      3      123      121      124
     256      3      125      122      126
     257      2      125      122      127
     258      2      126      122      127
     259      2      127      128      131
     260      2      127      128      132
     261      1      127      128      133
     262      2      128      127      129
     263      2      128      127      130
     264      1      128      133      134
     265      2      128      133      135
     266      2      128      133      136
     267      3      129      127      130
     268      3      131      128      132
     269      2      131      128      133
     270      2      132      128      133
     271      2      133      134      137
     272      2      133      134      138
     273      1      133      134      139
     274      2      134      133      135
     275      2      134      133      136
     276      1      134      139      140
     277      2      134      139      141
     278      2      134      139      142
     279      3      135      133      136
     280      3      137      134      138
     281      2      137      134      139
     282      2      138      134      139
     283      2      139      140      143
     284      2      139      140      144
     285      1      139      140      145
     286      2      140      139      141
     287      2      140      139      142
     288      1      140      145      146
     289      2      140      145      147
     290      2      140      145      148
     291      3      141      139      142
     292      3      143      140      144
     293      2      143      140      145
     294      2      144      140      145
     295      2      145      146      149
     296      2      145      146      150
     297      1      145      146      151
     298      2      146      145      147
     299      2      146      145      148
     300      1      146      151      152
     301      2      146      151      153
     302      2      146      151      154
     303      3      147      145      148
     304      3      149      146      150
     305      2      149      146      151
     306      2      150      146      151
     307      2      151      152      155
     308      2      151      152      156
     309      1      151      152      157
     310      2      152      151      153
     311      2      152      151      154
     312      1      152      157      158
     313      2      152      157      159
     314      2      152      157      160
     315      3      153      151      154
     316      3      155      152      156
     317      2      155      152      157
     318      2      156      152      157
     319      2      157      158      161
     320      2      157      158      162
     321      1      157      158      164
     322      2      158      157      159
     323      2      158      157      160
     324      1      158      164      163
     325      2      158      164      167
     326      2      158      164      168
     327      3      159      157      160
     328      3      161      158      162
     329      2      161      158      164
     330      2      162      158      164
     331      2      163      164      167
     332      2      163      164      168
     333      2      164      163      165
     334      2      164      163      166
     335      3      165      163      166
     336      3      167      164      168

Dihedrals

       1      1        1        2      163      164
       2      2        1        2      163      165
       3      2        1        2      163      166
       4      2        1        7        8       11
       5      2        1        7        8       12
       6      1        1        7        8       13
       7      1        2        1        7        8
       8      2        2        1        7        9
       9      2        2        1        7       10
      10      1        2      163      164      158
      11      2        2      163      164      167
      12      2        2      163      164      168
      13      3        3        1        2        5
      14      3        3        1        2        6
      15      2        3        1        2      163
      16      2        3        1        7        8
      17      3        3        1        7        9
      18      3        3        1        7       10
      19      3        4        1        2        5
      20      3        4        1        2        6
      21      2        4        1        2      163
      22      2        4        1        7        8
      23      3        4        1        7        9
      24      3        4        1        7       10
      25      2        5        2        1        7
      26      2        5        2      163      164
      27      3        5        2      163      165
      28      3        5        2      163      166
      29      2        6        2        1        7
      30      2        6        2      163      164
      31      3        6        2      163      165
      32      3        6        2      163      166
      33      1        7        1        2      163
      34      1        7        8       13       14
      35      2        7        8       13       15
      36      2        7        8       13       16
      37      2        8       13       14       17
      38      2        8       13       14       18
      39      1        8       13       14       19
      40      3        9        7        8       11
      41      3        9        7        8       12
      42      2        9        7        8       13
      43      3       10        7        8       11
      44      3       10        7        8       12
      45      2       10        7        8       13
      46      2       11        8       13       14
      47      3       11        8       13       15
      48      3       11        8       13       16
      49      2       12        8       13       14
      50      3       12        8       13       15
      51      3       12        8       13       16
      52      1       13       14       19       20
      53      2       13       14       19       21
      54      2       13       14       19       22
      55      2       14       19       20       23
      56      2       14       19       20       24
      57      1       14       19       20       25
      58      3       15       13       14       17
      59      3       15       13       14       18
      60      2       15       13       14       19
      61      3       16       13       14       17
      62      3       16       13       14       18
      63      2       16       13       14       19
      64      2       17       14       19       20
      65      3       17       14       19       21
      66      3       17       14       19       22
      67      2       18       14       19       20
      68      3       18       14       19       21
      69      3       18       14       19       22
      70      1       19       20       25       26
      71      2       19       20       25       27
      72      2       19       20       25       28
      73      2       20       25       26       29
      74      2       20       25       26       30
      75      1       20       25       26       31
      76      3       21       19       20       23
      77      3       21       19       20       24
      78      2       21       19       20       25
      79      3       22       19       20       23
      80      3       22       19       20       24
      81      2       22       19       20       25
      82      2       23       20       25       26
      83      3       23       20       25       27
      84      3       23       20       25       28
      85      2       24       20       25       26
      86      3       24       20       25       27
      87      3       24       20       25       28
      88      1       25       26       31       32
      89      2       25       26       31       33
      90      2       25       26       31       34
      91      2       26       31       32       35
      92      2       26       31       32       36
      93      1       26       31       32       37
      94      3       27       25       26       29
      95      3       27       25       26       30
      96      2       27       25       26       31
      97      3       28       25       26       29
      98      3       28       25       26       30
      99      2       28       25       26       31
     100      2       29       26       31       32
     101      3       29       26       31       33
     102      3       29       26       31       34
     103      2       30       26       31       32
     104      3       30       26       31       33
     105      3       30       26       31       34
     106      1       31       32       37       38
     107      2       31       32       37       39
     108      2       31       32       37       40
     109      2       32       37       38       41
     110      2       32       37       38       42
     111      1       32       37       38       43
     112      3       33       31       32       35
     113      3       33       31       32       36
     114      2       33       31       32       37
     115      3       34       31       32       35
     116      3       34       31       32       36
     117      2       34       31       32       37
     118      2       35       32       37       38
     119      3       35       32       37       39
     120      3       35       32       37       40
     121      2       36       32       37       38
     122      3       36       32       37       39
     123      3       36       32       37       40
     124      1       37       38       43       44
     125      2       37       38       43       45
     126      2       37       38       43       46
     127      2       38       43       44       47
     128      2       38       43       44       48
     129      1       38       43       44       49
     130      3       39       37       38       41
     131      3       39       37       38       42
     132      2       39       37       38       43
     133      3       40       37       38       41
     134      3       40       37       38       42
     135      2       40       37       38       43
     136      2       41       38       43       44
     137      3       41       38       43       45
     138      3       41       38       43       46
     139      2       42       38       43       44
     140      3       42       38       43       45
     141      3       42       38       43       46
     142      1       43       44       49       50
     143      2       43       44       49       51
     144      2       43       44       49       52
     145      2       44       49       50       53
     146      2       44       49       50       54
     147      1       44       49       50       55
     148      3       45       43       44       47
     149      3       45       43       44       48
     150      2       45       43       44       49
     151      3       46       43       44       47
     152      3       46       43       44       48
     153      2       46       43       44       49
     154      2       47       44       49       50
     155      3       47       44       49       51
     156      3       47       44       49       52
     157      2       48       44       49       50
     158      3       48       44       49       51
     159      3       48       44       49       52
     160      1       49       50       55       56
     161      2       49       50       55       57
     162      2       49       50       55       58
     163      2       50       55       56       59
     164      2       50       55       56       60
     165      1       50       55       56       61
     166      3       51       49       50       53
     167      3       51       49       50       54
     168      2       51       49       50       55
     169      3       52       49       50       53
     170      3       52       49       50       54
     171      2       52       49       50       55
     172      2       53       50       55       56
     173      3       53       50       55       57
     174      3       53       50       55       58
     175      2       54       50       55       56
     176      3       54       50       55       57
     177      3       54       50       55       58
     178      1       55       56       61       62
     179      2       55       56       61       63
     180      2       55       56       61       64
     181      2       56       61       62       65
     182      2       56       61       62       66
     183      1       56       61       62       67
     184      3       57       55       56       59
     185      3       57       55       56       60
     186      2       57       55       56       61
     187      3       58       55       56       59
     188      3       58       55       56       60
     189      2       58       55       56       61
     190      2       59       56       61       62
     191      3       59       56       61       63
     192      3       59       56       61       64
     193      2       60       56       61       62
     194      3       60       56       61       63
     195      3       60       56       61       64
     196      1       61       62       67       68
     197      2       61       62       67       69
     198      2       61       62       67       70
     199      2       62       67       68       71
     200      2       62       67       68       72
     201      1       62       67       68       73
     202      3       63       61       62       65
     203      3       63       61       62       66
     204      2       63       61       62       67
     205      3       64       61       62       65
     206      3       64       61       62       66
     207      2       64       61       62       67
     208      2       65       62       67       68
     209      3       65       62       67       69
     210      3       65       62       67       70
     211      2       66       62       67       68
     212      3       66       62       67       69
     213      3       66       62       67       70
     214      1       67       68       73       74
     215      2       67       68       73       75
     216      2       67       68       73       76
     217      2       68       73       74       77
     218      2       68       73       74       78
     219      1       68       73       74       79
     220      3       69       67       68       71
     221      3       69       67       68       72
     222      2       69       67       68       73
     223      3       70       67       68       71
     224      3       70       67       68       72
     225      2       70       67       68       73
     226      2       71       68       73       74
     227      3       71       68       73       75
     228      3       71       68       73       76
     229      2       72       68       73       74
     230      3       72       68       73       75
     231      3       72       68       73       76
     232      1       73       74       79       80
     233      2       73       74       79       81
     234      2       73       74       79       82
     235      2       74       79       80       83
     236      2       74       79       80       84
     237      1       74       79       80       85
     238      3       75       73       74       77
     239      3       75       73       74       78
     240      2       75       73       74       79
     241      3       76       73       74       77
     242      3       76       73       74       78
     243      2       76       73       74       79
     244      2       77       74       79       80
     245      3       77       74       79       81
     246      3       77       74       79       82
     247      2       78       74       79       80
     248      3       78       74       79       81
     249      3       78       74       79       82
     250      1       79       80       85       86
     251      2       79       80       85       87
     252      2       79       80       85       88
     253      2       80       85       86       89
     254      2       80       85       86       90
     255      1       80       85       86       91
     256      3       81       79       80       83
     257      3       81       79       80       84
     258      2       81       79       80       85
     259      3       82       79       80       83
     260      3       82       79       80       84
     261      2       82       79       80       85
     262      2       83       80       85       86
     263      3       83       80       85       87
     264      3       83       80       85       88
     265      2       84       80       85       86
     266      3       84       80       85       87
     267      3       84       80       85       88
     268      1       85       86       91       92
     269      2       85       86       91       93
     270      2       85       86       91       94
     271      2       86       91       92       95
     272      2       86       91       92       96
     273      1       86       91       92       97
     274      3       87       85       86       89
     275      3       87       85       86       90
     276      2       87       85       86       91
     277      3       88       85       86       89
     278      3       88       85       86       90
     279      2       88       85       86       91
     280      2       89       86       91       92
     281      3       89       86       91       93
     282      3       89       86       91       94
     283      2       90       86       91       92
     284      3       90       86       91       93
     285      3       90       86       91       94
     286      1       91       92       97       98
     287      2       91       92       97       99
     288      2       91       92       97      100
     289      2       92       97       98      101
     290      2       92       97       98      102
     291      1       92       97       98      103
     292      3       93       91       92       95
     293      3       93       91       92       96
     294      2       93       91       92       97
     295      3       94       91       92       95
     296      3       94       91       92       96
     297      2       94       91       92       97
     298      2       95       92       97       98
     299      3       95       92       97       99
     300      3       95       92       97      100
     301      2       96       92       97       98
     302      3       96       92       97       99
     303      3       96       92       97      100
     304      1       97       98      103      104
     305      2       97       98      103      105
     306      2       97       98      103      106
     307      2       98      103      104      107
     308      2       98      103      104      108
     309      1       98      103      104      109
     310      3       99       97       98      101
     311      3       99       97       98      102
     312      2       99       97       98      103
     313      3      100       97       98      101
     314      3      100       97       98      102
     315      2      100       97       98      103
     316      2      101       98      103      104
     317      3      101       98      103      105
     318      3      101       98      103      106
     319      2      102       98      103      104
     320      3      102       98      103      105
     321      3      102       98      103      106
     322      1      103      104      109      110
     323      2      103      104      109      111
     324      2      103      104      109      112
     325      2      104      109      110      113
     326      2      104      109      110      114
     327      1      104      109      110      115
     328      3      105      103      104      107
     329      3      105      103      104      108
     330      2      105      103      104      109
     331      3      106      103      104      107
     332      3      106      103      104      108
     333      2      106      103      104      109
     334      2      107      104      109      110
     335      3      107      104      109      111
     336      3      107      104      109      112
     337      2      108      104      109      110
     338      3      108      104      109      111
     339      3      108      104      109      112
     340      1      109      110      115      116
     341      2      109      110      115      117
     342      2      109      110      115      118
     343      2      110      115      116      119
     344      2      110      115      116      120
     345      1      110      115      116      121
     346      3      111      109      110      113
     347      3      111      109      110      114
     348      2      111      109      110      115
     349      3      112      109      110      113
     350      3      112      109      110      114
     351      2      112      109      110      115
     352      2      113      110      115      116
     353      3      113      110      115      117
     354      3      113      110      115      118
     355      2      114      110      115      116
     356      3      114      110      115      117
     357      3      114      110      115      118
     358      1      115      116      121      122
     359      2      115      116      121      123
     360      2      115      116      121      124
     361      2      116      121      122      125
     362      2      116      121      122      126
     363      1      116      121      122      127
     364      3      117      115      116      119
     365      3      117      115      116      120
     366      2      117      115      116      121
     367      3      118      115      116      119
     368      3      118      115      116      120
     369      2      118      115      116      121
     370      2      119      116      121      122
     371      3      119      116      121      123
     372      3      119      116      121      124
     373      2      120      116      121      122
     374      3      120      116      121      123
     375      3      120      116      121      124
     376      1      121      122      127      128
     377      2      121      122      127      129
     378      2      121      122      127      130
     379      2      122      127      128      131
     380      2      122      127      128      132
     381      1      122      127      128      133
     382      3      123      121      122      125
     383      3      123      121      122      126
     384      2      123      121      122      127
     385      3      124      121      122      125
     386      3      124      121      122      126
     387      2      124      121      122      127
     388      2      125      122      127      128
     389      3      125      122      127      129
     390      3      125      122      127      130
     391      2      126      122      127      128
     392      3      126      122      127      129
     393      3      126      122      127      130
     394      1      127      128      133      134
     395      2      127      128      133      135
     396      2      127      128      133      136
     397      2      128      133      134      137
     398      2      128      133      134      138
     399      1      128      133      134      139
     400      3      129      127      128      131
     401      3      129      127      128      132
     402      2      129      127      128      133
     403      3      130      127      128      131
     404      3      130      127      128      132
     405      2      130      127      128      133
     406      2      131      128      133      134
     407      3      131      128      133      135
     408      3      131      128      133      136
     409      2      132      128      133      134
     410      3      132      128      133      135
     411      3      132      128      133      136
     412      1      133      134      139      140
     413      2      133      134      139      141
     414      2      133      134      139      142
     415      2      134      139      140      143
     416      2      134      139      140      144
     417      1      134      139      140      145
     418      3      135      133      134      137
     419      3      135      133      134      138
     420      2      135      133      134      139
     421      3      136      133      134      137
     422      3      136      133      134      138
     423      2      136      133      134      139
     424      2      137      134      139      140
     425      3      137      134      139      141
     426      3      137      134      139      142
     427      2      138      134      139      140
     428      3      138      134      139      141
     429      3      138      134      139      142
     430      1      139      140      145      146
     431      2      139      140      145      147
     432      2      139      140      145      148
     433      2      140      145      146      149
     434      2      140      145      146      150
     435      1      140      145      146      151
     436      3      141      139      140      143
     437      3      141      139      140      144
     438      2      141      139      140      145
     439      3      142      139      140      143
     440      3      142      139      140      144
     441      2      142      139      140      145
     442      2      143      140      145      146
     443      3      143      140      145      147
     444      3      143      140      145      148
     445      2      144      140      145      146
     446      3      144      140      145      147
     447      3      144      140      145      148
     448      1      145      146      151      152
     449      2      145      146      151      153
     450      2      145      146      151      154
     451      2      146      151      152      155
     452      2      146      151      152      156
     453      1      146      151      152      157
     454      3      147      145      146      149
     455      3      147      145      146      150
     456      2      147      145      146      151
     457      3      148      145      146      149
     458      3      148      145      146      150
     459      2      148      145      146      151
     460      2      149      146      151      152
     461      3      149      146      151      153
     462      3      149      146      151      154
     463      2      150      146      151      152
     464      3      150      146      151      153
     465      3      150      146      151      154
     466      1      151      152      157      158
     467      2      151      152      157      159
     468      2      151      152      157      160
     469      2      152      157      158      161
     470      2      152      157      158      162
     471      1      152      157      158      164
     472      3      153      151      152      155
     473      3      153      151      152      156
     474      2      153      151      152      157
     475      3      154      151      152      155
     476      3      154      151      152      156
     477      2      154      151      152      157
     478      2      155      152      157      158
     479      3      155      152      157      159
     480      3      155      152      157      160
     481      2      156      152      157      158
     482      3      156      152      157      159
     483      3      156      152      157      160
     484      1      157      158      164      163
     485      2      157      158      164      167
     486      2      157      158      164      168
     487      2      158      164      163      165
     488      2      158      164      163      166
     489      3      159      157      158      161
     490      3      159      157      158      162
     491      2      159      157      158      164
     492      3      160      157      158      161
     493      3      160      157      158      162
     494      2      160      157      158      164
     495      2      161      158      164      163
     496      3      161      158      164      167
     497      3      161      158      164      168
     498      2      162      158      164      163
     499      3      162      158      164      167
     500      3      162      158      164      168
     501      3      165      163      164      167
     502      3      165      163      164      168
     503      3      166      163      164      167
     504      3      166      163      164      168

Impropers


