LAMMPS data file generated by clean-room 1-hop pipeline

     218 atoms
     217 bonds
     432 angles
     639 dihedrals
       0 impropers

       4 atom types
       6 bond types
      11 angle types
      13 dihedral types
       0 improper types

  -31.461700    36.685900 xlo xhi
  -36.270700    38.241100 ylo yhi
  -30.249200    31.055800 zlo zhi

Masses

       1    12.011000
       2    12.011000
       3    12.011000
       4     1.008000

Pair Coeffs

       1     0.066000     3.500000
       2     0.066000     3.500000
       3     0.066000     3.500000
       4     0.030000     2.500000

Bond Coeffs

       1   268.000000     1.529000
       2   340.000000     1.090000
       3   268.000000     1.529000
       4   268.000000     1.529000
       5   340.000000     1.090000
       6   340.000000     1.090000

Angle Coeffs

       1    58.350000   112.700000
       2    37.500000   110.700000
       3    37.500000   110.700000
       4    58.350000   112.700000
       5    58.350000   112.700000
       6    37.500000   110.700000
       7    58.350000   112.700000
       8    37.500000   110.700000
       9    37.500000   110.700000
      10    33.000000   107.800000
      11    33.000000   107.800000

Dihedral Coeffs

       1     0.850000    -0.200000     0.200000     0.000000
       2     0.000000     0.000000     0.300000     0.000000
       3     0.000000     0.000000     0.300000     0.000000
       4     0.850000    -0.200000     0.200000     0.000000
       5     0.850000    -0.200000     0.200000     0.000000
       6     0.000000     0.000000     0.300000     0.000000
       7     0.850000    -0.200000     0.200000     0.000000
       8     0.000000     0.000000     0.300000     0.000000
       9     0.000000     0.000000     0.300000     0.000000
      10     0.000000     0.000000     0.300000     0.000000
      11     0.000000     0.000000     0.300000     0.000000
      12     0.000000     0.000000     0.300000     0.000000
      13     0.000000     0.000000     0.300000     0.000000

Improper Coeffs


Atoms

       1    1      1  -0.26499312    12.898000     0.969600    10.178800
       2    1      2  -0.19434175    11.886400    -0.184700    10.059400
       3    1      4   0.09686784    12.884300     1.580700     9.216600
       4    1      4   0.09686784    12.609700     1.638100    11.055800
       5    1      4   0.09686784    13.941500     0.544000    10.351900
       6    1      4   0.09686784    11.888400    -0.796800    11.020800
       7    1      4   0.09686784    12.173300    -0.853500     9.182200
       8    1      1  -0.26499312    -9.171400    17.753600     5.570000
       9    1      2  -0.19434175    -9.313200    16.225000     5.693100
      10    1      4   0.09686784    -8.098600    18.014900     5.288000
      11    1      4   0.09686784    -9.881200    18.138600     4.765600
      12    1      4   0.09686784    -9.427100    18.241100     6.568000
      13    1      4   0.09686784    -8.600300    15.843300     6.496400
      14    1      4   0.09686784   -10.386200    15.966500     5.978800
      15    1      1  -0.26499312     3.302600   -15.229000    -9.485900
      16    1      2  -0.19434175     1.863200   -14.857800    -9.082000
      17    1      4   0.09686784     3.313400   -16.270700    -9.946600
      18    1      4   0.09686784     3.689900   -14.477200   -10.249200
      19    1      4   0.09686784     3.972400   -15.214200    -8.564300
      20    1      4   0.09686784     1.476900   -15.608700    -8.315800
      21    1      4   0.09686784     1.194200   -14.870400   -10.005300
      22    1      1  -0.26499312    15.973000    -7.549900    -5.849000
      23    1      2  -0.19434175    14.664200    -7.971200    -5.155500
      24    1      4   0.09686784    16.459900    -8.462500    -6.327800
      25    1      4   0.09686784    15.745100    -6.775200    -6.653900
      26    1      4   0.09686784    16.685900    -7.102800    -5.079800
      27    1      4   0.09686784    14.892600    -8.747700    -4.352700
      28    1      4   0.09686784    14.176800    -7.058100    -4.677800
      29    1      2  -0.19434175    10.481600     0.398100     9.820900
      30    1      2  -0.19434175    10.491400     1.234900     8.527800
      31    1      4   0.09686784     9.727700    -0.451500     9.720100
      32    1      4   0.09686784    10.191700     1.064600    10.699500
      33    1      4   0.09686784    10.787600     0.574400     7.647500
      34    1      4   0.09686784    11.244900     2.084000     8.632400
      35    1      2  -0.19434175     9.084600     1.814400     8.286100
      36    1      2  -0.19434175     9.074700     2.666600     7.002600
      37    1      4   0.09686784     8.337600     0.959800     8.180900
      38    1      4   0.09686784     8.789400     2.466400     9.173400
      39    1      4   0.09686784     9.369100     2.022200     6.109400
      40    1      4   0.09686784     9.817300     3.524000     7.116200
      41    1      2  -0.19434175     7.659700     3.236300     6.787600
      42    1      2  -0.19434175     7.629100     4.133600     5.536000
      43    1      4   0.09686784     6.918800     2.378700     6.663900
      44    1      4   0.09686784     7.370100     3.860700     7.696200
      45    1      4   0.09686784     7.907600     3.527800     4.611300
      46    1      4   0.09686784     8.373100     4.986600     5.673400
      47    1      2  -0.19434175     6.214100     4.721400     5.372900
      48    1      2  -0.19434175     6.177300     5.705000     4.187400
      49    1      4   0.09686784     5.460200     3.882600     5.208700
      50    1      4   0.09686784     5.942400     5.289100     6.323400
      51    1      4   0.09686784     6.948800     6.523100     4.375500
      52    1      4   0.09686784     6.424600     5.166900     3.213000
      53    1      2  -0.19434175     4.780600     6.351500     4.101000
      54    1      2  -0.19434175     4.782500     7.454600     3.025700
      55    1      4   0.09686784     3.989700     5.564800     3.866400
      56    1      4   0.09686784     4.546700     6.834600     5.106400
      57    1      4   0.09686784     5.603100     8.201300     3.288000
      58    1      4   0.09686784     4.986200     7.011700     1.995100
      59    1      2  -0.19434175     3.431400     8.197200     3.033600
      60    1      2  -0.19434175     2.271500     7.292900     2.575500
      61    1      4   0.09686784     3.489900     9.087600     2.324100
      62    1      4   0.09686784     3.229500     8.577600     4.089000
      63    1      4   0.09686784     2.455600     6.985800     1.493100
      64    1      4   0.09686784     2.209500     6.363400     3.232600
      65    1      2  -0.19434175     0.955400     8.089800     2.681100
      66    1      2  -0.19434175    -0.208800     7.284000     2.073800
      67    1      4   0.09686784     1.057100     9.064500     2.098700
      68    1      4   0.09686784     0.745200     8.319300     3.777800
      69    1      4   0.09686784     0.009200     7.123400     0.966400
      70    1      4   0.09686784    -0.299600     6.270900     2.588700
      71    1      2  -0.19434175    -1.544800     8.041900     2.221300
      72    1      2  -0.19434175    -2.610300     7.267000     1.422300
      73    1      4   0.09686784    -1.449200     9.089000     1.781200
      74    1      4   0.09686784    -1.830700     8.112900     3.322300
      75    1      4   0.09686784    -2.277900     7.264300     0.331800
      76    1      4   0.09686784    -2.657000     6.190200     1.793300
      77    1      2  -0.19434175    -4.027800     7.873100     1.495700
      78    1      2  -0.19434175    -4.837000     7.074000     0.457200
      79    1      4   0.09686784    -4.008100     8.971900     1.192200
      80    1      4   0.09686784    -4.454900     7.761300     2.546700
      81    1      4   0.09686784    -4.330900     7.257300    -0.547600
      82    1      4   0.09686784    -4.755300     5.964300     0.704900
      83    1      2  -0.19434175    -6.333400     7.404800     0.282300
      84    1      2  -0.19434175    -6.657000     6.581200    -0.976500
      85    1      4   0.09686784    -6.497200     8.513300     0.071600
      86    1      4   0.09686784    -6.940900     7.073600     1.188700
      87    1      4   0.09686784    -5.983100     6.995200    -1.797300
      88    1      4   0.09686784    -6.346700     5.503800    -0.770000
      89    1      2  -0.19434175    -9.507800     7.332900     1.388600
      90    1      2  -0.19434175    -9.011300     8.724000     0.950600
      91    1      4   0.09686784   -10.428800     7.542000     2.027000
      92    1      4   0.09686784    -8.738200     6.792600     2.033100
      93    1      4   0.09686784    -9.789800     9.180400     0.253700
      94    1      4   0.09686784    -7.999900     8.679500     0.426900
      95    1      2  -0.19434175    -8.985100     9.572400     2.239100
      96    1      2  -0.19434175    -8.729100    11.070100     1.980700
      97    1      4   0.09686784   -10.018100     9.487700     2.713900
      98    1      4   0.09686784    -8.211700     9.160700     2.968100
      99    1      4   0.09686784    -9.489300    11.451500     1.221600
     100    1      4   0.09686784    -7.673000    11.233300     1.584300
     101    1      2  -0.19434175    -8.945700    11.819300     3.311200
     102    1      2  -0.19434175    -8.789400    13.342400     3.138100
     103    1      4   0.09686784   -10.005300    11.605300     3.673200
     104    1      4   0.09686784    -8.199500    11.445400     4.087600
     105    1      4   0.09686784    -9.525200    13.711700     2.349600
     106    1      4   0.09686784    -7.723800    13.587200     2.815500
     107    1      2  -0.19434175    -9.104300    14.031100     4.480900
     108    1      2  -0.19434175    -8.969100    15.560000     4.346600
     109    1      4   0.09686784   -10.171600    13.776500     4.790200
     110    1      4   0.09686784    -8.382500    13.656100     5.279700
     111    1      4   0.09686784    -9.685600    15.937100     3.544200
     112    1      4   0.09686784    -7.899100    15.820900     4.052500
     113    1      2  -0.19434175    -9.262200     3.827800     0.906000
     114    1      2  -0.19434175   -10.165700     2.946500     0.021600
     115    1      4   0.09686784    -9.915200     4.575000     1.467100
     116    1      4   0.09686784    -8.729600     3.158200     1.659100
     117    1      4   0.09686784   -11.031600     2.595400     0.674900
     118    1      4   0.09686784   -10.581700     3.549200    -0.852500
     119    1      2  -0.19434175    -9.458000     1.659300    -0.453400
     120    1      2  -0.19434175   -10.555600     0.817200    -1.130900
     121    1      4   0.09686784    -9.103600     1.108000     0.479100
     122    1      4   0.09686784    -8.574000     1.852800    -1.146300
     123    1      4   0.09686784   -11.461700     0.891100    -0.442600
     124    1      4   0.09686784   -10.836900     1.270100    -2.138600
     125    1      2  -0.19434175   -10.263900    -0.696300    -1.244800
     126    1      2  -0.19434175    -9.188200    -1.270300    -2.194900
     127    1      4   0.09686784   -11.244900    -1.164100    -1.588400
     128    1      4   0.09686784   -10.034700    -1.072400    -0.193500
     129    1      4   0.09686784    -9.420400    -0.948300    -3.263200
     130    1      4   0.09686784    -8.135000    -0.947800    -1.901300
     131    1      2  -0.19434175    -9.392100    -2.796100    -2.047600
     132    1      2  -0.19434175    -8.681800    -3.810900    -2.968000
     133    1      4   0.09686784   -10.506200    -2.968600    -2.215300
     134    1      4   0.09686784    -9.146400    -3.076100    -0.970300
     135    1      4   0.09686784    -8.934100    -3.600000    -4.059300
     136    1      4   0.09686784    -9.093500    -4.836500    -2.687700
     137    1      2  -0.19434175    -7.156300    -3.902700    -2.801300
     138    1      2  -0.19434175    -6.754100    -5.156000    -3.605200
     139    1      4   0.09686784    -6.899100    -4.071900    -1.703600
     140    1      4   0.09686784    -6.646200    -2.960800    -3.191100
     141    1      4   0.09686784    -7.067900    -5.022300    -4.692600
     142    1      4   0.09686784    -7.317600    -6.041900    -3.161600
     143    1      2  -0.19434175    -5.246100    -5.472800    -3.557600
     144    1      2  -0.19434175    -4.963600    -6.824100    -4.252000
     145    1      4   0.09686784    -4.908600    -5.547800    -2.471400
     146    1      4   0.09686784    -4.671300    -4.637400    -4.078300
     147    1      4   0.09686784    -5.343900    -6.791800    -5.326100
     148    1      4   0.09686784    -5.506300    -7.651000    -3.685100
     149    1      2  -0.19434175    -3.449800    -7.120400    -4.269100
     150    1      2  -0.19434175    -3.147800    -8.499900    -4.892000
     151    1      4   0.09686784    -3.044200    -7.105500    -3.203800
     152    1      4   0.09686784    -2.929800    -6.311500    -4.881500
     153    1      4   0.09686784    -3.584500    -8.559400    -5.943400
     154    1      4   0.09686784    -3.596000    -9.323600    -4.243400
     155    1      2  -0.19434175    -1.615400    -8.646500    -4.969900
     156    1      2  -0.19434175    -1.157400   -10.006500    -5.535000
     157    1      4   0.09686784    -1.171700    -8.519200    -3.927600
     158    1      4   0.09686784    -1.219300    -7.818400    -5.645500
     159    1      4   0.09686784    -1.616100   -10.182900    -6.563800
     160    1      4   0.09686784    -1.461600   -10.845200    -4.825300
     161    1      2  -0.19434175     0.439300   -13.042600    -8.050300
     162    1      2  -0.19434175     1.863700   -13.446600    -8.466900
     163    1      4   0.09686784    -0.228200   -13.135500    -8.969800
     164    1      4   0.09686784     0.072700   -13.775900    -7.258200
     165    1      4   0.09686784     2.261600   -12.702100    -9.232800
     166    1      4   0.09686784     2.535700   -13.452200    -7.548500
     167    1      2  -0.19434175     3.486600   -11.906300    -6.847600
     168    1      2  -0.19434175     4.901800   -11.308800    -6.963000
     169    1      4   0.09686784     3.176600   -12.217500    -7.895700
     170    1      4   0.09686784     3.491000   -12.810200    -6.153200
     171    1      4   0.09686784     5.283500   -10.956500    -5.947800
     172    1      4   0.09686784     4.863300   -10.426000    -7.683300
     173    1      2  -0.19434175     5.834500   -12.391100    -7.537200
     174    1      2  -0.19434175     7.220400   -11.805600    -7.868500
     175    1      4   0.09686784     5.379700   -12.786800    -8.504600
     176    1      4   0.09686784     5.932700   -13.246300    -6.790100
     177    1      4   0.09686784     7.091900   -10.975300    -8.639100
     178    1      4   0.09686784     7.867900   -12.631000    -8.314600
     179    1      2  -0.19434175     7.939300   -11.226000    -6.636300
     180    1      2  -0.19434175     9.298900   -10.695600    -7.130200
     181    1      4   0.09686784     7.324000   -10.378000    -6.186700
     182    1      4   0.09686784     8.099100   -12.042800    -5.857400
     183    1      4   0.09686784     9.119400    -9.892500    -7.919400
     184    1      4   0.09686784     9.880800   -11.558500    -7.595700
     185    1      2  -0.19434175    10.140700   -10.093100    -5.990100
     186    1      2  -0.19434175    11.473600    -9.619600    -6.601100
     187    1      4   0.09686784     9.591500    -9.211500    -5.520800
     188    1      4   0.09686784    10.340800   -10.885100    -5.195200
     189    1      4   0.09686784    11.261900    -8.835700    -7.401400
     190    1      4   0.09686784    11.997800   -10.511700    -7.079500
     191    1      2  -0.19434175    12.393700    -9.012500    -5.526100
     192    1      2  -0.19434175    13.709000    -8.577500    -6.199700
     193    1      4   0.09686784    11.884900    -8.109600    -5.050800
     194    1      4   0.09686784    12.614500    -9.794500    -4.726200
     195    1      4   0.09686784    13.483500    -7.800500    -7.002400
     196    1      4   0.09686784    14.204200    -9.485200    -6.679600
     197    1      3  -0.12808837    -9.055500     5.690000    -0.713200
     198    1      2  -0.19434175    -8.080900     6.524400    -1.564300
     199    1      2  -0.19434175   -10.013100     6.442600     0.235800
     200    1      2  -0.19434175    -8.250000     4.653500     0.092400
     201    1      4   0.09686784    -9.749800     5.145300    -1.435100
     202    1      4   0.09686784    -8.515800     7.541300    -1.840700
     203    1      4   0.09686784    -7.941800     5.923200    -2.522700
     204    1      4   0.09686784   -10.633400     5.622300     0.727400
     205    1      4   0.09686784   -10.716400     7.081800    -0.393900
     206    1      4   0.09686784    -7.570400     5.220600     0.811400
     207    1      4   0.09686784    -7.622900     3.986400    -0.586700
     208    1      3  -0.12808837     1.013900   -11.232600    -6.201000
     209    1      2  -0.19434175     0.376300    -9.931900    -5.672900
     210    1      2  -0.19434175     0.279100   -11.601400    -7.510500
     211    1      2  -0.19434175     2.505100   -10.840200    -6.332000
     212    1      4   0.09686784     0.854400   -12.062000    -5.435300
     213    1      4   0.09686784     0.618700    -9.089200    -6.401300
     214    1      4   0.09686784     0.836200    -9.688900    -4.658600
     215    1      4   0.09686784    -0.834000   -11.497000    -7.286900
     216    1      4   0.09686784     0.553300   -10.842700    -8.315600
     217    1      4   0.09686784     2.866500   -10.508000    -5.303100
     218    1      4   0.09686784     2.561100    -9.950100    -7.042300

Bonds

       1      1        1        2
       2      2        1        3
       3      2        1        4
       4      2        1        5
       5      5        2        6
       6      5        2        7
       7      3        2       29
       8      1        8        9
       9      2        8       10
      10      2        8       11
      11      2        8       12
      12      5        9       13
      13      5        9       14
      14      3        9      108
      15      1       15       16
      16      2       15       17
      17      2       15       18
      18      2       15       19
      19      5       16       20
      20      5       16       21
      21      3       16      162
      22      1       22       23
      23      2       22       24
      24      2       22       25
      25      2       22       26
      26      5       23       27
      27      5       23       28
      28      3       23      192
      29      3       29       30
      30      5       29       31
      31      5       29       32
      32      5       30       33
      33      5       30       34
      34      3       30       35
      35      3       35       36
      36      5       35       37
      37      5       35       38
      38      5       36       39
      39      5       36       40
      40      3       36       41
      41      3       41       42
      42      5       41       43
      43      5       41       44
      44      5       42       45
      45      5       42       46
      46      3       42       47
      47      3       47       48
      48      5       47       49
      49      5       47       50
      50      5       48       51
      51      5       48       52
      52      3       48       53
      53      3       53       54
      54      5       53       55
      55      5       53       56
      56      5       54       57
      57      5       54       58
      58      3       54       59
      59      3       59       60
      60      5       59       61
      61      5       59       62
      62      5       60       63
      63      5       60       64
      64      3       60       65
      65      3       65       66
      66      5       65       67
      67      5       65       68
      68      5       66       69
      69      5       66       70
      70      3       66       71
      71      3       71       72
      72      5       71       73
      73      5       71       74
      74      5       72       75
      75      5       72       76
      76      3       72       77
      77      3       77       78
      78      5       77       79
      79      5       77       80
      80      5       78       81
      81      5       78       82
      82      3       78       83
      83      3       83       84
      84      5       83       85
      85      5       83       86
      86      5       84       87
      87      5       84       88
      88      3       84      198
      89      3       89       90
      90      5       89       91
      91      5       89       92
      92      3       89      199
      93      5       90       93
      94      5       90       94
      95      3       90       95
      96      3       95       96
      97      5       95       97
      98      5       95       98
      99      5       96       99
     100      5       96      100
     101      3       96      101
     102      3      101      102
     103      5      101      103
     104      5      101      104
     105      5      102      105
     106      5      102      106
     107      3      102      107
     108      3      107      108
     109      5      107      109
     110      5      107      110
     111      5      108      111
     112      5      108      112
     113      3      113      114
     114      5      113      115
     115      5      113      116
     116      3      113      200
     117      5      114      117
     118      5      114      118
     119      3      114      119
     120      3      119      120
     121      5      119      121
     122      5      119      122
     123      5      120      123
     124      5      120      124
     125      3      120      125
     126      3      125      126
     127      5      125      127
     128      5      125      128
     129      5      126      129
     130      5      126      130
     131      3      126      131
     132      3      131      132
     133      5      131      133
     134      5      131      134
     135      5      132      135
     136      5      132      136
     137      3      132      137
     138      3      137      138
     139      5      137      139
     140      5      137      140
     141      5      138      141
     142      5      138      142
     143      3      138      143
     144      3      143      144
     145      5      143      145
     146      5      143      146
     147      5      144      147
     148      5      144      148
     149      3      144      149
     150      3      149      150
     151      5      149      151
     152      5      149      152
     153      5      150      153
     154      5      150      154
     155      3      150      155
     156      3      155      156
     157      5      155      157
     158      5      155      158
     159      5      156      159
     160      5      156      160
     161      3      156      209
     162      3      161      162
     163      5      161      163
     164      5      161      164
     165      3      161      210
     166      5      162      165
     167      5      162      166
     168      3      167      168
     169      5      167      169
     170      5      167      170
     171      3      167      211
     172      5      168      171
     173      5      168      172
     174      3      168      173
     175      3      173      174
     176      5      173      175
     177      5      173      176
     178      5      174      177
     179      5      174      178
     180      3      174      179
     181      3      179      180
     182      5      179      181
     183      5      179      182
     184      5      180      183
     185      5      180      184
     186      3      180      185
     187      3      185      186
     188      5      185      187
     189      5      185      188
     190      5      186      189
     191      5      186      190
     192      3      186      191
     193      3      191      192
     194      5      191      193
     195      5      191      194
     196      5      192      195
     197      5      192      196
     198      4      197      198
     199      4      197      199
     200      4      197      200
     201      6      197      201
     202      5      198      202
     203      5      198      203
     204      5      199      204
     205      5      199      205
     206      5      200      206
     207      5      200      207
     208      4      208      209
     209      4      208      210
     210      4      208      211
     211      6      208      212
     212      5      209      213
     213      5      209      214
     214      5      210      215
     215      5      210      216
     216      5      211      217
     217      5      211      218

Angles

       1      2        1        2        6
       2      2        1        2        7
       3      1        1        2       29
       4      3        2        1        3
       5      3        2        1        4
       6      3        2        1        5
       7      4        2       29       30
       8      6        2       29       31
       9      6        2       29       32
      10     10        3        1        4
      11     10        3        1        5
      12     10        4        1        5
      13     11        6        2        7
      14      6        6        2       29
      15      6        7        2       29
      16      2        8        9       13
      17      2        8        9       14
      18      1        8        9      108
      19      3        9        8       10
      20      3        9        8       11
      21      3        9        8       12
      22      4        9      108      107
      23      6        9      108      111
      24      6        9      108      112
      25     10       10        8       11
      26     10       10        8       12
      27     10       11        8       12
      28     11       13        9       14
      29      6       13        9      108
      30      6       14        9      108
      31      2       15       16       20
      32      2       15       16       21
      33      1       15       16      162
      34      3       16       15       17
      35      3       16       15       18
      36      3       16       15       19
      37      4       16      162      161
      38      6       16      162      165
      39      6       16      162      166
      40     10       17       15       18
      41     10       17       15       19
      42     10       18       15       19
      43     11       20       16       21
      44      6       20       16      162
      45      6       21       16      162
      46      2       22       23       27
      47      2       22       23       28
      48      1       22       23      192
      49      3       23       22       24
      50      3       23       22       25
      51      3       23       22       26
      52      4       23      192      191
      53      6       23      192      195
      54      6       23      192      196
      55     10       24       22       25
      56     10       24       22       26
      57     10       25       22       26
      58     11       27       23       28
      59      6       27       23      192
      60      6       28       23      192
      61      6       29       30       33
      62      6       29       30       34
      63      4       29       30       35
      64      6       30       29       31
      65      6       30       29       32
      66      4       30       35       36
      67      6       30       35       37
      68      6       30       35       38
      69     11       31       29       32
      70     11       33       30       34
      71      6       33       30       35
      72      6       34       30       35
      73      6       35       36       39
      74      6       35       36       40
      75      4       35       36       41
      76      6       36       35       37
      77      6       36       35       38
      78      4       36       41       42
      79      6       36       41       43
      80      6       36       41       44
      81     11       37       35       38
      82     11       39       36       40
      83      6       39       36       41
      84      6       40       36       41
      85      6       41       42       45
      86      6       41       42       46
      87      4       41       42       47
      88      6       42       41       43
      89      6       42       41       44
      90      4       42       47       48
      91      6       42       47       49
      92      6       42       47       50
      93     11       43       41       44
      94     11       45       42       46
      95      6       45       42       47
      96      6       46       42       47
      97      6       47       48       51
      98      6       47       48       52
      99      4       47       48       53
     100      6       48       47       49
     101      6       48       47       50
     102      4       48       53       54
     103      6       48       53       55
     104      6       48       53       56
     105     11       49       47       50
     106     11       51       48       52
     107      6       51       48       53
     108      6       52       48       53
     109      6       53       54       57
     110      6       53       54       58
     111      4       53       54       59
     112      6       54       53       55
     113      6       54       53       56
     114      4       54       59       60
     115      6       54       59       61
     116      6       54       59       62
     117     11       55       53       56
     118     11       57       54       58
     119      6       57       54       59
     120      6       58       54       59
     121      6       59       60       63
     122      6       59       60       64
     123      4       59       60       65
     124      6       60       59       61
     125      6       60       59       62
     126      4       60       65       66
     127      6       60       65       67
     128      6       60       65       68
     129     11       61       59       62
     130     11       63       60       64
     131      6       63       60       65
     132      6       64       60       65
     133      6       65       66       69
     134      6       65       66       70
     135      4       65       66       71
     136      6       66       65       67
     137      6       66       65       68
     138      4       66       71       72
     139      6       66       71       73
     140      6       66       71       74
     141     11       67       65       68
     142     11       69       66       70
     143      6       69       66       71
     144      6       70       66       71
     145      6       71       72       75
     146      6       71       72       76
     147      4       71       72       77
     148      6       72       71       73
     149      6       72       71       74
     150      4       72       77       78
     151      6       72       77       79
     152      6       72       77       80
     153     11       73       71       74
     154     11       75       72       76
     155      6       75       72       77
     156      6       76       72       77
     157      6       77       78       81
     158      6       77       78       82
     159      4       77       78       83
     160      6       78       77       79
     161      6       78       77       80
     162      4       78       83       84
     163      6       78       83       85
     164      6       78       83       86
     165     11       79       77       80
     166     11       81       78       82
     167      6       81       78       83
     168      6       82       78       83
     169      6       83       84       87
     170      6       83       84       88
     171      4       83       84      198
     172      6       84       83       85
     173      6       84       83       86
     174      5       84      198      197
     175      6       84      198      202
     176      6       84      198      203
     177     11       85       83       86
     178     11       87       84       88
     179      6       87       84      198
     180      6       88       84      198
     181      6       89       90       93
     182      6       89       90       94
     183      4       89       90       95
     184      5       89      199      197
     185      6       89      199      204
     186      6       89      199      205
     187      6       90       89       91
     188      6       90       89       92
     189      4       90       89      199
     190      4       90       95       96
     191      6       90       95       97
     192      6       90       95       98
     193     11       91       89       92
     194      6       91       89      199
     195      6       92       89      199
     196     11       93       90       94
     197      6       93       90       95
     198      6       94       90       95
     199      6       95       96       99
     200      6       95       96      100
     201      4       95       96      101
     202      6       96       95       97
     203      6       96       95       98
     204      4       96      101      102
     205      6       96      101      103
     206      6       96      101      104
     207     11       97       95       98
     208     11       99       96      100
     209      6       99       96      101
     210      6      100       96      101
     211      6      101      102      105
     212      6      101      102      106
     213      4      101      102      107
     214      6      102      101      103
     215      6      102      101      104
     216      4      102      107      108
     217      6      102      107      109
     218      6      102      107      110
     219     11      103      101      104
     220     11      105      102      106
     221      6      105      102      107
     222      6      106      102      107
     223      6      107      108      111
     224      6      107      108      112
     225      6      108      107      109
     226      6      108      107      110
     227     11      109      107      110
     228     11      111      108      112
     229      6      113      114      117
     230      6      113      114      118
     231      4      113      114      119
     232      5      113      200      197
     233      6      113      200      206
     234      6      113      200      207
     235      6      114      113      115
     236      6      114      113      116
     237      4      114      113      200
     238      4      114      119      120
     239      6      114      119      121
     240      6      114      119      122
     241     11      115      113      116
     242      6      115      113      200
     243      6      116      113      200
     244     11      117      114      118
     245      6      117      114      119
     246      6      118      114      119
     247      6      119      120      123
     248      6      119      120      124
     249      4      119      120      125
     250      6      120      119      121
     251      6      120      119      122
     252      4      120      125      126
     253      6      120      125      127
     254      6      120      125      128
     255     11      121      119      122
     256     11      123      120      124
     257      6      123      120      125
     258      6      124      120      125
     259      6      125      126      129
     260      6      125      126      130
     261      4      125      126      131
     262      6      126      125      127
     263      6      126      125      128
     264      4      126      131      132
     265      6      126      131      133
     266      6      126      131      134
     267     11      127      125      128
     268     11      129      126      130
     269      6      129      126      131
     270      6      130      126      131
     271      6      131      132      135
     272      6      131      132      136
     273      4      131      132      137
     274      6      132      131      133
     275      6      132      131      134
     276      4      132      137      138
     277      6      132      137      139
     278      6      132      137      140
     279     11      133      131      134
     280     11      135      132      136
     281      6      135      132      137
     282      6      136      132      137
     283      6      137      138      141
     284      6      137      138      142
     285      4      137      138      143
     286      6      138      137      139
     287      6      138      137      140
     288      4      138      143      144
     289      6      138      143      145
     290      6      138      143      146
     291     11      139      137      140
     292     11      141      138      142
     293      6      141      138      143
     294      6      142      138      143
     295      6      143      144      147
     296      6      143      144      148
     297      4      143      144      149
     298      6      144      143      145
     299      6      144      143      146
     300      4      144      149      150
     301      6      144      149      151
     302      6      144      149      152
     303     11      145      143      146
     304     11      147      144      148
     305      6      147      144      149
     306      6      148      144      149
     307      6      149      150      153
     308      6      149      150      154
     309      4      149      150      155
     310      6      150      149      151
     311      6      150      149      152
     312      4      150      155      156
     313      6      150      155      157
     314      6      150      155      158
     315     11      151      149      152
     316     11      153      150      154
     317      6      153      150      155
     318      6      154      150      155
     319      6      155      156      159
     320      6      155      156      160
     321      4      155      156      209
     322      6      156      155      157
     323      6      156      155      158
     324      5      156      209      208
     325      6      156      209      213
     326      6      156      209      214
     327     11      157      155      158
     328     11      159      156      160
     329      6      159      156      209
     330      6      160      156      209
     331      6      161      162      165
     332      6      161      162      166
     333      5      161      210      208
     334      6      161      210      215
     335      6      161      210      216
     336      6      162      161      163
     337      6      162      161      164
     338      4      162      161      210
     339     11      163      161      164
     340      6      163      161      210
     341      6      164      161      210
     342     11      165      162      166
     343      6      167      168      171
     344      6      167      168      172
     345      4      167      168      173
     346      5      167      211      208
     347      6      167      211      217
     348      6      167      211      218
     349      6      168      167      169
     350      6      168      167      170
     351      4      168      167      211
     352      4      168      173      174
     353      6      168      173      175
     354      6      168      173      176
     355     11      169      167      170
     356      6      169      167      211
     357      6      170      167      211
     358     11      171      168      172
     359      6      171      168      173
     360      6      172      168      173
     361      6      173      174      177
     362      6      173      174      178
     363      4      173      174      179
     364      6      174      173      175
     365      6      174      173      176
     366      4      174      179      180
     367      6      174      179      181
     368      6      174      179      182
     369     11      175      173      176
     370     11      177      174      178
     371      6      177      174      179
     372      6      178      174      179
     373      6      179      180      183
     374      6      179      180      184
     375      4      179      180      185
     376      6      180      179      181
     377      6      180      179      182
     378      4      180      185      186
     379      6      180      185      187
     380      6      180      185      188
     381     11      181      179      182
     382     11      183      180      184
     383      6      183      180      185
     384      6      184      180      185
     385      6      185      186      189
     386      6      185      186      190
     387      4      185      186      191
     388      6      186      185      187
     389      6      186      185      188
     390      4      186      191      192
     391      6      186      191      193
     392      6      186      191      194
     393     11      187      185      188
     394     11      189      186      190
     395      6      189      186      191
     396      6      190      186      191
     397      6      191      192      195
     398      6      191      192      196
     399      6      192      191      193
     400      6      192      191      194
     401     11      193      191      194
     402     11      195      192      196
     403      9      197      198      202
     404      9      197      198      203
     405      9      197      199      204
     406      9      197      199      205
     407      9      197      200      206
     408      9      197      200      207
     409      7      198      197      199
     410      7      198      197      200
     411      8      198      197      201
     412      7      199      197      200
     413      8      199      197      201
     414      8      200      197      201
     415     11      202      198      203
     416     11      204      199      205
     417     11      206      200      207
     418      9      208      209      213
     419      9      208      209      214
     420      9      208      210      215
     421      9      208      210      216
     422      9      208      211      217
     423      9      208      211      218
     424      7      209      208      210
     425      7      209      208      211
     426      8      209      208      212
     427      7      210      208      211
     428      8      210      208      212
     429      8      211      208      212
     430     11      213      209      214
     431     11      215      210      216
     432     11      217      211      218

Dihedrals

       1      1        1        2       29       30
       2      2        1        2       29       31
       3      2        1        2       29       32
       4      6        2       29       30       33
       5      6        2       29       30       34
       6      4        2       29       30       35
       7     11        3        1        2        6
       8     11        3        1        2        7
       9      3        3        1        2       29
      10     11        4        1        2        6
      11     11        4        1        2        7
      12      3        4        1        2       29
      13     11        5        1        2        6
      14     11        5        1        2        7
      15      3        5        1        2       29
      16      6        6        2       29       30
      17     12        6        2       29       31
      18     12        6        2       29       32
      19      6        7        2       29       30
      20     12        7        2       29       31
      21     12        7        2       29       32
      22      1        8        9      108      107
      23      2        8        9      108      111
      24      2        8        9      108      112
      25      4        9      108      107      102
      26      6        9      108      107      109
      27      6        9      108      107      110
      28     11       10        8        9       13
      29     11       10        8        9       14
      30      3       10        8        9      108
      31     11       11        8        9       13
      32     11       11        8        9       14
      33      3       11        8        9      108
      34     11       12        8        9       13
      35     11       12        8        9       14
      36      3       12        8        9      108
      37      6       13        9      108      107
      38     12       13        9      108      111
      39     12       13        9      108      112
      40      6       14        9      108      107
      41     12       14        9      108      111
      42     12       14        9      108      112
      43      1       15       16      162      161
      44      2       15       16      162      165
      45      2       15       16      162      166
      46      6       16      162      161      163
      47      6       16      162      161      164
      48      4       16      162      161      210
      49     11       17       15       16       20
      50     11       17       15       16       21
      51      3       17       15       16      162
      52     11       18       15       16       20
      53     11       18       15       16       21
      54      3       18       15       16      162
      55     11       19       15       16       20
      56     11       19       15       16       21
      57      3       19       15       16      162
      58      6       20       16      162      161
      59     12       20       16      162      165
      60     12       20       16      162      166
      61      6       21       16      162      161
      62     12       21       16      162      165
      63     12       21       16      162      166
      64      1       22       23      192      191
      65      2       22       23      192      195
      66      2       22       23      192      196
      67      4       23      192      191      186
      68      6       23      192      191      193
      69      6       23      192      191      194
      70     11       24       22       23       27
      71     11       24       22       23       28
      72      3       24       22       23      192
      73     11       25       22       23       27
      74     11       25       22       23       28
      75      3       25       22       23      192
      76     11       26       22       23       27
      77     11       26       22       23       28
      78      3       26       22       23      192
      79      6       27       23      192      191
      80     12       27       23      192      195
      81     12       27       23      192      196
      82      6       28       23      192      191
      83     12       28       23      192      195
      84     12       28       23      192      196
      85      4       29       30       35       36
      86      6       29       30       35       37
      87      6       29       30       35       38
      88      6       30       35       36       39
      89      6       30       35       36       40
      90      4       30       35       36       41
      91     12       31       29       30       33
      92     12       31       29       30       34
      93      6       31       29       30       35
      94     12       32       29       30       33
      95     12       32       29       30       34
      96      6       32       29       30       35
      97      6       33       30       35       36
      98     12       33       30       35       37
      99     12       33       30       35       38
     100      6       34       30       35       36
     101     12       34       30       35       37
     102     12       34       30       35       38
     103      4       35       36       41       42
     104      6       35       36       41       43
     105      6       35       36       41       44
     106      6       36       41       42       45
     107      6       36       41       42       46
     108      4       36       41       42       47
     109     12       37       35       36       39
     110     12       37       35       36       40
     111      6       37       35       36       41
     112     12       38       35       36       39
     113     12       38       35       36       40
     114      6       38       35       36       41
     115      6       39       36       41       42
     116     12       39       36       41       43
     117     12       39       36       41       44
     118      6       40       36       41       42
     119     12       40       36       41       43
     120     12       40       36       41       44
     121      4       41       42       47       48
     122      6       41       42       47       49
     123      6       41       42       47       50
     124      6       42       47       48       51
     125      6       42       47       48       52
     126      4       42       47       48       53
     127     12       43       41       42       45
     128     12       43       41       42       46
     129      6       43       41       42       47
     130     12       44       41       42       45
     131     12       44       41       42       46
     132      6       44       41       42       47
     133      6       45       42       47       48
     134     12       45       42       47       49
     135     12       45       42       47       50
     136      6       46       42       47       48
     137     12       46       42       47       49
     138     12       46       42       47       50
     139      4       47       48       53       54
     140      6       47       48       53       55
     141      6       47       48       53       56
     142      6       48       53       54       57
     143      6       48       53       54       58
     144      4       48       53       54       59
     145     12       49       47       48       51
     146     12       49       47       48       52
     147      6       49       47       48       53
     148     12       50       47       48       51
     149     12       50       47       48       52
     150      6       50       47       48       53
     151      6       51       48       53       54
     152     12       51       48       53       55
     153     12       51       48       53       56
     154      6       52       48       53       54
     155     12       52       48       53       55
     156     12       52       48       53       56
     157      4       53       54       59       60
     158      6       53       54       59       61
     159      6       53       54       59       62
     160      6       54       59       60       63
     161      6       54       59       60       64
     162      4       54       59       60       65
     163     12       55       53       54       57
     164     12       55       53       54       58
     165      6       55       53       54       59
     166     12       56       53       54       57
     167     12       56       53       54       58
     168      6       56       53       54       59
     169      6       57       54       59       60
     170     12       57       54       59       61
     171     12       57       54       59       62
     172      6       58       54       59       60
     173     12       58       54       59       61
     174     12       58       54       59       62
     175      4       59       60       65       66
     176      6       59       60       65       67
     177      6       59       60       65       68
     178      6       60       65       66       69
     179      6       60       65       66       70
     180      4       60       65       66       71
     181     12       61       59       60       63
     182     12       61       59       60       64
     183      6       61       59       60       65
     184     12       62       59       60       63
     185     12       62       59       60       64
     186      6       62       59       60       65
     187      6       63       60       65       66
     188     12       63       60       65       67
     189     12       63       60       65       68
     190      6       64       60       65       66
     191     12       64       60       65       67
     192     12       64       60       65       68
     193      4       65       66       71       72
     194      6       65       66       71       73
     195      6       65       66       71       74
     196      6       66       71       72       75
     197      6       66       71       72       76
     198      4       66       71       72       77
     199     12       67       65       66       69
     200     12       67       65       66       70
     201      6       67       65       66       71
     202     12       68       65       66       69
     203     12       68       65       66       70
     204      6       68       65       66       71
     205      6       69       66       71       72
     206     12       69       66       71       73
     207     12       69       66       71       74
     208      6       70       66       71       72
     209     12       70       66       71       73
     210     12       70       66       71       74
     211      4       71       72       77       78
     212      6       71       72       77       79
     213      6       71       72       77       80
     214      6       72       77       78       81
     215      6       72       77       78       82
     216      4       72       77       78       83
     217     12       73       71       72       75
     218     12       73       71       72       76
     219      6       73       71       72       77
     220     12       74       71       72       75
     221     12       74       71       72       76
     222      6       74       71       72       77
     223      6       75       72       77       78
     224     12       75       72       77       79
     225     12       75       72       77       80
     226      6       76       72       77       78
     227     12       76       72       77       79
     228     12       76       72       77       80
     229      4       77       78       83       84
     230      6       77       78       83       85
     231      6       77       78       83       86
     232      6       78       83       84       87
     233      6       78       83       84       88
     234      4       78       83       84      198
     235     12       79       77       78       81
     236     12       79       77       78       82
     237      6       79       77       78       83
     238     12       80       77       78       81
     239     12       80       77       78       82
     240      6       80       77       78       83
     241      6       81       78       83       84
     242     12       81       78       83       85
     243     12       81       78       83       86
     244      6       82       78       83       84
     245     12       82       78       83       85
     246     12       82       78       83       86
     247      5       83       84      198      197
     248      6       83       84      198      202
     249      6       83       84      198      203
     250      7       84      198      197      199
     251      7       84      198      197      200
     252      8       84      198      197      201
     253     12       85       83       84       87
     254     12       85       83       84       88
     255      6       85       83       84      198
     256     12       86       83       84       87
     257     12       86       83       84       88
     258      6       86       83       84      198
     259     10       87       84      198      197
     260     12       87       84      198      202
     261     12       87       84      198      203
     262     10       88       84      198      197
     263     12       88       84      198      202
     264     12       88       84      198      203
     265      4       89       90       95       96
     266      6       89       90       95       97
     267      6       89       90       95       98
     268      7       89      199      197      198
     269      7       89      199      197      200
     270      8       89      199      197      201
     271      5       90       89      199      197
     272      6       90       89      199      204
     273      6       90       89      199      205
     274      6       90       95       96       99
     275      6       90       95       96      100
     276      4       90       95       96      101
     277     12       91       89       90       93
     278     12       91       89       90       94
     279      6       91       89       90       95
     280     10       91       89      199      197
     281     12       91       89      199      204
     282     12       91       89      199      205
     283     12       92       89       90       93
     284     12       92       89       90       94
     285      6       92       89       90       95
     286     10       92       89      199      197
     287     12       92       89      199      204
     288     12       92       89      199      205
     289      6       93       90       89      199
     290      6       93       90       95       96
     291     12       93       90       95       97
     292     12       93       90       95       98
     293      6       94       90       89      199
     294      6       94       90       95       96
     295     12       94       90       95       97
     296     12       94       90       95       98
     297      4       95       90       89      199
     298      4       95       96      101      102
     299      6       95       96      101      103
     300      6       95       96      101      104
     301      6       96      101      102      105
     302      6       96      101      102      106
     303      4       96      101      102      107
     304     12       97       95       96       99
     305     12       97       95       96      100
     306      6       97       95       96      101
     307     12       98       95       96       99
     308     12       98       95       96      100
     309      6       98       95       96      101
     310      6       99       96      101      102
     311     12       99       96      101      103
     312     12       99       96      101      104
     313      6      100       96      101      102
     314     12      100       96      101      103
     315     12      100       96      101      104
     316      4      101      102      107      108
     317      6      101      102      107      109
     318      6      101      102      107      110
     319      6      102      107      108      111
     320      6      102      107      108      112
     321     12      103      101      102      105
     322     12      103      101      102      106
     323      6      103      101      102      107
     324     12      104      101      102      105
     325     12      104      101      102      106
     326      6      104      101      102      107
     327      6      105      102      107      108
     328     12      105      102      107      109
     329     12      105      102      107      110
     330      6      106      102      107      108
     331     12      106      102      107      109
     332     12      106      102      107      110
     333     12      109      107      108      111
     334     12      109      107      108      112
     335     12      110      107      108      111
     336     12      110      107      108      112
     337      4      113      114      119      120
     338      6      113      114      119      121
     339      6      113      114      119      122
     340      7      113      200      197      198
     341      7      113      200      197      199
     342      8      113      200      197      201
     343      5      114      113      200      197
     344      6      114      113      200      206
     345      6      114      113      200      207
     346      6      114      119      120      123
     347      6      114      119      120      124
     348      4      114      119      120      125
     349     12      115      113      114      117
     350     12      115      113      114      118
     351      6      115      113      114      119
     352     10      115      113      200      197
     353     12      115      113      200      206
     354     12      115      113      200      207
     355     12      116      113      114      117
     356     12      116      113      114      118
     357      6      116      113      114      119
     358     10      116      113      200      197
     359     12      116      113      200      206
     360     12      116      113      200      207
     361      6      117      114      113      200
     362      6      117      114      119      120
     363     12      117      114      119      121
     364     12      117      114      119      122
     365      6      118      114      113      200
     366      6      118      114      119      120
     367     12      118      114      119      121
     368     12      118      114      119      122
     369      4      119      114      113      200
     370      4      119      120      125      126
     371      6      119      120      125      127
     372      6      119      120      125      128
     373      6      120      125      126      129
     374      6      120      125      126      130
     375      4      120      125      126      131
     376     12      121      119      120      123
     377     12      121      119      120      124
     378      6      121      119      120      125
     379     12      122      119      120      123
     380     12      122      119      120      124
     381      6      122      119      120      125
     382      6      123      120      125      126
     383     12      123      120      125      127
     384     12      123      120      125      128
     385      6      124      120      125      126
     386     12      124      120      125      127
     387     12      124      120      125      128
     388      4      125      126      131      132
     389      6      125      126      131      133
     390      6      125      126      131      134
     391      6      126      131      132      135
     392      6      126      131      132      136
     393      4      126      131      132      137
     394     12      127      125      126      129
     395     12      127      125      126      130
     396      6      127      125      126      131
     397     12      128      125      126      129
     398     12      128      125      126      130
     399      6      128      125      126      131
     400      6      129      126      131      132
     401     12      129      126      131      133
     402     12      129      126      131      134
     403      6      130      126      131      132
     404     12      130      126      131      133
     405     12      130      126      131      134
     406      4      131      132      137      138
     407      6      131      132      137      139
     408      6      131      132      137      140
     409      6      132      137      138      141
     410      6      132      137      138      142
     411      4      132      137      138      143
     412     12      133      131      132      135
     413     12      133      131      132      136
     414      6      133      131      132      137
     415     12      134      131      132      135
     416     12      134      131      132      136
     417      6      134      131      132      137
     418      6      135      132      137      138
     419     12      135      132      137      139
     420     12      135      132      137      140
     421      6      136      132      137      138
     422     12      136      132      137      139
     423     12      136      132      137      140
     424      4      137      138      143      144
     425      6      137      138      143      145
     426      6      137      138      143      146
     427      6      138      143      144      147
     428      6      138      143      144      148
     429      4      138      143      144      149
     430     12      139      137      138      141
     431     12      139      137      138      142
     432      6      139      137      138      143
     433     12      140      137      138      141
     434     12      140      137      138      142
     435      6      140      137      138      143
     436      6      141      138      143      144
     437     12      141      138      143      145
     438     12      141      138      143      146
     439      6      142      138      143      144
     440     12      142      138      143      145
     441     12      142      138      143      146
     442      4      143      144      149      150
     443      6      143      144      149      151
     444      6      143      144      149      152
     445      6      144      149      150      153
     446      6      144      149      150      154
     447      4      144      149      150      155
     448     12      145      143      144      147
     449     12      145      143      144      148
     450      6      145      143      144      149
     451     12      146      143      144      147
     452     12      146      143      144      148
     453      6      146      143      144      149
     454      6      147      144      149      150
     455     12      147      144      149      151
     456     12      147      144      149      152
     457      6      148      144      149      150
     458     12      148      144      149      151
     459     12      148      144      149      152
     460      4      149      150      155      156
     461      6      149      150      155      157
     462      6      149      150      155      158
     463      6      150      155      156      159
     464      6      150      155      156      160
     465      4      150      155      156      209
     466     12      151      149      150      153
     467     12      151      149      150      154
     468      6      151      149      150      155
     469     12      152      149      150      153
     470     12      152      149      150      154
     471      6      152      149      150      155
     472      6      153      150      155      156
     473     12      153      150      155      157
     474     12      153      150      155      158
     475      6      154      150      155      156
     476     12      154      150      155      157
     477     12      154      150      155      158
     478      5      155      156      209      208
     479      6      155      156      209      213
     480      6      155      156      209      214
     481      7      156      209      208      210
     482      7      156      209      208      211
     483      8      156      209      208      212
     484     12      157      155      156      159
     485     12      157      155      156      160
     486      6      157      155      156      209
     487     12      158      155      156      159
     488     12      158      155      156      160
     489      6      158      155      156      209
     490     10      159      156      209      208
     491     12      159      156      209      213
     492     12      159      156      209      214
     493     10      160      156      209      208
     494     12      160      156      209      213
     495     12      160      156      209      214
     496      7      161      210      208      209
     497      7      161      210      208      211
     498      8      161      210      208      212
     499      5      162      161      210      208
     500      6      162      161      210      215
     501      6      162      161      210      216
     502     12      163      161      162      165
     503     12      163      161      162      166
     504     10      163      161      210      208
     505     12      163      161      210      215
     506     12      163      161      210      216
     507     12      164      161      162      165
     508     12      164      161      162      166
     509     10      164      161      210      208
     510     12      164      161      210      215
     511     12      164      161      210      216
     512      6      165      162      161      210
     513      6      166      162      161      210
     514      4      167      168      173      174
     515      6      167      168      173      175
     516      6      167      168      173      176
     517      7      167      211      208      209
     518      7      167      211      208      210
     519      8      167      211      208      212
     520      5      168      167      211      208
     521      6      168      167      211      217
     522      6      168      167      211      218
     523      6      168      173      174      177
     524      6      168      173      174      178
     525      4      168      173      174      179
     526     12      169      167      168      171
     527     12      169      167      168      172
     528      6      169      167      168      173
     529     10      169      167      211      208
     530     12      169      167      211      217
     531     12      169      167      211      218
     532     12      170      167      168      171
     533     12      170      167      168      172
     534      6      170      167      168      173
     535     10      170      167      211      208
     536     12      170      167      211      217
     537     12      170      167      211      218
     538      6      171      168      167      211
     539      6      171      168      173      174
     540     12      171      168      173      175
     541     12      171      168      173      176
     542      6      172      168      167      211
     543      6      172      168      173      174
     544     12      172      168      173      175
     545     12      172      168      173      176
     546      4      173      168      167      211
     547      4      173      174      179      180
     548      6      173      174      179      181
     549      6      173      174      179      182
     550      6      174      179      180      183
     551      6      174      179      180      184
     552      4      174      179      180      185
     553     12      175      173      174      177
     554     12      175      173      174      178
     555      6      175      173      174      179
     556     12      176      173      174      177
     557     12      176      173      174      178
     558      6      176      173      174      179
     559      6      177      174      179      180
     560     12      177      174      179      181
     561     12      177      174      179      182
     562      6      178      174      179      180
     563     12      178      174      179      181
     564     12      178      174      179      182
     565      4      179      180      185      186
     566      6      179      180      185      187
     567      6      179      180      185      188
     568      6      180      185      186      189
     569      6      180      185      186      190
     570      4      180      185      186      191
     571     12      181      179      180      183
     572     12      181      179      180      184
     573      6      181      179      180      185
     574     12      182      179      180      183
     575     12      182      179      180      184
     576      6      182      179      180      185
     577      6      183      180      185      186
     578     12      183      180      185      187
     579     12      183      180      185      188
     580      6      184      180      185      186
     581     12      184      180      185      187
     582     12      184      180      185      188
     583      4      185      186      191      192
     584      6      185      186      191      193
     585      6      185      186      191      194
     586      6      186      191      192      195
     587      6      186      191      192      196
     588     12      187      185      186      189
     589     12      187      185      186      190
     590      6      187      185      186      191
     591     12      188      185      186      189
     592     12      188      185      186      190
     593      6      188      185      186      191
     594      6      189      186      191      192
     595     12      189      186      191      193
     596     12      189      186      191      194
     597      6      190      186      191      192
     598     12      190      186      191      193
     599     12      190      186      191      194
     600     12      193      191      192      195
     601     12      193      191      192      196
     602     12      194      191      192      195
     603     12      194      191      192      196
     604      9      198      197      199      204
     605      9      198      197      199      205
     606      9      198      197      200      206
     607      9      198      197      200      207
     608      9      199      197      198      202
     609      9      199      197      198      203
     610      9      199      197      200      206
     611      9      199      197      200      207
     612      9      200      197      198      202
     613      9      200      197      198      203
     614      9      200      197      199      204
     615      9      200      197      199      205
     616     13      201      197      198      202
     617     13      201      197      198      203
     618     13      201      197      199      204
     619     13      201      197      199      205
     620     13      201      197      200      206
     621     13      201      197      200      207
     622      9      209      208      210      215
     623      9      209      208      210      216
     624      9      209      208      211      217
     625      9      209      208      211      218
     626      9      210      208      209      213
     627      9      210      208      209      214
     628      9      210      208      211      217
     629      9      210      208      211      218
     630      9      211      208      209      213
     631      9      211      208      209      214
     632      9      211      208      210      215
     633      9      211      208      210      216
     634     13      212      208      209      213
     635     13      212      208      209      214
     636     13      212      208      210      215
     637     13      212      208      210      216
     638     13      212      208      211      217
     639     13      212      208      211      218

Impropers


