LAMMPS data file generated by clean-room 1-hop pipeline

     215 atoms
     220 bonds
     414 angles
     624 dihedrals
      36 impropers

       9 atom types
      15 bond types
      32 angle types
      45 dihedral types
       3 improper types

  -29.427100    29.448700 xlo xhi
  -27.971900    30.241800 ylo yhi
  -31.879700    31.536000 zlo zhi

Masses

       1    12.011000
       2    12.011000
       3    12.011000
       4    12.011000
       5    12.011000
       6    12.011000
       7    12.011000
       8     1.008000
       9     1.008000

Pair Coeffs

       1     0.070000     3.550000
       2     0.070000     3.550000
       3     0.066000     3.500000
       4     0.066000     3.500000
       5     0.066000     3.500000
       6     0.066000     3.500000
       7     0.066000     3.500000
       8     0.030000     2.420000
       9     0.030000     2.500000

Bond Coeffs

       1   469.000000     1.400000
       2   317.000000     1.510000
       3   469.000000     1.400000
       4   367.000000     1.080000
       5   268.000000     1.529000
       6   268.000000     1.529000
       7   268.000000     1.529000
       8   340.000000     1.090000
       9   268.000000     1.529000
      10   340.000000     1.090000
      11   268.000000     1.529000
      12   268.000000     1.529000
      13   268.000000     1.529000
      14   340.000000     1.090000
      15   340.000000     1.090000

Angle Coeffs

       1    63.000000   120.000000
       2    35.000000   120.000000
       3    63.000000   114.000000
       4    63.000000   114.000000
       5    63.000000   114.000000
       6    35.000000   109.500000
       7    63.000000   120.000000
       8    70.000000   120.000000
       9    63.000000   120.000000
      10    35.000000   120.000000
      11    37.500000   110.700000
      12    58.350000   112.700000
      13    37.500000   110.700000
      14    58.350000   112.700000
      15    37.500000   110.700000
      16    58.350000   112.700000
      17    37.500000   110.700000
      18    37.500000   110.700000
      19    58.350000   112.700000
      20    58.350000   112.700000
      21    58.350000   112.700000
      22    37.500000   110.700000
      23    58.350000   112.700000
      24    37.500000   110.700000
      25    58.350000   112.700000
      26    37.500000   110.700000
      27    37.500000   110.700000
      28    37.500000   110.700000
      29    37.500000   110.700000
      30    33.000000   107.800000
      31    33.000000   107.800000
      32    33.000000   107.800000

Dihedral Coeffs

       1     0.000000     7.250000     0.000000     0.000000
       2     0.000000     7.250000     0.000000     0.000000
       3     0.000000     7.250000     0.000000     0.000000
       4     0.000000     0.000000     0.462000     0.000000
       5     0.000000     0.000000     0.000000     0.000000
       6     0.000000     0.000000     0.462000     0.000000
       7     0.000000     0.000000     0.000000     0.000000
       8     0.000000     7.250000     0.000000     0.000000
       9     0.000000     7.250000     0.000000     0.000000
      10    -0.250000     0.000000     0.000000     0.000000
      11    -0.250000     0.000000     0.000000     0.000000
      12    -0.250000     0.000000     0.000000     0.000000
      13     0.000000     0.000000     0.000000     0.000000
      14     0.000000     7.250000     0.000000     0.000000
      15     0.000000     7.250000     0.000000     0.000000
      16     0.000000     7.250000     0.000000     0.000000
      17     0.000000     7.250000     0.000000     0.000000
      18     0.850000    -0.200000     0.200000     0.000000
      19     0.000000     0.000000     0.300000     0.000000
      20     0.850000    -0.200000     0.200000     0.000000
      21     0.000000     0.000000     0.300000     0.000000
      22     0.850000    -0.200000     0.200000     0.000000
      23     0.850000    -0.200000     0.200000     0.000000
      24     0.000000     0.000000     0.300000     0.000000
      25     0.000000     0.000000     0.300000     0.000000
      26     0.850000    -0.200000     0.200000     0.000000
      27     0.850000    -0.200000     0.200000     0.000000
      28     0.000000     0.000000     0.300000     0.000000
      29     0.850000    -0.200000     0.200000     0.000000
      30     0.000000     0.000000     0.300000     0.000000
      31     0.850000    -0.200000     0.200000     0.000000
      32     0.000000     0.000000     0.300000     0.000000
      33     0.000000     0.000000     0.300000     0.000000
      34     0.000000     0.000000     0.300000     0.000000
      35     0.000000     0.000000     0.300000     0.000000
      36     0.850000    -0.200000     0.200000     0.000000
      37     0.000000     0.000000     0.300000     0.000000
      38     0.850000    -0.200000     0.200000     0.000000
      39     0.000000     0.000000     0.300000     0.000000
      40     0.000000     7.250000     0.000000     0.000000
      41     0.000000     0.000000     0.300000     0.000000
      42     0.000000     0.000000     0.300000     0.000000
      43     0.000000     0.000000     0.300000     0.000000
      44     0.000000     0.000000     0.300000     0.000000
      45     0.000000     0.000000     0.300000     0.000000

Improper Coeffs

       1     2.500000   -1    2
       2     2.500000   -1    2
       3     2.500000   -1    2

Atoms

       1    1      4  -0.26397384     3.551800    -0.449800    10.458300
       2    1      5  -0.19332247     4.178900     0.895900    10.049800
       3    1      9   0.09788712     2.417400    -0.381800    10.366400
       4    1      9   0.09788712     3.940600    -1.271300     9.770100
       5    1      9   0.09788712     3.835100    -0.690000    11.536000
       6    1      9   0.09788712     5.314000     0.828400    10.132200
       7    1      9   0.09788712     3.795300     1.721800    10.735600
       8    1      4  -0.26397384     3.589700     4.437700     8.808000
       9    1      5  -0.19332247     2.108100     4.307100     8.417300
      10    1      9   0.09788712     4.159600     3.500600     8.507900
      11    1      9   0.09788712     4.036200     5.346000     8.283800
      12    1      9   0.09788712     3.669400     4.581400     9.936100
      13    1      9   0.09788712     1.640300     3.444200     8.993100
      14    1      9   0.09788712     1.592700     5.270200     8.742900
      15    1      4  -0.26397384     8.485000     3.043300    10.508100
      16    1      3  -0.14492505     8.452100     4.109600     9.397300
      17    1      9   0.09788712     8.665000     2.017200    10.045200
      18    1      9   0.09788712     9.323200     3.283500    11.242200
      19    1      9   0.09788712     7.486900     3.039600    11.058700
      20    1      9   0.09788712     8.263800     5.135300     9.857800
      21    1      9   0.09788712     9.448700     4.117400     8.844000
      22    1      4  -0.26397384    -6.784600     5.434500     0.819700
      23    1      5  -0.19332247    -6.559700     4.530400    -0.402100
      24    1      9   0.09788712    -6.053300     6.305500     0.769900
      25    1      9   0.09788712    -7.848200     5.844000     0.794800
      26    1      9   0.09788712    -6.625300     4.840400     1.780200
      27    1      9   0.09788712    -7.348300     3.707300    -0.393700
      28    1      9   0.09788712    -6.691700     5.146500    -1.350700
      29    1      4  -0.26397384    -4.878100     7.898500    -2.404400
      30    1      5  -0.19332247    -5.021700     6.802000    -1.333100
      31    1      9   0.09788712    -4.887600     7.421800    -3.440000
      32    1      9   0.09788712    -5.747000     8.630900    -2.315500
      33    1      9   0.09788712    -3.895200     8.455300    -2.250900
      34    1      9   0.09788712    -5.026600     7.281300    -0.302100
      35    1      9   0.09788712    -6.009400     6.260400    -1.490400
      36    1      4  -0.26397384    -3.182900    -4.469200    -1.988900
      37    1      5  -0.19332247    -3.650300    -3.098600    -2.512100
      38    1      9   0.09788712    -3.691800    -5.295600    -2.587000
      39    1      9   0.09788712    -2.051800    -4.556900    -2.103700
      40    1      9   0.09788712    -3.462500    -4.568300    -0.888000
      41    1      9   0.09788712    -4.780400    -3.014500    -2.392300
      42    1      9   0.09788712    -3.375200    -3.012800    -3.612400
      43    1      4  -0.26397384    -8.772800    -0.617500    -7.533300
      44    1      3  -0.14492505    -8.423500    -1.919000    -6.786400
      45    1      9   0.09788712    -7.812100    -0.112800    -7.882300
      46    1      9   0.09788712    -9.427100    -0.858400    -8.434900
      47    1      9   0.09788712    -9.334200     0.083200    -6.831100
      48    1      9   0.09788712    -9.379900    -2.426400    -6.429100
      49    1      9   0.09788712    -7.857200    -2.618100    -7.486500
      50    1      4  -0.26397384    -1.616700    -0.907900   -11.160800
      51    1      5  -0.19332247    -2.367400    -1.067900    -9.826400
      52    1      9   0.09788712    -1.430900    -1.938100   -11.612400
      53    1      9   0.09788712    -2.244600    -0.284600   -11.879700
      54    1      9   0.09788712    -0.619800    -0.388200   -10.973200
      55    1      9   0.09788712    -2.565900    -0.045800    -9.361800
      56    1      9   0.09788712    -3.358000    -1.598600   -10.018600
      57    1      4  -0.26397384    -3.046500    -4.190300    -9.876500
      58    1      5  -0.19332247    -3.831200    -4.055500    -8.558400
      59    1      9   0.09788712    -3.196800    -5.240500   -10.294700
      60    1      9   0.09788712    -3.427300    -3.422500   -10.628700
      61    1      9   0.09788712    -1.936600    -4.027200    -9.686000
      62    1      9   0.09788712    -3.438300    -4.810600    -7.804200
      63    1      9   0.09788712    -4.926300    -4.290000    -8.771600
      64    1      5  -0.19332247     3.786900     1.209600     8.595800
      65    1      5  -0.19332247     2.260100     1.329100     8.482700
      66    1      9   0.09788712     4.244800     2.204400     8.297100
      67    1      9   0.09788712     4.167300     0.381300     7.911100
      68    1      9   0.09788712     1.908300     2.177100     9.155000
      69    1      9   0.09788712     1.795400     0.356400     8.853700
      70    1      5  -0.19332247    -3.518300    -1.241200    -4.531500
      71    1      5  -0.19332247    -3.747700    -0.696200    -5.956100
      72    1      9   0.09788712    -4.556400    -1.557500    -4.206000
      73    1      9   0.09788712    -2.870800    -2.179400    -4.534100
      74    1      9   0.09788712    -4.154500     0.361200    -5.831200
      75    1      9   0.09788712    -4.566600    -1.328100    -6.434900
      76    1      7  -0.05359531     2.259500     2.791300     6.233800
      77    1      5  -0.19332247     1.782300     1.554800     7.032500
      78    1      5  -0.19332247     1.816600     4.109000     6.913100
      79    1      3  -0.14492505     3.714200     2.760800     5.699800
      80    1      5  -0.19332247     1.375000     2.749800     4.972800
      81    1      9   0.09788712     0.645800     1.613500     7.083500
      82    1      9   0.09788712     2.058400     0.634800     6.418500
      83    1      9   0.09788712     0.678400     4.106600     6.846400
      84    1      9   0.09788712     2.206500     4.994200     6.309800
      85    1      9   0.09788712     3.757700     3.559900     4.888400
      86    1      9   0.09788712     3.893900     1.750900     5.202600
      87    1      9   0.09788712     1.697700     3.537900     4.215500
      88    1      9   0.09788712     0.327700     3.004500     5.340600
      89    1      7  -0.05359531    -1.863500     1.660200     0.732300
      90    1      5  -0.19332247    -0.773600     2.610500     1.278700
      91    1      3  -0.14492505    -2.447500     0.742800     1.823600
      92    1      5  -0.19332247    -3.004300     2.663600     0.501000
      93    1      5  -0.19332247    -1.624100     0.844000    -0.561400
      94    1      9   0.09788712    -0.436900     3.270300     0.411800
      95    1      9   0.09788712    -1.316000     3.273900     2.030900
      96    1      9   0.09788712    -1.942700     0.947400     2.822000
      97    1      9   0.09788712    -2.309100    -0.352300     1.538700
      98    1      9   0.09788712    -3.162000     3.203500     1.491200
      99    1      9   0.09788712    -3.963400     2.117100     0.215700
     100    1      9   0.09788712    -0.924900    -0.032600    -0.356100
     101    1      9   0.09788712    -1.211300     1.499700    -1.397600
     102    1      7  -0.05359531    -3.896800     4.726400    -0.360800
     103    1      5  -0.19332247    -2.742400     3.730200    -0.571200
     104    1      5  -0.19332247    -5.173700     3.853200    -0.410800
     105    1      5  -0.19332247    -3.849500     5.807700    -1.459200
     106    1      3  -0.14492505    -3.545700     5.311000     1.029500
     107    1      9   0.09788712    -2.764000     3.255200    -1.607400
     108    1      9   0.09788712    -1.748700     4.260400    -0.395200
     109    1      9   0.09788712    -5.121500     3.126900     0.467200
     110    1      9   0.09788712    -5.127300     3.248100    -1.375600
     111    1      9   0.09788712    -3.906600     5.309200    -2.482700
     112    1      9   0.09788712    -2.862000     6.370700    -1.370900
     113    1      9   0.09788712    -3.614000     4.475700     1.802100
     114    1      9   0.09788712    -2.454200     5.631200     0.959400
     115    1      7  -0.05359531    -3.447400    -0.574600    -2.063000
     116    1      5  -0.19332247    -3.051800     0.388300    -0.919600
     117    1      5  -0.19332247    -2.969100    -1.991700    -1.685500
     118    1      3  -0.14492505    -4.978600    -0.418500    -1.911600
     119    1      5  -0.19332247    -3.038300    -0.176400    -3.507700
     120    1      9   0.09788712    -3.451200    -0.104200     0.025000
     121    1      9   0.09788712    -3.640300     1.348900    -1.095100
     122    1      9   0.09788712    -1.835600    -2.054200    -1.791200
     123    1      9   0.09788712    -3.249200    -2.166900    -0.594200
     124    1      9   0.09788712    -5.162600     0.701900    -1.806100
     125    1      9   0.09788712    -5.334800    -0.924800    -0.954100
     126    1      9   0.09788712    -1.912500    -0.032900    -3.612800
     127    1      9   0.09788712    -3.566000     0.810100    -3.726300
     128    1      7  -0.05359531    -2.361600    -2.104600    -7.572300
     129    1      5  -0.19332247    -2.601000    -0.693200    -6.986700
     130    1      3  -0.14492505    -1.623100    -3.061900    -6.612600
     131    1      5  -0.19332247    -1.532400    -1.920200    -8.855600
     132    1      5  -0.19332247    -3.760500    -2.639600    -7.951100
     133    1      9   0.09788712    -2.981500    -0.070400    -7.862800
     134    1      9   0.09788712    -1.648200    -0.214100    -6.583400
     135    1      9   0.09788712    -0.651000    -2.567400    -6.282100
     136    1      9   0.09788712    -2.270300    -3.276200    -5.698700
     137    1      9   0.09788712    -1.331300    -2.926100    -9.344300
     138    1      9   0.09788712    -0.541800    -1.408300    -8.620200
     139    1      9   0.09788712    -4.225900    -1.907700    -8.691100
     140    1      9   0.09788712    -4.392000    -2.649000    -7.001900
     141    1      1  -0.09244797     4.899900     3.088200     6.628100
     142    1      2  -0.15243561     5.802900     1.961300     7.169300
     143    1      2  -0.15243561     6.990600     2.302200     8.088700
     144    1      1  -0.09244797     7.316800     3.772500     8.413200
     145    1      2  -0.15243561     6.463100     4.901300     7.807200
     146    1      2  -0.15243561     5.274100     4.559000     6.891200
     147    1      8   0.16293957     5.572000     0.874200     6.915300
     148    1      8   0.16293957     7.626000     1.466800     8.533600
     149    1      8   0.16293957     6.710100     5.989700     8.039000
     150    1      8   0.16293957     4.650100     5.394800     6.431700
     151    1      1  -0.09244797    -5.826400    -0.824300    -3.127800
     152    1      2  -0.15243561    -6.536400    -2.187300    -3.180200
     153    1      2  -0.15243561    -7.392800    -2.559500    -4.406600
     154    1      1  -0.09244797    -7.535400    -1.569400    -5.578600
     155    1      2  -0.15243561    -6.848800    -0.195500    -5.510200
     156    1      2  -0.15243561    -5.998500     0.177600    -4.284000
     157    1      8   0.16293957    -6.422400    -2.923800    -2.317700
     158    1      8   0.16293957    -7.920600    -3.569100    -4.446000
     159    1      8   0.16293957    -6.972200     0.546900    -6.366500
     160    1      8   0.16293957    -5.485200     1.194400    -4.236500
     161    1      6  -0.12706909     0.113500     1.380100     3.339900
     162    1      5  -0.19332247     1.294700     1.347700     4.334500
     163    1      3  -0.14492505    -0.987900     2.131200     4.113300
     164    1      5  -0.19332247     0.477500     2.127200     2.040600
     165    1      9   0.09788712    -0.234200     0.324400     3.085500
     166    1      9   0.09788712     1.026900     0.621000     5.170800
     167    1      9   0.09788712     2.272600     1.022500     3.847300
     168    1      9   0.09788712    -1.975200     2.120200     3.543100
     169    1      9   0.09788712    -0.657300     3.210300     4.273800
     170    1      9   0.09788712     1.152200     1.482600     1.386300
     171    1      9   0.09788712     1.041800     3.072100     2.338600
     172    1      1  -0.09244797    -1.116000     1.460600     5.494200
     173    1      2  -0.15243561    -1.305000     2.330200     6.751400
     174    1      2  -0.15243561    -1.259200     1.686200     8.150000
     175    1      2  -0.15243561    -1.015500     0.172600     8.292800
     176    1      2  -0.15243561    -0.830600    -0.698600     7.036400
     177    1      2  -0.15243561    -0.881600    -0.055000     5.637700
     178    1      8   0.16293957    -1.462300     3.454300     6.647000
     179    1      8   0.16293957    -1.397400     2.331400     9.079600
     180    1      8   0.16293957    -0.970400    -0.302800     9.328000
     181    1      8   0.16293957    -0.652900    -1.819800     7.141900
     182    1      8   0.16293957    -0.723300    -0.696800     4.708900
     183    1      1  -0.09244797    -3.940400     1.114800     1.944600
     184    1      2  -0.15243561    -4.363200     2.278200     2.861200
     185    1      2  -0.15243561    -5.836400     2.723900     2.911500
     186    1      2  -0.15243561    -6.895300     1.975300     2.081600
     187    1      2  -0.15243561    -6.483300     0.770300     1.216100
     188    1      2  -0.15243561    -5.008100     0.333400     1.155400
     189    1      8   0.16293957    -3.578500     2.832300     3.475300
     190    1      8   0.16293957    -6.142300     3.609500     3.561100
     191    1      8   0.16293957    -7.985700     2.306100     2.116300
     192    1      8   0.16293957    -7.269500     0.206100     0.613500
     193    1      8   0.16293957    -4.703200    -0.551300     0.503700
     194    1      1  -0.09244797    -4.278200     6.550100     1.577000
     195    1      2  -0.15243561    -3.862700     7.953700     1.099700
     196    1      2  -0.15243561    -4.510000     9.204300     1.721100
     197    1      2  -0.15243561    -5.552700     9.053800     2.843200
     198    1      2  -0.15243561    -5.942500     7.652000     3.347400
     199    1      2  -0.15243561    -5.297400     6.400900     2.722700
     200    1      8   0.16293957    -3.077300     8.065300     0.281400
     201    1      8   0.16293957    -4.212600    10.241800     1.354100
     202    1      8   0.16293957    -6.033600     9.979500     3.302900
     203    1      8   0.16293957    -6.706700     7.540600     4.185800
     204    1      8   0.16293957    -5.576600     5.363700     3.106000
     205    1      1  -0.09244797    -1.264300    -4.365700    -7.360800
     206    1      2  -0.15243561    -0.222800    -4.335100    -8.496400
     207    1      2  -0.15243561     0.105100    -5.617900    -9.282100
     208    1      2  -0.15243561    -0.586500    -6.942600    -8.913300
     209    1      2  -0.15243561    -1.588200    -6.987700    -7.744200
     210    1      2  -0.15243561    -1.916500    -5.703300    -6.958800
     211    1      8   0.16293957     0.286000    -3.353200    -8.772900
     212    1      8   0.16293957     0.858200    -5.586300   -10.137500
     213    1      8   0.16293957    -0.350400    -7.891600    -9.499400
     214    1      8   0.16293957    -2.088900    -7.971900    -7.461400
     215    1      8   0.16293957    -2.658500    -5.738100    -6.094200

Bonds

       1      9        1        2
       2     10        1        3
       3     10        1        4
       4     10        1        5
       5     14        2        6
       6     14        2        7
       7     11        2       64
       8      9        8        9
       9     10        8       10
      10     10        8       11
      11     10        8       12
      12     14        9       13
      13     14        9       14
      14     11        9       78
      15      5       15       16
      16     10       15       17
      17     10       15       18
      18     10       15       19
      19      8       16       20
      20      8       16       21
      21      2       16      144
      22      9       22       23
      23     10       22       24
      24     10       22       25
      25     10       22       26
      26     14       23       27
      27     14       23       28
      28     11       23      104
      29      9       29       30
      30     10       29       31
      31     10       29       32
      32     10       29       33
      33     14       30       34
      34     14       30       35
      35     11       30      105
      36      9       36       37
      37     10       36       38
      38     10       36       39
      39     10       36       40
      40     14       37       41
      41     14       37       42
      42     11       37      117
      43      5       43       44
      44     10       43       45
      45     10       43       46
      46     10       43       47
      47      8       44       48
      48      8       44       49
      49      2       44      154
      50      9       50       51
      51     10       50       52
      52     10       50       53
      53     10       50       54
      54     14       51       55
      55     14       51       56
      56     11       51      131
      57      9       57       58
      58     10       57       59
      59     10       57       60
      60     10       57       61
      61     14       58       62
      62     14       58       63
      63     11       58      132
      64     11       64       65
      65     14       64       66
      66     14       64       67
      67     14       65       68
      68     14       65       69
      69     11       65       77
      70     11       70       71
      71     14       70       72
      72     14       70       73
      73     11       70      119
      74     14       71       74
      75     14       71       75
      76     11       71      129
      77     13       76       77
      78     13       76       78
      79      7       76       79
      80     13       76       80
      81     14       77       81
      82     14       77       82
      83     14       78       83
      84     14       78       84
      85      8       79       85
      86      8       79       86
      87      2       79      141
      88     14       80       87
      89     14       80       88
      90     11       80      162
      91     13       89       90
      92      7       89       91
      93     13       89       92
      94     13       89       93
      95     14       90       94
      96     14       90       95
      97     11       90      164
      98      8       91       96
      99      8       91       97
     100      2       91      183
     101     14       92       98
     102     14       92       99
     103     11       92      103
     104     14       93      100
     105     14       93      101
     106     11       93      116
     107     13      102      103
     108     13      102      104
     109     13      102      105
     110      7      102      106
     111     14      103      107
     112     14      103      108
     113     14      104      109
     114     14      104      110
     115     14      105      111
     116     14      105      112
     117      8      106      113
     118      8      106      114
     119      2      106      194
     120     13      115      116
     121     13      115      117
     122      7      115      118
     123     13      115      119
     124     14      116      120
     125     14      116      121
     126     14      117      122
     127     14      117      123
     128      8      118      124
     129      8      118      125
     130      2      118      151
     131     14      119      126
     132     14      119      127
     133     13      128      129
     134      7      128      130
     135     13      128      131
     136     13      128      132
     137     14      129      133
     138     14      129      134
     139      8      130      135
     140      8      130      136
     141      2      130      205
     142     14      131      137
     143     14      131      138
     144     14      132      139
     145     14      132      140
     146      1      141      142
     147      3      142      143
     148      4      142      147
     149      1      143      144
     150      4      143      148
     151      1      144      145
     152      3      145      146
     153      4      145      149
     154      1      146      141
     155      4      146      150
     156      1      151      152
     157      3      152      153
     158      4      152      157
     159      1      153      154
     160      4      153      158
     161      1      154      155
     162      3      155      156
     163      4      155      159
     164      1      156      151
     165      4      156      160
     166     12      161      162
     167      6      161      163
     168     12      161      164
     169     15      161      165
     170     14      162      166
     171     14      162      167
     172      8      163      168
     173      8      163      169
     174      2      163      172
     175     14      164      170
     176     14      164      171
     177      1      172      173
     178      3      173      174
     179      4      173      178
     180      3      174      175
     181      4      174      179
     182      3      175      176
     183      4      175      180
     184      3      176      177
     185      4      176      181
     186      1      177      172
     187      4      177      182
     188      1      183      184
     189      3      184      185
     190      4      184      189
     191      3      185      186
     192      4      185      190
     193      3      186      187
     194      4      186      191
     195      3      187      188
     196      4      187      192
     197      1      188      183
     198      4      188      193
     199      1      194      195
     200      3      195      196
     201      4      195      200
     202      3      196      197
     203      4      196      201
     204      3      197      198
     205      4      197      202
     206      3      198      199
     207      4      198      203
     208      1      199      194
     209      4      199      204
     210      1      205      206
     211      3      206      207
     212      4      206      211
     213      3      207      208
     214      4      207      212
     215      3      208      209
     216      4      208      213
     217      3      209      210
     218      4      209      214
     219      1      210      205
     220      4      210      215

Angles

       1     17        1        2        6
       2     17        1        2        7
       3     16        1        2       64
       4     18        2        1        3
       5     18        2        1        4
       6     18        2        1        5
       7     19        2       64       65
       8     22        2       64       66
       9     22        2       64       67
      10     31        3        1        4
      11     31        3        1        5
      12     31        4        1        5
      13     32        6        2        7
      14     22        6        2       64
      15     22        7        2       64
      16     17        8        9       13
      17     17        8        9       14
      18     16        8        9       78
      19     18        9        8       10
      20     18        9        8       11
      21     18        9        8       12
      22     21        9       78       76
      23     22        9       78       83
      24     22        9       78       84
      25     31       10        8       11
      26     31       10        8       12
      27     31       11        8       12
      28     32       13        9       14
      29     22       13        9       78
      30     22       14        9       78
      31     15       15       16       20
      32     15       15       16       21
      33      3       15       16      144
      34     11       16       15       17
      35     11       16       15       18
      36     11       16       15       19
      37      8       16      144      143
      38      8       16      144      145
      39     31       17       15       18
      40     31       17       15       19
      41     31       18       15       19
      42     30       20       16       21
      43      6       20       16      144
      44      6       21       16      144
      45     17       22       23       27
      46     17       22       23       28
      47     16       22       23      104
      48     18       23       22       24
      49     18       23       22       25
      50     18       23       22       26
      51     21       23      104      102
      52     22       23      104      109
      53     22       23      104      110
      54     31       24       22       25
      55     31       24       22       26
      56     31       25       22       26
      57     32       27       23       28
      58     22       27       23      104
      59     22       28       23      104
      60     17       29       30       34
      61     17       29       30       35
      62     16       29       30      105
      63     18       30       29       31
      64     18       30       29       32
      65     18       30       29       33
      66     21       30      105      102
      67     22       30      105      111
      68     22       30      105      112
      69     31       31       29       32
      70     31       31       29       33
      71     31       32       29       33
      72     32       34       30       35
      73     22       34       30      105
      74     22       35       30      105
      75     17       36       37       41
      76     17       36       37       42
      77     16       36       37      117
      78     18       37       36       38
      79     18       37       36       39
      80     18       37       36       40
      81     21       37      117      115
      82     22       37      117      122
      83     22       37      117      123
      84     31       38       36       39
      85     31       38       36       40
      86     31       39       36       40
      87     32       41       37       42
      88     22       41       37      117
      89     22       42       37      117
      90     15       43       44       48
      91     15       43       44       49
      92      3       43       44      154
      93     11       44       43       45
      94     11       44       43       46
      95     11       44       43       47
      96      8       44      154      153
      97      8       44      154      155
      98     31       45       43       46
      99     31       45       43       47
     100     31       46       43       47
     101     30       48       44       49
     102      6       48       44      154
     103      6       49       44      154
     104     17       50       51       55
     105     17       50       51       56
     106     16       50       51      131
     107     18       51       50       52
     108     18       51       50       53
     109     18       51       50       54
     110     21       51      131      128
     111     22       51      131      137
     112     22       51      131      138
     113     31       52       50       53
     114     31       52       50       54
     115     31       53       50       54
     116     32       55       51       56
     117     22       55       51      131
     118     22       56       51      131
     119     17       57       58       62
     120     17       57       58       63
     121     16       57       58      132
     122     18       58       57       59
     123     18       58       57       60
     124     18       58       57       61
     125     21       58      132      128
     126     22       58      132      139
     127     22       58      132      140
     128     31       59       57       60
     129     31       59       57       61
     130     31       60       57       61
     131     32       62       58       63
     132     22       62       58      132
     133     22       63       58      132
     134     22       64       65       68
     135     22       64       65       69
     136     19       64       65       77
     137     22       65       64       66
     138     22       65       64       67
     139     21       65       77       76
     140     22       65       77       81
     141     22       65       77       82
     142     32       66       64       67
     143     32       68       65       69
     144     22       68       65       77
     145     22       69       65       77
     146     22       70       71       74
     147     22       70       71       75
     148     19       70       71      129
     149     21       70      119      115
     150     22       70      119      126
     151     22       70      119      127
     152     22       71       70       72
     153     22       71       70       73
     154     19       71       70      119
     155     21       71      129      128
     156     22       71      129      133
     157     22       71      129      134
     158     32       72       70       73
     159     22       72       70      119
     160     22       73       70      119
     161     32       74       71       75
     162     22       74       71      129
     163     22       75       71      129
     164     29       76       77       81
     165     29       76       77       82
     166     29       76       78       83
     167     29       76       78       84
     168     28       76       79       85
     169     28       76       79       86
     170      5       76       79      141
     171     29       76       80       87
     172     29       76       80       88
     173     21       76       80      162
     174     25       77       76       78
     175     14       77       76       79
     176     25       77       76       80
     177     14       78       76       79
     178     25       78       76       80
     179     14       79       76       80
     180      8       79      141      142
     181      8       79      141      146
     182     20       80      162      161
     183     22       80      162      166
     184     22       80      162      167
     185     32       81       77       82
     186     32       83       78       84
     187     30       85       79       86
     188      6       85       79      141
     189      6       86       79      141
     190     32       87       80       88
     191     22       87       80      162
     192     22       88       80      162
     193     29       89       90       94
     194     29       89       90       95
     195     21       89       90      164
     196     28       89       91       96
     197     28       89       91       97
     198      5       89       91      183
     199     29       89       92       98
     200     29       89       92       99
     201     21       89       92      103
     202     29       89       93      100
     203     29       89       93      101
     204     21       89       93      116
     205     14       90       89       91
     206     25       90       89       92
     207     25       90       89       93
     208     20       90      164      161
     209     22       90      164      170
     210     22       90      164      171
     211     14       91       89       92
     212     14       91       89       93
     213      8       91      183      184
     214      8       91      183      188
     215     25       92       89       93
     216     21       92      103      102
     217     22       92      103      107
     218     22       92      103      108
     219     21       93      116      115
     220     22       93      116      120
     221     22       93      116      121
     222     32       94       90       95
     223     22       94       90      164
     224     22       95       90      164
     225     30       96       91       97
     226      6       96       91      183
     227      6       97       91      183
     228     32       98       92       99
     229     22       98       92      103
     230     22       99       92      103
     231     32      100       93      101
     232     22      100       93      116
     233     22      101       93      116
     234     29      102      103      107
     235     29      102      103      108
     236     29      102      104      109
     237     29      102      104      110
     238     29      102      105      111
     239     29      102      105      112
     240     28      102      106      113
     241     28      102      106      114
     242      5      102      106      194
     243     25      103      102      104
     244     25      103      102      105
     245     14      103      102      106
     246     25      104      102      105
     247     14      104      102      106
     248     14      105      102      106
     249      8      106      194      195
     250      8      106      194      199
     251     32      107      103      108
     252     32      109      104      110
     253     32      111      105      112
     254     30      113      106      114
     255      6      113      106      194
     256      6      114      106      194
     257     29      115      116      120
     258     29      115      116      121
     259     29      115      117      122
     260     29      115      117      123
     261     28      115      118      124
     262     28      115      118      125
     263      5      115      118      151
     264     29      115      119      126
     265     29      115      119      127
     266     25      116      115      117
     267     14      116      115      118
     268     25      116      115      119
     269     14      117      115      118
     270     25      117      115      119
     271     14      118      115      119
     272      8      118      151      152
     273      8      118      151      156
     274     32      120      116      121
     275     32      122      117      123
     276     30      124      118      125
     277      6      124      118      151
     278      6      125      118      151
     279     32      126      119      127
     280     29      128      129      133
     281     29      128      129      134
     282     28      128      130      135
     283     28      128      130      136
     284      5      128      130      205
     285     29      128      131      137
     286     29      128      131      138
     287     29      128      132      139
     288     29      128      132      140
     289     14      129      128      130
     290     25      129      128      131
     291     25      129      128      132
     292     14      130      128      131
     293     14      130      128      132
     294      8      130      205      206
     295      8      130      205      210
     296     25      131      128      132
     297     32      133      129      134
     298     30      135      130      136
     299      6      135      130      205
     300      6      136      130      205
     301     32      137      131      138
     302     32      139      132      140
     303      1      141      142      143
     304      2      141      142      147
     305      1      141      146      145
     306      2      141      146      150
     307      7      142      141      146
     308      1      142      143      144
     309     10      142      143      148
     310     10      143      142      147
     311      7      143      144      145
     312      2      144      143      148
     313      1      144      145      146
     314      2      144      145      149
     315     10      145      146      150
     316     10      146      145      149
     317      1      151      152      153
     318      2      151      152      157
     319      1      151      156      155
     320      2      151      156      160
     321      7      152      151      156
     322      1      152      153      154
     323     10      152      153      158
     324     10      153      152      157
     325      7      153      154      155
     326      2      154      153      158
     327      1      154      155      156
     328      2      154      155      159
     329     10      155      156      160
     330     10      156      155      159
     331     27      161      162      166
     332     27      161      162      167
     333     26      161      163      168
     334     26      161      163      169
     335      4      161      163      172
     336     27      161      164      170
     337     27      161      164      171
     338     12      162      161      163
     339     23      162      161      164
     340     24      162      161      165
     341     12      163      161      164
     342     13      163      161      165
     343      8      163      172      173
     344      8      163      172      177
     345     24      164      161      165
     346     32      166      162      167
     347     30      168      163      169
     348      6      168      163      172
     349      6      169      163      172
     350     32      170      164      171
     351      1      172      173      174
     352      2      172      173      178
     353      1      172      177      176
     354      2      172      177      182
     355      7      173      172      177
     356      9      173      174      175
     357     10      173      174      179
     358     10      174      173      178
     359      9      174      175      176
     360     10      174      175      180
     361     10      175      174      179
     362      9      175      176      177
     363     10      175      176      181
     364     10      176      175      180
     365     10      176      177      182
     366     10      177      176      181
     367      1      183      184      185
     368      2      183      184      189
     369      1      183      188      187
     370      2      183      188      193
     371      7      184      183      188
     372      9      184      185      186
     373     10      184      185      190
     374     10      185      184      189
     375      9      185      186      187
     376     10      185      186      191
     377     10      186      185      190
     378      9      186      187      188
     379     10      186      187      192
     380     10      187      186      191
     381     10      187      188      193
     382     10      188      187      192
     383      1      194      195      196
     384      2      194      195      200
     385      1      194      199      198
     386      2      194      199      204
     387      7      195      194      199
     388      9      195      196      197
     389     10      195      196      201
     390     10      196      195      200
     391      9      196      197      198
     392     10      196      197      202
     393     10      197      196      201
     394      9      197      198      199
     395     10      197      198      203
     396     10      198      197      202
     397     10      198      199      204
     398     10      199      198      203
     399      1      205      206      207
     400      2      205      206      211
     401      1      205      210      209
     402      2      205      210      215
     403      7      206      205      210
     404      9      206      207      208
     405     10      206      207      212
     406     10      207      206      211
     407      9      207      208      209
     408     10      207      208      213
     409     10      208      207      212
     410      9      208      209      210
     411     10      208      209      214
     412     10      209      208      213
     413     10      209      210      215
     414     10      210      209      214

Dihedrals

       1     22        1        2       64       65
       2     24        1        2       64       66
       3     24        1        2       64       67
       4     28        2       64       65       68
       5     28        2       64       65       69
       6     26        2       64       65       77
       7     43        3        1        2        6
       8     43        3        1        2        7
       9     25        3        1        2       64
      10     43        4        1        2        6
      11     43        4        1        2        7
      12     25        4        1        2       64
      13     43        5        1        2        6
      14     43        5        1        2        7
      15     25        5        1        2       64
      16     28        6        2       64       65
      17     44        6        2       64       66
      18     44        6        2       64       67
      19     28        7        2       64       65
      20     44        7        2       64       66
      21     44        7        2       64       67
      22     23        8        9       78       76
      23     24        8        9       78       83
      24     24        8        9       78       84
      25     31        9       78       76       77
      26     20        9       78       76       79
      27     31        9       78       76       80
      28     43       10        8        9       13
      29     43       10        8        9       14
      30     25       10        8        9       78
      31     43       11        8        9       13
      32     43       11        8        9       14
      33     25       11        8        9       78
      34     43       12        8        9       13
      35     43       12        8        9       14
      36     25       12        8        9       78
      37     39       13        9       78       76
      38     44       13        9       78       83
      39     44       13        9       78       84
      40     39       14        9       78       76
      41     44       14        9       78       83
      42     44       14        9       78       84
      43     10       15       16      144      143
      44     10       15       16      144      145
      45     14       16      144      143      142
      46     17       16      144      143      148
      47     14       16      144      145      146
      48     17       16      144      145      149
      49     41       17       15       16       20
      50     41       17       15       16       21
      51      4       17       15       16      144
      52     41       18       15       16       20
      53     41       18       15       16       21
      54      4       18       15       16      144
      55     41       19       15       16       20
      56     41       19       15       16       21
      57      4       19       15       16      144
      58     13       20       16      144      143
      59     13       20       16      144      145
      60     13       21       16      144      143
      61     13       21       16      144      145
      62     23       22       23      104      102
      63     24       22       23      104      109
      64     24       22       23      104      110
      65     31       23      104      102      103
      66     31       23      104      102      105
      67     20       23      104      102      106
      68     43       24       22       23       27
      69     43       24       22       23       28
      70     25       24       22       23      104
      71     43       25       22       23       27
      72     43       25       22       23       28
      73     25       25       22       23      104
      74     43       26       22       23       27
      75     43       26       22       23       28
      76     25       26       22       23      104
      77     39       27       23      104      102
      78     44       27       23      104      109
      79     44       27       23      104      110
      80     39       28       23      104      102
      81     44       28       23      104      109
      82     44       28       23      104      110
      83     23       29       30      105      102
      84     24       29       30      105      111
      85     24       29       30      105      112
      86     31       30      105      102      103
      87     31       30      105      102      104
      88     20       30      105      102      106
      89     43       31       29       30       34
      90     43       31       29       30       35
      91     25       31       29       30      105
      92     43       32       29       30       34
      93     43       32       29       30       35
      94     25       32       29       30      105
      95     43       33       29       30       34
      96     43       33       29       30       35
      97     25       33       29       30      105
      98     39       34       30      105      102
      99     44       34       30      105      111
     100     44       34       30      105      112
     101     39       35       30      105      102
     102     44       35       30      105      111
     103     44       35       30      105      112
     104     23       36       37      117      115
     105     24       36       37      117      122
     106     24       36       37      117      123
     107     31       37      117      115      116
     108     20       37      117      115      118
     109     31       37      117      115      119
     110     43       38       36       37       41
     111     43       38       36       37       42
     112     25       38       36       37      117
     113     43       39       36       37       41
     114     43       39       36       37       42
     115     25       39       36       37      117
     116     43       40       36       37       41
     117     43       40       36       37       42
     118     25       40       36       37      117
     119     39       41       37      117      115
     120     44       41       37      117      122
     121     44       41       37      117      123
     122     39       42       37      117      115
     123     44       42       37      117      122
     124     44       42       37      117      123
     125     10       43       44      154      153
     126     10       43       44      154      155
     127     14       44      154      153      152
     128     17       44      154      153      158
     129     14       44      154      155      156
     130     17       44      154      155      159
     131     41       45       43       44       48
     132     41       45       43       44       49
     133      4       45       43       44      154
     134     41       46       43       44       48
     135     41       46       43       44       49
     136      4       46       43       44      154
     137     41       47       43       44       48
     138     41       47       43       44       49
     139      4       47       43       44      154
     140     13       48       44      154      153
     141     13       48       44      154      155
     142     13       49       44      154      153
     143     13       49       44      154      155
     144     23       50       51      131      128
     145     24       50       51      131      137
     146     24       50       51      131      138
     147     31       51      131      128      129
     148     20       51      131      128      130
     149     31       51      131      128      132
     150     43       52       50       51       55
     151     43       52       50       51       56
     152     25       52       50       51      131
     153     43       53       50       51       55
     154     43       53       50       51       56
     155     25       53       50       51      131
     156     43       54       50       51       55
     157     43       54       50       51       56
     158     25       54       50       51      131
     159     39       55       51      131      128
     160     44       55       51      131      137
     161     44       55       51      131      138
     162     39       56       51      131      128
     163     44       56       51      131      137
     164     44       56       51      131      138
     165     23       57       58      132      128
     166     24       57       58      132      139
     167     24       57       58      132      140
     168     31       58      132      128      129
     169     20       58      132      128      130
     170     31       58      132      128      131
     171     43       59       57       58       62
     172     43       59       57       58       63
     173     25       59       57       58      132
     174     43       60       57       58       62
     175     43       60       57       58       63
     176     25       60       57       58      132
     177     43       61       57       58       62
     178     43       61       57       58       63
     179     25       61       57       58      132
     180     39       62       58      132      128
     181     44       62       58      132      139
     182     44       62       58      132      140
     183     39       63       58      132      128
     184     44       63       58      132      139
     185     44       63       58      132      140
     186     27       64       65       77       76
     187     28       64       65       77       81
     188     28       64       65       77       82
     189     31       65       77       76       78
     190     20       65       77       76       79
     191     31       65       77       76       80
     192     44       66       64       65       68
     193     44       66       64       65       69
     194     28       66       64       65       77
     195     44       67       64       65       68
     196     44       67       64       65       69
     197     28       67       64       65       77
     198     39       68       65       77       76
     199     44       68       65       77       81
     200     44       68       65       77       82
     201     39       69       65       77       76
     202     44       69       65       77       81
     203     44       69       65       77       82
     204     27       70       71      129      128
     205     28       70       71      129      133
     206     28       70       71      129      134
     207     31       70      119      115      116
     208     31       70      119      115      117
     209     20       70      119      115      118
     210     27       71       70      119      115
     211     28       71       70      119      126
     212     28       71       70      119      127
     213     20       71      129      128      130
     214     31       71      129      128      131
     215     31       71      129      128      132
     216     44       72       70       71       74
     217     44       72       70       71       75
     218     28       72       70       71      129
     219     39       72       70      119      115
     220     44       72       70      119      126
     221     44       72       70      119      127
     222     44       73       70       71       74
     223     44       73       70       71       75
     224     28       73       70       71      129
     225     39       73       70      119      115
     226     44       73       70      119      126
     227     44       73       70      119      127
     228     28       74       71       70      119
     229     39       74       71      129      128
     230     44       74       71      129      133
     231     44       74       71      129      134
     232     28       75       71       70      119
     233     39       75       71      129      128
     234     44       75       71      129      133
     235     44       75       71      129      134
     236     12       76       79      141      142
     237     12       76       79      141      146
     238     36       76       80      162      161
     239     39       76       80      162      166
     240     39       76       80      162      167
     241     35       77       76       78       83
     242     35       77       76       78       84
     243     34       77       76       79       85
     244     34       77       76       79       86
     245      7       77       76       79      141
     246     35       77       76       80       87
     247     35       77       76       80       88
     248     31       77       76       80      162
     249     35       78       76       77       81
     250     35       78       76       77       82
     251     34       78       76       79       85
     252     34       78       76       79       86
     253      7       78       76       79      141
     254     35       78       76       80       87
     255     35       78       76       80       88
     256     31       78       76       80      162
     257     21       79       76       77       81
     258     21       79       76       77       82
     259     21       79       76       78       83
     260     21       79       76       78       84
     261     21       79       76       80       87
     262     21       79       76       80       88
     263     20       79       76       80      162
     264     14       79      141      142      143
     265     17       79      141      142      147
     266     14       79      141      146      145
     267     17       79      141      146      150
     268     35       80       76       77       81
     269     35       80       76       77       82
     270     35       80       76       78       83
     271     35       80       76       78       84
     272     34       80       76       79       85
     273     34       80       76       79       86
     274      7       80       76       79      141
     275     18       80      162      161      163
     276     29       80      162      161      164
     277     30       80      162      161      165
     278     13       85       79      141      142
     279     13       85       79      141      146
     280     13       86       79      141      142
     281     13       86       79      141      146
     282     37       87       80      162      161
     283     44       87       80      162      166
     284     44       87       80      162      167
     285     37       88       80      162      161
     286     44       88       80      162      166
     287     44       88       80      162      167
     288     36       89       90      164      161
     289     39       89       90      164      170
     290     39       89       90      164      171
     291     12       89       91      183      184
     292     12       89       91      183      188
     293     38       89       92      103      102
     294     39       89       92      103      107
     295     39       89       92      103      108
     296     38       89       93      116      115
     297     39       89       93      116      120
     298     39       89       93      116      121
     299     34       90       89       91       96
     300     34       90       89       91       97
     301      7       90       89       91      183
     302     35       90       89       92       98
     303     35       90       89       92       99
     304     31       90       89       92      103
     305     35       90       89       93      100
     306     35       90       89       93      101
     307     31       90       89       93      116
     308     29       90      164      161      162
     309     18       90      164      161      163
     310     30       90      164      161      165
     311     21       91       89       90       94
     312     21       91       89       90       95
     313     20       91       89       90      164
     314     21       91       89       92       98
     315     21       91       89       92       99
     316     20       91       89       92      103
     317     21       91       89       93      100
     318     21       91       89       93      101
     319     20       91       89       93      116
     320     14       91      183      184      185
     321     17       91      183      184      189
     322     14       91      183      188      187
     323     17       91      183      188      193
     324     35       92       89       90       94
     325     35       92       89       90       95
     326     31       92       89       90      164
     327     34       92       89       91       96
     328     34       92       89       91       97
     329      7       92       89       91      183
     330     35       92       89       93      100
     331     35       92       89       93      101
     332     31       92       89       93      116
     333     31       92      103      102      104
     334     31       92      103      102      105
     335     20       92      103      102      106
     336     35       93       89       90       94
     337     35       93       89       90       95
     338     31       93       89       90      164
     339     34       93       89       91       96
     340     34       93       89       91       97
     341      7       93       89       91      183
     342     35       93       89       92       98
     343     35       93       89       92       99
     344     31       93       89       92      103
     345     31       93      116      115      117
     346     20       93      116      115      118
     347     31       93      116      115      119
     348     37       94       90      164      161
     349     44       94       90      164      170
     350     44       94       90      164      171
     351     37       95       90      164      161
     352     44       95       90      164      170
     353     44       95       90      164      171
     354     13       96       91      183      184
     355     13       96       91      183      188
     356     13       97       91      183      184
     357     13       97       91      183      188
     358     39       98       92      103      102
     359     44       98       92      103      107
     360     44       98       92      103      108
     361     39       99       92      103      102
     362     44       99       92      103      107
     363     44       99       92      103      108
     364     39      100       93      116      115
     365     44      100       93      116      120
     366     44      100       93      116      121
     367     39      101       93      116      115
     368     44      101       93      116      120
     369     44      101       93      116      121
     370     12      102      106      194      195
     371     12      102      106      194      199
     372     35      103      102      104      109
     373     35      103      102      104      110
     374     35      103      102      105      111
     375     35      103      102      105      112
     376     34      103      102      106      113
     377     34      103      102      106      114
     378      7      103      102      106      194
     379     35      104      102      103      107
     380     35      104      102      103      108
     381     35      104      102      105      111
     382     35      104      102      105      112
     383     34      104      102      106      113
     384     34      104      102      106      114
     385      7      104      102      106      194
     386     35      105      102      103      107
     387     35      105      102      103      108
     388     35      105      102      104      109
     389     35      105      102      104      110
     390     34      105      102      106      113
     391     34      105      102      106      114
     392      7      105      102      106      194
     393     21      106      102      103      107
     394     21      106      102      103      108
     395     21      106      102      104      109
     396     21      106      102      104      110
     397     21      106      102      105      111
     398     21      106      102      105      112
     399     14      106      194      195      196
     400     17      106      194      195      200
     401     14      106      194      199      198
     402     17      106      194      199      204
     403     13      113      106      194      195
     404     13      113      106      194      199
     405     13      114      106      194      195
     406     13      114      106      194      199
     407     12      115      118      151      152
     408     12      115      118      151      156
     409     35      116      115      117      122
     410     35      116      115      117      123
     411     34      116      115      118      124
     412     34      116      115      118      125
     413      7      116      115      118      151
     414     35      116      115      119      126
     415     35      116      115      119      127
     416     35      117      115      116      120
     417     35      117      115      116      121
     418     34      117      115      118      124
     419     34      117      115      118      125
     420      7      117      115      118      151
     421     35      117      115      119      126
     422     35      117      115      119      127
     423     21      118      115      116      120
     424     21      118      115      116      121
     425     21      118      115      117      122
     426     21      118      115      117      123
     427     21      118      115      119      126
     428     21      118      115      119      127
     429     14      118      151      152      153
     430     17      118      151      152      157
     431     14      118      151      156      155
     432     17      118      151      156      160
     433     26      119       70       71      129
     434     35      119      115      116      120
     435     35      119      115      116      121
     436     35      119      115      117      122
     437     35      119      115      117      123
     438     34      119      115      118      124
     439     34      119      115      118      125
     440      7      119      115      118      151
     441     13      124      118      151      152
     442     13      124      118      151      156
     443     13      125      118      151      152
     444     13      125      118      151      156
     445     12      128      130      205      206
     446     12      128      130      205      210
     447     34      129      128      130      135
     448     34      129      128      130      136
     449      7      129      128      130      205
     450     35      129      128      131      137
     451     35      129      128      131      138
     452     35      129      128      132      139
     453     35      129      128      132      140
     454     21      130      128      129      133
     455     21      130      128      129      134
     456     21      130      128      131      137
     457     21      130      128      131      138
     458     21      130      128      132      139
     459     21      130      128      132      140
     460     14      130      205      206      207
     461     17      130      205      206      211
     462     14      130      205      210      209
     463     17      130      205      210      215
     464     35      131      128      129      133
     465     35      131      128      129      134
     466     34      131      128      130      135
     467     34      131      128      130      136
     468      7      131      128      130      205
     469     35      131      128      132      139
     470     35      131      128      132      140
     471     35      132      128      129      133
     472     35      132      128      129      134
     473     34      132      128      130      135
     474     34      132      128      130      136
     475      7      132      128      130      205
     476     35      132      128      131      137
     477     35      132      128      131      138
     478     13      135      130      205      206
     479     13      135      130      205      210
     480     13      136      130      205      206
     481     13      136      130      205      210
     482      1      141      142      143      144
     483      3      141      142      143      148
     484      1      141      146      145      144
     485      3      141      146      145      149
     486      8      142      141      146      145
     487      9      142      141      146      150
     488      8      142      143      144      145
     489      8      143      142      141      146
     490      8      143      144      145      146
     491      9      143      144      145      149
     492      3      144      143      142      147
     493      3      144      145      146      150
     494      9      145      144      143      148
     495      9      146      141      142      147
     496     40      147      142      143      148
     497     40      149      145      146      150
     498      1      151      152      153      154
     499      3      151      152      153      158
     500      1      151      156      155      154
     501      3      151      156      155      159
     502      8      152      151      156      155
     503      9      152      151      156      160
     504      8      152      153      154      155
     505      8      153      152      151      156
     506      8      153      154      155      156
     507      9      153      154      155      159
     508      3      154      153      152      157
     509      3      154      155      156      160
     510      9      155      154      153      158
     511      9      156      151      152      157
     512     40      157      152      153      158
     513     40      159      155      156      160
     514     11      161      163      172      173
     515     11      161      163      172      177
     516     32      162      161      163      168
     517     32      162      161      163      169
     518      5      162      161      163      172
     519     33      162      161      164      170
     520     33      162      161      164      171
     521     19      163      161      162      166
     522     19      163      161      162      167
     523     19      163      161      164      170
     524     19      163      161      164      171
     525     14      163      172      173      174
     526     17      163      172      173      178
     527     14      163      172      177      176
     528     17      163      172      177      182
     529     33      164      161      162      166
     530     33      164      161      162      167
     531     32      164      161      163      168
     532     32      164      161      163      169
     533      5      164      161      163      172
     534     45      165      161      162      166
     535     45      165      161      162      167
     536     42      165      161      163      168
     537     42      165      161      163      169
     538      6      165      161      163      172
     539     45      165      161      164      170
     540     45      165      161      164      171
     541     13      168      163      172      173
     542     13      168      163      172      177
     543     13      169      163      172      173
     544     13      169      163      172      177
     545      2      172      173      174      175
     546      3      172      173      174      179
     547      2      172      177      176      175
     548      3      172      177      176      181
     549      8      173      172      177      176
     550      9      173      172      177      182
     551     15      173      174      175      176
     552     16      173      174      175      180
     553      8      174      173      172      177
     554     15      174      175      176      177
     555     16      174      175      176      181
     556     16      175      174      173      178
     557     16      175      176      177      182
     558     16      176      175      174      179
     559      9      177      172      173      178
     560     16      177      176      175      180
     561     40      178      173      174      179
     562     40      179      174      175      180
     563     40      180      175      176      181
     564     40      181      176      177      182
     565      2      183      184      185      186
     566      3      183      184      185      190
     567      2      183      188      187      186
     568      3      183      188      187      192
     569      8      184      183      188      187
     570      9      184      183      188      193
     571     15      184      185      186      187
     572     16      184      185      186      191
     573      8      185      184      183      188
     574     15      185      186      187      188
     575     16      185      186      187      192
     576     16      186      185      184      189
     577     16      186      187      188      193
     578     16      187      186      185      190
     579      9      188      183      184      189
     580     16      188      187      186      191
     581     40      189      184      185      190
     582     40      190      185      186      191
     583     40      191      186      187      192
     584     40      192      187      188      193
     585      2      194      195      196      197
     586      3      194      195      196      201
     587      2      194      199      198      197
     588      3      194      199      198      203
     589      8      195      194      199      198
     590      9      195      194      199      204
     591     15      195      196      197      198
     592     16      195      196      197      202
     593      8      196      195      194      199
     594     15      196      197      198      199
     595     16      196      197      198      203
     596     16      197      196      195      200
     597     16      197      198      199      204
     598     16      198      197      196      201
     599      9      199      194      195      200
     600     16      199      198      197      202
     601     40      200      195      196      201
     602     40      201      196      197      202
     603     40      202      197      198      203
     604     40      203      198      199      204
     605      2      205      206      207      208
     606      3      205      206      207      212
     607      2      205      210      209      208
     608      3      205      210      209      214
     609      8      206      205      210      209
     610      9      206      205      210      215
     611     15      206      207      208      209
     612     16      206      207      208      213
     613      8      207      206      205      210
     614     15      207      208      209      210
     615     16      207      208      209      214
     616     16      208      207      206      211
     617     16      208      209      210      215
     618     16      209      208      207      212
     619      9      210      205      206      211
     620     16      210      209      208      213
     621     40      211      206      207      212
     622     40      212      207      208      213
     623     40      213      208      209      214
     624     40      214      209      210      215

Impropers

       1      1       79      141      142      146
       2      2      141      142      143      147
       3      2      142      143      144      148
       4      1       16      144      143      145
       5      2      144      145      146      149
       6      2      141      146      145      150
       7      1      118      151      152      156
       8      2      151      152      153      157
       9      2      152      153      154      158
      10      1       44      154      153      155
      11      2      154      155      156      159
      12      2      151      156      155      160
      13      1      163      172      173      177
      14      2      172      173      174      178
      15      3      173      174      175      179
      16      3      174      175      176      180
      17      3      175      176      177      181
      18      2      172      177      176      182
      19      1       91      183      184      188
      20      2      183      184      185      189
      21      3      184      185      186      190
      22      3      185      186      187      191
      23      3      186      187      188      192
      24      2      183      188      187      193
      25      1      106      194      195      199
      26      2      194      195      196      200
      27      3      195      196      197      201
      28      3      196      197      198      202
      29      3      197      198      199      203
      30      2      194      199      198      204
      31      1      130      205      206      210
      32      2      205      206      207      211
      33      3      206      207      208      212
      34      3      207      208      209      213
      35      3      208      209      210      214
      36      2      205      210      209      215

