LAMMPS data file generated by clean-room 1-hop pipeline

     158 atoms
     157 bonds
     312 angles
     459 dihedrals
       0 impropers

       5 atom types
       7 bond types
      14 angle types
      20 dihedral types
       0 improper types

  -29.430100    29.291800 xlo xhi
  -26.961900    32.731000 ylo yhi
  -27.919100    26.706400 zlo zhi

Masses

       1    12.011000
       2    12.011000
       3    12.011000
       4    12.011000
       5     1.008000

Pair Coeffs

       1     0.066000     3.500000
       2     0.066000     3.500000
       3     0.066000     3.500000
       4     0.066000     3.500000
       5     0.030000     2.500000

Bond Coeffs

       1   268.000000     1.529000
       2   340.000000     1.090000
       3   268.000000     1.529000
       4   268.000000     1.529000
       5   268.000000     1.529000
       6   340.000000     1.090000
       7   340.000000     1.090000

Angle Coeffs

       1    58.350000   112.700000
       2    37.500000   110.700000
       3    37.500000   110.700000
       4    58.350000   112.700000
       5    58.350000   112.700000
       6    58.350000   112.700000
       7    37.500000   110.700000
       8    58.350000   112.700000
       9    37.500000   110.700000
      10    58.350000   112.700000
      11    37.500000   110.700000
      12    37.500000   110.700000
      13    33.000000   107.800000
      14    33.000000   107.800000

Dihedral Coeffs

       1     0.850000    -0.200000     0.200000     0.000000
       2     0.850000    -0.200000     0.200000     0.000000
       3     0.850000    -0.200000     0.200000     0.000000
       4     0.000000     0.000000     0.300000     0.000000
       5     0.000000     0.000000     0.300000     0.000000
       6     0.850000    -0.200000     0.200000     0.000000
       7     0.850000    -0.200000     0.200000     0.000000
       8     0.850000    -0.200000     0.200000     0.000000
       9     0.000000     0.000000     0.300000     0.000000
      10     0.850000    -0.200000     0.200000     0.000000
      11     0.000000     0.000000     0.300000     0.000000
      12     0.850000    -0.200000     0.200000     0.000000
      13     0.000000     0.000000     0.300000     0.000000
      14     0.000000     0.000000     0.300000     0.000000
      15     0.850000    -0.200000     0.200000     0.000000
      16     0.000000     0.000000     0.300000     0.000000
      17     0.000000     0.000000     0.300000     0.000000
      18     0.000000     0.000000     0.300000     0.000000
      19     0.000000     0.000000     0.300000     0.000000
      20     0.000000     0.000000     0.300000     0.000000

Improper Coeffs


Atoms

       1    1      1  -0.26502206    -8.322500    -4.564500     0.351200
       2    1      2  -0.19437069    -8.603300    -5.501200    -0.837100
       3    1      5   0.09683890    -7.996500    -5.182100     1.252200
       4    1      5   0.09683890    -7.492400    -3.836000     0.068800
       5    1      5   0.09683890    -9.269000    -3.983900     0.609500
       6    1      5   0.09683890    -9.430100    -6.235000    -0.558800
       7    1      5   0.09683890    -8.930800    -4.883700    -1.737700
       8    1      1  -0.26502206    -0.788400    -2.583300    -5.271800
       9    1      2  -0.19437069    -1.998400    -1.866800    -4.644300
      10    1      5   0.09683890    -1.146500    -3.313200    -6.070800
      11    1      5   0.09683890    -0.092500    -1.811500    -5.741200
      12    1      5   0.09683890    -0.228200    -3.152400    -4.457800
      13    1      5   0.09683890    -2.692300    -2.646000    -4.195100
      14    1      5   0.09683890    -2.563800    -1.291100    -5.449700
      15    1      1  -0.26502206     1.343000     0.639500    -7.287400
      16    1      2  -0.19437069     1.637400     0.239900    -5.830400
      17    1      5   0.09683890     1.209000    -0.300000    -7.919100
      18    1      5   0.09683890     0.388700     1.261900    -7.324200
      19    1      5   0.09683890     2.213000     1.252300    -7.696200
      20    1      5   0.09683890     2.591000    -0.383400    -5.792000
      21    1      5   0.09683890     0.766200    -0.374100    -5.424400
      22    1      1  -0.26502206     8.618300    -3.598900    -2.133100
      23    1      2  -0.19437069     7.610900    -4.226900    -3.112200
      24    1      5   0.09683890     9.291800    -4.413800    -1.706700
      25    1      5   0.09683890     9.253900    -2.830700    -2.685800
      26    1      5   0.09683890     8.053300    -3.086700    -1.285800
      27    1      5   0.09683890     6.971900    -4.999500    -2.569800
      28    1      5   0.09683890     8.179600    -4.732800    -3.961000
      29    1      1  -0.26502206     6.210400     2.548900    -3.892200
      30    1      2  -0.19437069     5.039400     2.152400    -2.975800
      31    1      5   0.09683890     6.257500     1.832000    -4.777400
      32    1      5   0.09683890     6.053200     3.612500    -4.271100
      33    1      5   0.09683890     7.186400     2.493900    -3.305800
      34    1      5   0.09683890     5.203200     1.088600    -2.601800
      35    1      5   0.09683890     4.067600     2.204700    -3.567200
      36    1      1  -0.26502206     1.811900     3.867800     5.729700
      37    1      2  -0.19437069     2.700300     3.705900     4.482400
      38    1      5   0.09683890     2.242000     4.685900     6.397100
      39    1      5   0.09683890     0.756500     4.155900     5.409000
      40    1      5   0.09683890     1.779800     2.884600     6.305600
      41    1      5   0.09683890     3.759600     3.426400     4.798400
      42    1      5   0.09683890     2.275300     2.892800     3.805800
      43    1      1  -0.26502206     7.108100     8.193100     5.733300
      44    1      2  -0.19437069     6.740800     6.696800     5.704300
      45    1      5   0.09683890     7.787000     8.434100     4.849600
      46    1      5   0.09683890     6.158500     8.820100     5.660500
      47    1      5   0.09683890     7.650800     8.434100     6.706400
      48    1      5   0.09683890     6.059900     6.449900     6.584500
      49    1      5   0.09683890     7.689700     6.068100     5.766100
      50    1      1  -0.26502206     6.480200    11.352600     4.244300
      51    1      2  -0.19437069     5.461500    10.955500     3.159300
      52    1      5   0.09683890     7.454500    10.785000     4.076000
      53    1      5   0.09683890     6.678600    12.473800     4.188800
      54    1      5   0.09683890     6.062000    11.090500     5.272000
      55    1      5   0.09683890     4.493000    11.523700     3.343500
      56    1      5   0.09683890     5.879700    11.213700     2.130900
      57    1      1  -0.26502206     3.031700    11.819800     2.102500
      58    1      2  -0.19437069     2.440800    10.545300     1.476000
      59    1      5   0.09683890     4.164300    11.804900     1.994500
      60    1      5   0.09683890     2.625200    12.731000     1.551400
      61    1      5   0.09683890     2.743000    11.880600     3.203700
      62    1      5   0.09683890     1.305300    10.641600     1.510600
      63    1      5   0.09683890     2.770000    10.493400     0.385900
      64    1      2  -0.19437069    -7.321200    -6.277900    -1.188900
      65    1      2  -0.19437069    -6.202900    -5.289700    -1.571200
      66    1      5   0.09683890    -7.536000    -6.961900    -2.075400
      67    1      5   0.09683890    -6.989200    -6.905700    -0.297200
      68    1      5   0.09683890    -6.561800    -4.653300    -2.446400
      69    1      5   0.09683890    -5.947000    -4.614500    -0.688900
      70    1      2  -0.19437069    -4.965600    -6.091600    -2.016200
      71    1      2  -0.19437069    -3.871100    -5.148100    -2.551000
      72    1      5   0.09683890    -5.289000    -6.773500    -2.870700
      73    1      5   0.09683890    -4.563100    -6.727200    -1.159800
      74    1      5   0.09683890    -4.336800    -4.491400    -3.358100
      75    1      5   0.09683890    -3.046000    -5.778600    -3.021400
      76    1      2  -0.19437069    -3.211600    -4.248200    -1.485500
      77    1      2  -0.19437069    -2.259700    -3.347500    -2.295400
      78    1      5   0.09683890    -2.638100    -4.889200    -0.737400
      79    1      5   0.09683890    -3.987800    -3.611300    -0.945600
      80    1      5   0.09683890    -2.932100    -2.724100    -2.966700
      81    1      5   0.09683890    -1.586400    -4.012800    -2.931000
      82    1      2  -0.19437069     3.982400    -0.582200    -2.543200
      83    1      2  -0.19437069     5.024100    -1.383700    -3.351100
      84    1      5   0.09683890     3.219300    -1.282800    -2.066900
      85    1      5   0.09683890     4.458900     0.095600    -1.760000
      86    1      5   0.09683890     5.728900    -0.645200    -3.858900
      87    1      5   0.09683890     4.448700    -1.946600    -4.158300
      88    1      2  -0.19437069     5.872900    -2.424400    -2.599500
      89    1      2  -0.19437069     6.707500    -3.123900    -3.692400
      90    1      5   0.09683890     5.197300    -3.186200    -2.087000
      91    1      5   0.09683890     6.547100    -1.919700    -1.831200
      92    1      5   0.09683890     7.356100    -2.350900    -4.222900
      93    1      5   0.09683890     5.994200    -3.593900    -4.447400
      94    1      2  -0.19437069     5.616500     4.915900     4.279600
      95    1      2  -0.19437069     6.008300     6.402500     4.383200
      96    1      5   0.09683890     6.569200     4.314200     4.451800
      97    1      5   0.09683890     4.884400     4.681700     5.121700
      98    1      5   0.09683890     5.073500     7.049800     4.358300
      99    1      5   0.09683890     6.694400     6.673700     3.514200
     100    1      3  -0.12811731    -0.539100    -1.576100    -2.565900
     101    1      2  -0.19437069    -1.359500    -2.366700    -1.519800
     102    1      2  -0.19437069    -1.445400    -0.873000    -3.602100
     103    1      2  -0.19437069     0.442900    -0.534800    -1.978900
     104    1      5   0.09683890     0.106800    -2.302400    -3.161900
     105    1      5   0.09683890    -2.006500    -1.651700    -0.911700
     106    1      5   0.09683890    -0.658900    -2.938400    -0.825700
     107    1      5   0.09683890    -2.269100    -0.278400    -3.085200
     108    1      5   0.09683890    -0.806100    -0.161900    -4.219800
     109    1      5   0.09683890     1.303600    -1.078200    -1.465400
     110    1      5   0.09683890    -0.049000     0.211900    -1.271800
     111    1      3  -0.12811731     3.853500     2.738100    -0.784700
     112    1      2  -0.19437069     2.436700     2.925800    -1.371400
     113    1      2  -0.19437069     4.975500     3.108600    -1.774800
     114    1      2  -0.19437069     4.095200     3.769800     0.342900
     115    1      5   0.09683890     3.993200     1.663500    -0.430400
     116    1      5   0.09683890     2.289000     4.055600    -1.406200
     117    1      5   0.09683890     1.660400     2.491700    -0.658200
     118    1      5   0.09683890     4.819000     4.176800    -2.141000
     119    1      5   0.09683890     5.971300     3.045600    -1.223600
     120    1      5   0.09683890     5.134700     3.577900     0.770200
     121    1      5   0.09683890     4.090700     4.804000    -0.136900
     122    1      3  -0.12811731     4.291100     8.788900     2.192400
     123    1      2  -0.19437069     4.326300     7.317900     2.642900
     124    1      2  -0.19437069     5.204000     9.442500     3.256800
     125    1      2  -0.19437069     2.805800     9.215100     2.173200
     126    1      5   0.09683890     4.743300     8.880300     1.150100
     127    1      5   0.09683890     3.859200     7.265900     3.681600
     128    1      5   0.09683890     5.420600     7.011100     2.696100
     129    1      5   0.09683890     6.216700     8.924100     3.180600
     130    1      5   0.09683890     4.768200     9.224600     4.287500
     131    1      5   0.09683890     2.253700     8.409500     1.585000
     132    1      5   0.09683890     2.409900     9.213200     3.242200
     133    1      4  -0.05464353     2.087300     1.092400    -3.517200
     134    1      2  -0.19437069     0.874400     0.171600    -3.276500
     135    1      2  -0.19437069     1.816100     1.507700    -4.973700
     136    1      2  -0.19437069     3.345400     0.218900    -3.689900
     137    1      2  -0.19437069     2.166800     2.481500    -2.830000
     138    1      5   0.09683890    -0.037900     0.765700    -3.612900
     139    1      5   0.09683890     1.029800    -0.676500    -4.022100
     140    1      5   0.09683890     0.859500     2.126200    -5.016200
     141    1      5   0.09683890     2.689400     2.126000    -5.366800
     142    1      5   0.09683890     3.044800    -0.572200    -4.453000
     143    1      5   0.09683890     4.157000     0.858200    -4.169100
     144    1      5   0.09683890     2.945600     3.052100    -3.436100
     145    1      5   0.09683890     1.152200     2.943700    -3.067500
     146    1      4  -0.05464353     3.633100     4.914100     2.482100
     147    1      2  -0.19437069     3.098400     3.832700     1.515600
     148    1      2  -0.19437069     2.733100     5.042400     3.722800
     149    1      2  -0.19437069     5.014200     4.397300     2.948500
     150    1      2  -0.19437069     3.631800     6.278200     1.752100
     151    1      5   0.09683890     3.063100     2.827400     2.051900
     152    1      5   0.09683890     2.058400     4.108700     1.138900
     153    1      5   0.09683890     1.678400     5.333900     3.403300
     154    1      5   0.09683890     3.160100     5.849300     4.406100
     155    1      5   0.09683890     4.861000     3.284300     3.141100
     156    1      5   0.09683890     5.759900     4.507700     2.093300
     157    1      5   0.09683890     4.192300     6.203200     0.762100
     158    1      5   0.09683890     2.551500     6.586100     1.557100

Bonds

       1      1        1        2
       2      2        1        3
       3      2        1        4
       4      2        1        5
       5      6        2        6
       6      6        2        7
       7      3        2       64
       8      1        8        9
       9      2        8       10
      10      2        8       11
      11      2        8       12
      12      6        9       13
      13      6        9       14
      14      3        9      102
      15      1       15       16
      16      2       15       17
      17      2       15       18
      18      2       15       19
      19      6       16       20
      20      6       16       21
      21      3       16      135
      22      1       22       23
      23      2       22       24
      24      2       22       25
      25      2       22       26
      26      6       23       27
      27      6       23       28
      28      3       23       89
      29      1       29       30
      30      2       29       31
      31      2       29       32
      32      2       29       33
      33      6       30       34
      34      6       30       35
      35      3       30      113
      36      1       36       37
      37      2       36       38
      38      2       36       39
      39      2       36       40
      40      6       37       41
      41      6       37       42
      42      3       37      148
      43      1       43       44
      44      2       43       45
      45      2       43       46
      46      2       43       47
      47      6       44       48
      48      6       44       49
      49      3       44       95
      50      1       50       51
      51      2       50       52
      52      2       50       53
      53      2       50       54
      54      6       51       55
      55      6       51       56
      56      3       51      124
      57      1       57       58
      58      2       57       59
      59      2       57       60
      60      2       57       61
      61      6       58       62
      62      6       58       63
      63      3       58      125
      64      3       64       65
      65      6       64       66
      66      6       64       67
      67      6       65       68
      68      6       65       69
      69      3       65       70
      70      3       70       71
      71      6       70       72
      72      6       70       73
      73      6       71       74
      74      6       71       75
      75      3       71       76
      76      3       76       77
      77      6       76       78
      78      6       76       79
      79      6       77       80
      80      6       77       81
      81      3       77      101
      82      3       82       83
      83      6       82       84
      84      6       82       85
      85      3       82      136
      86      6       83       86
      87      6       83       87
      88      3       83       88
      89      3       88       89
      90      6       88       90
      91      6       88       91
      92      6       89       92
      93      6       89       93
      94      3       94       95
      95      6       94       96
      96      6       94       97
      97      3       94      149
      98      6       95       98
      99      6       95       99
     100      4      100      101
     101      4      100      102
     102      4      100      103
     103      7      100      104
     104      6      101      105
     105      6      101      106
     106      6      102      107
     107      6      102      108
     108      6      103      109
     109      6      103      110
     110      3      103      134
     111      4      111      112
     112      4      111      113
     113      4      111      114
     114      7      111      115
     115      6      112      116
     116      6      112      117
     117      3      112      137
     118      6      113      118
     119      6      113      119
     120      6      114      120
     121      6      114      121
     122      3      114      147
     123      4      122      123
     124      4      122      124
     125      4      122      125
     126      7      122      126
     127      6      123      127
     128      6      123      128
     129      3      123      150
     130      6      124      129
     131      6      124      130
     132      6      125      131
     133      6      125      132
     134      5      133      134
     135      5      133      135
     136      5      133      136
     137      5      133      137
     138      6      134      138
     139      6      134      139
     140      6      135      140
     141      6      135      141
     142      6      136      142
     143      6      136      143
     144      6      137      144
     145      6      137      145
     146      5      146      147
     147      5      146      148
     148      5      146      149
     149      5      146      150
     150      6      147      151
     151      6      147      152
     152      6      148      153
     153      6      148      154
     154      6      149      155
     155      6      149      156
     156      6      150      157
     157      6      150      158

Angles

       1      2        1        2        6
       2      2        1        2        7
       3      1        1        2       64
       4      3        2        1        3
       5      3        2        1        4
       6      3        2        1        5
       7      4        2       64       65
       8      7        2       64       66
       9      7        2       64       67
      10     13        3        1        4
      11     13        3        1        5
      12     13        4        1        5
      13     14        6        2        7
      14      7        6        2       64
      15      7        7        2       64
      16      2        8        9       13
      17      2        8        9       14
      18      1        8        9      102
      19      3        9        8       10
      20      3        9        8       11
      21      3        9        8       12
      22      5        9      102      100
      23      7        9      102      107
      24      7        9      102      108
      25     13       10        8       11
      26     13       10        8       12
      27     13       11        8       12
      28     14       13        9       14
      29      7       13        9      102
      30      7       14        9      102
      31      2       15       16       20
      32      2       15       16       21
      33      1       15       16      135
      34      3       16       15       17
      35      3       16       15       18
      36      3       16       15       19
      37      6       16      135      133
      38      7       16      135      140
      39      7       16      135      141
      40     13       17       15       18
      41     13       17       15       19
      42     13       18       15       19
      43     14       20       16       21
      44      7       20       16      135
      45      7       21       16      135
      46      2       22       23       27
      47      2       22       23       28
      48      1       22       23       89
      49      3       23       22       24
      50      3       23       22       25
      51      3       23       22       26
      52      4       23       89       88
      53      7       23       89       92
      54      7       23       89       93
      55     13       24       22       25
      56     13       24       22       26
      57     13       25       22       26
      58     14       27       23       28
      59      7       27       23       89
      60      7       28       23       89
      61      2       29       30       34
      62      2       29       30       35
      63      1       29       30      113
      64      3       30       29       31
      65      3       30       29       32
      66      3       30       29       33
      67      5       30      113      111
      68      7       30      113      118
      69      7       30      113      119
      70     13       31       29       32
      71     13       31       29       33
      72     13       32       29       33
      73     14       34       30       35
      74      7       34       30      113
      75      7       35       30      113
      76      2       36       37       41
      77      2       36       37       42
      78      1       36       37      148
      79      3       37       36       38
      80      3       37       36       39
      81      3       37       36       40
      82      6       37      148      146
      83      7       37      148      153
      84      7       37      148      154
      85     13       38       36       39
      86     13       38       36       40
      87     13       39       36       40
      88     14       41       37       42
      89      7       41       37      148
      90      7       42       37      148
      91      2       43       44       48
      92      2       43       44       49
      93      1       43       44       95
      94      3       44       43       45
      95      3       44       43       46
      96      3       44       43       47
      97      4       44       95       94
      98      7       44       95       98
      99      7       44       95       99
     100     13       45       43       46
     101     13       45       43       47
     102     13       46       43       47
     103     14       48       44       49
     104      7       48       44       95
     105      7       49       44       95
     106      2       50       51       55
     107      2       50       51       56
     108      1       50       51      124
     109      3       51       50       52
     110      3       51       50       53
     111      3       51       50       54
     112      5       51      124      122
     113      7       51      124      129
     114      7       51      124      130
     115     13       52       50       53
     116     13       52       50       54
     117     13       53       50       54
     118     14       55       51       56
     119      7       55       51      124
     120      7       56       51      124
     121      2       57       58       62
     122      2       57       58       63
     123      1       57       58      125
     124      3       58       57       59
     125      3       58       57       60
     126      3       58       57       61
     127      5       58      125      122
     128      7       58      125      131
     129      7       58      125      132
     130     13       59       57       60
     131     13       59       57       61
     132     13       60       57       61
     133     14       62       58       63
     134      7       62       58      125
     135      7       63       58      125
     136      7       64       65       68
     137      7       64       65       69
     138      4       64       65       70
     139      7       65       64       66
     140      7       65       64       67
     141      4       65       70       71
     142      7       65       70       72
     143      7       65       70       73
     144     14       66       64       67
     145     14       68       65       69
     146      7       68       65       70
     147      7       69       65       70
     148      7       70       71       74
     149      7       70       71       75
     150      4       70       71       76
     151      7       71       70       72
     152      7       71       70       73
     153      4       71       76       77
     154      7       71       76       78
     155      7       71       76       79
     156     14       72       70       73
     157     14       74       71       75
     158      7       74       71       76
     159      7       75       71       76
     160      7       76       77       80
     161      7       76       77       81
     162      4       76       77      101
     163      7       77       76       78
     164      7       77       76       79
     165      5       77      101      100
     166      7       77      101      105
     167      7       77      101      106
     168     14       78       76       79
     169     14       80       77       81
     170      7       80       77      101
     171      7       81       77      101
     172      7       82       83       86
     173      7       82       83       87
     174      4       82       83       88
     175      6       82      136      133
     176      7       82      136      142
     177      7       82      136      143
     178      7       83       82       84
     179      7       83       82       85
     180      4       83       82      136
     181      4       83       88       89
     182      7       83       88       90
     183      7       83       88       91
     184     14       84       82       85
     185      7       84       82      136
     186      7       85       82      136
     187     14       86       83       87
     188      7       86       83       88
     189      7       87       83       88
     190      7       88       89       92
     191      7       88       89       93
     192      7       89       88       90
     193      7       89       88       91
     194     14       90       88       91
     195     14       92       89       93
     196      7       94       95       98
     197      7       94       95       99
     198      6       94      149      146
     199      7       94      149      155
     200      7       94      149      156
     201      7       95       94       96
     202      7       95       94       97
     203      4       95       94      149
     204     14       96       94       97
     205      7       96       94      149
     206      7       97       94      149
     207     14       98       95       99
     208     11      100      101      105
     209     11      100      101      106
     210     11      100      102      107
     211     11      100      102      108
     212     11      100      103      109
     213     11      100      103      110
     214      5      100      103      134
     215      8      101      100      102
     216      8      101      100      103
     217      9      101      100      104
     218      8      102      100      103
     219      9      102      100      104
     220      9      103      100      104
     221      6      103      134      133
     222      7      103      134      138
     223      7      103      134      139
     224     14      105      101      106
     225     14      107      102      108
     226     14      109      103      110
     227      7      109      103      134
     228      7      110      103      134
     229     11      111      112      116
     230     11      111      112      117
     231      5      111      112      137
     232     11      111      113      118
     233     11      111      113      119
     234     11      111      114      120
     235     11      111      114      121
     236      5      111      114      147
     237      8      112      111      113
     238      8      112      111      114
     239      9      112      111      115
     240      6      112      137      133
     241      7      112      137      144
     242      7      112      137      145
     243      8      113      111      114
     244      9      113      111      115
     245      9      114      111      115
     246      6      114      147      146
     247      7      114      147      151
     248      7      114      147      152
     249     14      116      112      117
     250      7      116      112      137
     251      7      117      112      137
     252     14      118      113      119
     253     14      120      114      121
     254      7      120      114      147
     255      7      121      114      147
     256     11      122      123      127
     257     11      122      123      128
     258      5      122      123      150
     259     11      122      124      129
     260     11      122      124      130
     261     11      122      125      131
     262     11      122      125      132
     263      8      123      122      124
     264      8      123      122      125
     265      9      123      122      126
     266      6      123      150      146
     267      7      123      150      157
     268      7      123      150      158
     269      8      124      122      125
     270      9      124      122      126
     271      9      125      122      126
     272     14      127      123      128
     273      7      127      123      150
     274      7      128      123      150
     275     14      129      124      130
     276     14      131      125      132
     277     12      133      134      138
     278     12      133      134      139
     279     12      133      135      140
     280     12      133      135      141
     281     12      133      136      142
     282     12      133      136      143
     283     12      133      137      144
     284     12      133      137      145
     285     10      134      133      135
     286     10      134      133      136
     287     10      134      133      137
     288     10      135      133      136
     289     10      135      133      137
     290     10      136      133      137
     291     14      138      134      139
     292     14      140      135      141
     293     14      142      136      143
     294     14      144      137      145
     295     12      146      147      151
     296     12      146      147      152
     297     12      146      148      153
     298     12      146      148      154
     299     12      146      149      155
     300     12      146      149      156
     301     12      146      150      157
     302     12      146      150      158
     303     10      147      146      148
     304     10      147      146      149
     305     10      147      146      150
     306     10      148      146      149
     307     10      148      146      150
     308     10      149      146      150
     309     14      151      147      152
     310     14      153      148      154
     311     14      155      149      156
     312     14      157      150      158

Dihedrals

       1      1        1        2       64       65
       2      4        1        2       64       66
       3      4        1        2       64       67
       4      9        2       64       65       68
       5      9        2       64       65       69
       6      6        2       64       65       70
       7     18        3        1        2        6
       8     18        3        1        2        7
       9      5        3        1        2       64
      10     18        4        1        2        6
      11     18        4        1        2        7
      12      5        4        1        2       64
      13     18        5        1        2        6
      14     18        5        1        2        7
      15      5        5        1        2       64
      16      9        6        2       64       65
      17     19        6        2       64       66
      18     19        6        2       64       67
      19      9        7        2       64       65
      20     19        7        2       64       66
      21     19        7        2       64       67
      22      2        8        9      102      100
      23      4        8        9      102      107
      24      4        8        9      102      108
      25     10        9      102      100      101
      26     10        9      102      100      103
      27     11        9      102      100      104
      28     18       10        8        9       13
      29     18       10        8        9       14
      30      5       10        8        9      102
      31     18       11        8        9       13
      32     18       11        8        9       14
      33      5       11        8        9      102
      34     18       12        8        9       13
      35     18       12        8        9       14
      36      5       12        8        9      102
      37     16       13        9      102      100
      38     19       13        9      102      107
      39     19       13        9      102      108
      40     16       14        9      102      100
      41     19       14        9      102      107
      42     19       14        9      102      108
      43      3       15       16      135      133
      44      4       15       16      135      140
      45      4       15       16      135      141
      46     12       16      135      133      134
      47     12       16      135      133      136
      48     12       16      135      133      137
      49     18       17       15       16       20
      50     18       17       15       16       21
      51      5       17       15       16      135
      52     18       18       15       16       20
      53     18       18       15       16       21
      54      5       18       15       16      135
      55     18       19       15       16       20
      56     18       19       15       16       21
      57      5       19       15       16      135
      58     17       20       16      135      133
      59     19       20       16      135      140
      60     19       20       16      135      141
      61     17       21       16      135      133
      62     19       21       16      135      140
      63     19       21       16      135      141
      64      1       22       23       89       88
      65      4       22       23       89       92
      66      4       22       23       89       93
      67      6       23       89       88       83
      68      9       23       89       88       90
      69      9       23       89       88       91
      70     18       24       22       23       27
      71     18       24       22       23       28
      72      5       24       22       23       89
      73     18       25       22       23       27
      74     18       25       22       23       28
      75      5       25       22       23       89
      76     18       26       22       23       27
      77     18       26       22       23       28
      78      5       26       22       23       89
      79      9       27       23       89       88
      80     19       27       23       89       92
      81     19       27       23       89       93
      82      9       28       23       89       88
      83     19       28       23       89       92
      84     19       28       23       89       93
      85      2       29       30      113      111
      86      4       29       30      113      118
      87      4       29       30      113      119
      88     10       30      113      111      112
      89     10       30      113      111      114
      90     11       30      113      111      115
      91     18       31       29       30       34
      92     18       31       29       30       35
      93      5       31       29       30      113
      94     18       32       29       30       34
      95     18       32       29       30       35
      96      5       32       29       30      113
      97     18       33       29       30       34
      98     18       33       29       30       35
      99      5       33       29       30      113
     100     16       34       30      113      111
     101     19       34       30      113      118
     102     19       34       30      113      119
     103     16       35       30      113      111
     104     19       35       30      113      118
     105     19       35       30      113      119
     106      3       36       37      148      146
     107      4       36       37      148      153
     108      4       36       37      148      154
     109     12       37      148      146      147
     110     12       37      148      146      149
     111     12       37      148      146      150
     112     18       38       36       37       41
     113     18       38       36       37       42
     114      5       38       36       37      148
     115     18       39       36       37       41
     116     18       39       36       37       42
     117      5       39       36       37      148
     118     18       40       36       37       41
     119     18       40       36       37       42
     120      5       40       36       37      148
     121     17       41       37      148      146
     122     19       41       37      148      153
     123     19       41       37      148      154
     124     17       42       37      148      146
     125     19       42       37      148      153
     126     19       42       37      148      154
     127      1       43       44       95       94
     128      4       43       44       95       98
     129      4       43       44       95       99
     130      9       44       95       94       96
     131      9       44       95       94       97
     132      6       44       95       94      149
     133     18       45       43       44       48
     134     18       45       43       44       49
     135      5       45       43       44       95
     136     18       46       43       44       48
     137     18       46       43       44       49
     138      5       46       43       44       95
     139     18       47       43       44       48
     140     18       47       43       44       49
     141      5       47       43       44       95
     142      9       48       44       95       94
     143     19       48       44       95       98
     144     19       48       44       95       99
     145      9       49       44       95       94
     146     19       49       44       95       98
     147     19       49       44       95       99
     148      2       50       51      124      122
     149      4       50       51      124      129
     150      4       50       51      124      130
     151     10       51      124      122      123
     152     10       51      124      122      125
     153     11       51      124      122      126
     154     18       52       50       51       55
     155     18       52       50       51       56
     156      5       52       50       51      124
     157     18       53       50       51       55
     158     18       53       50       51       56
     159      5       53       50       51      124
     160     18       54       50       51       55
     161     18       54       50       51       56
     162      5       54       50       51      124
     163     16       55       51      124      122
     164     19       55       51      124      129
     165     19       55       51      124      130
     166     16       56       51      124      122
     167     19       56       51      124      129
     168     19       56       51      124      130
     169      2       57       58      125      122
     170      4       57       58      125      131
     171      4       57       58      125      132
     172     10       58      125      122      123
     173     10       58      125      122      124
     174     11       58      125      122      126
     175     18       59       57       58       62
     176     18       59       57       58       63
     177      5       59       57       58      125
     178     18       60       57       58       62
     179     18       60       57       58       63
     180      5       60       57       58      125
     181     18       61       57       58       62
     182     18       61       57       58       63
     183      5       61       57       58      125
     184     16       62       58      125      122
     185     19       62       58      125      131
     186     19       62       58      125      132
     187     16       63       58      125      122
     188     19       63       58      125      131
     189     19       63       58      125      132
     190      6       64       65       70       71
     191      9       64       65       70       72
     192      9       64       65       70       73
     193      9       65       70       71       74
     194      9       65       70       71       75
     195      6       65       70       71       76
     196     19       66       64       65       68
     197     19       66       64       65       69
     198      9       66       64       65       70
     199     19       67       64       65       68
     200     19       67       64       65       69
     201      9       67       64       65       70
     202      9       68       65       70       71
     203     19       68       65       70       72
     204     19       68       65       70       73
     205      9       69       65       70       71
     206     19       69       65       70       72
     207     19       69       65       70       73
     208      6       70       71       76       77
     209      9       70       71       76       78
     210      9       70       71       76       79
     211      9       71       76       77       80
     212      9       71       76       77       81
     213      6       71       76       77      101
     214     19       72       70       71       74
     215     19       72       70       71       75
     216      9       72       70       71       76
     217     19       73       70       71       74
     218     19       73       70       71       75
     219      9       73       70       71       76
     220      9       74       71       76       77
     221     19       74       71       76       78
     222     19       74       71       76       79
     223      9       75       71       76       77
     224     19       75       71       76       78
     225     19       75       71       76       79
     226      7       76       77      101      100
     227      9       76       77      101      105
     228      9       76       77      101      106
     229     10       77      101      100      102
     230     10       77      101      100      103
     231     11       77      101      100      104
     232     19       78       76       77       80
     233     19       78       76       77       81
     234      9       78       76       77      101
     235     19       79       76       77       80
     236     19       79       76       77       81
     237      9       79       76       77      101
     238     16       80       77      101      100
     239     19       80       77      101      105
     240     19       80       77      101      106
     241     16       81       77      101      100
     242     19       81       77      101      105
     243     19       81       77      101      106
     244      6       82       83       88       89
     245      9       82       83       88       90
     246      9       82       83       88       91
     247     12       82      136      133      134
     248     12       82      136      133      135
     249     12       82      136      133      137
     250      8       83       82      136      133
     251      9       83       82      136      142
     252      9       83       82      136      143
     253      9       83       88       89       92
     254      9       83       88       89       93
     255     19       84       82       83       86
     256     19       84       82       83       87
     257      9       84       82       83       88
     258     17       84       82      136      133
     259     19       84       82      136      142
     260     19       84       82      136      143
     261     19       85       82       83       86
     262     19       85       82       83       87
     263      9       85       82       83       88
     264     17       85       82      136      133
     265     19       85       82      136      142
     266     19       85       82      136      143
     267      9       86       83       82      136
     268      9       86       83       88       89
     269     19       86       83       88       90
     270     19       86       83       88       91
     271      9       87       83       82      136
     272      9       87       83       88       89
     273     19       87       83       88       90
     274     19       87       83       88       91
     275      6       88       83       82      136
     276     19       90       88       89       92
     277     19       90       88       89       93
     278     19       91       88       89       92
     279     19       91       88       89       93
     280     12       94      149      146      147
     281     12       94      149      146      148
     282     12       94      149      146      150
     283      8       95       94      149      146
     284      9       95       94      149      155
     285      9       95       94      149      156
     286     19       96       94       95       98
     287     19       96       94       95       99
     288     17       96       94      149      146
     289     19       96       94      149      155
     290     19       96       94      149      156
     291     19       97       94       95       98
     292     19       97       94       95       99
     293     17       97       94      149      146
     294     19       97       94      149      155
     295     19       97       94      149      156
     296      9       98       95       94      149
     297      9       99       95       94      149
     298     15      100      103      134      133
     299     16      100      103      134      138
     300     16      100      103      134      139
     301     13      101      100      102      107
     302     13      101      100      102      108
     303     13      101      100      103      109
     304     13      101      100      103      110
     305     10      101      100      103      134
     306     13      102      100      101      105
     307     13      102      100      101      106
     308     13      102      100      103      109
     309     13      102      100      103      110
     310     10      102      100      103      134
     311     13      103      100      101      105
     312     13      103      100      101      106
     313     13      103      100      102      107
     314     13      103      100      102      108
     315     12      103      134      133      135
     316     12      103      134      133      136
     317     12      103      134      133      137
     318     20      104      100      101      105
     319     20      104      100      101      106
     320     20      104      100      102      107
     321     20      104      100      102      108
     322     20      104      100      103      109
     323     20      104      100      103      110
     324     11      104      100      103      134
     325     17      109      103      134      133
     326     19      109      103      134      138
     327     19      109      103      134      139
     328     17      110      103      134      133
     329     19      110      103      134      138
     330     19      110      103      134      139
     331     15      111      112      137      133
     332     16      111      112      137      144
     333     16      111      112      137      145
     334     15      111      114      147      146
     335     16      111      114      147      151
     336     16      111      114      147      152
     337     13      112      111      113      118
     338     13      112      111      113      119
     339     13      112      111      114      120
     340     13      112      111      114      121
     341     10      112      111      114      147
     342     12      112      137      133      134
     343     12      112      137      133      135
     344     12      112      137      133      136
     345     13      113      111      112      116
     346     13      113      111      112      117
     347     10      113      111      112      137
     348     13      113      111      114      120
     349     13      113      111      114      121
     350     10      113      111      114      147
     351     13      114      111      112      116
     352     13      114      111      112      117
     353     10      114      111      112      137
     354     13      114      111      113      118
     355     13      114      111      113      119
     356     12      114      147      146      148
     357     12      114      147      146      149
     358     12      114      147      146      150
     359     20      115      111      112      116
     360     20      115      111      112      117
     361     11      115      111      112      137
     362     20      115      111      113      118
     363     20      115      111      113      119
     364     20      115      111      114      120
     365     20      115      111      114      121
     366     11      115      111      114      147
     367     17      116      112      137      133
     368     19      116      112      137      144
     369     19      116      112      137      145
     370     17      117      112      137      133
     371     19      117      112      137      144
     372     19      117      112      137      145
     373     17      120      114      147      146
     374     19      120      114      147      151
     375     19      120      114      147      152
     376     17      121      114      147      146
     377     19      121      114      147      151
     378     19      121      114      147      152
     379     15      122      123      150      146
     380     16      122      123      150      157
     381     16      122      123      150      158
     382     13      123      122      124      129
     383     13      123      122      124      130
     384     13      123      122      125      131
     385     13      123      122      125      132
     386     12      123      150      146      147
     387     12      123      150      146      148
     388     12      123      150      146      149
     389     13      124      122      123      127
     390     13      124      122      123      128
     391     10      124      122      123      150
     392     13      124      122      125      131
     393     13      124      122      125      132
     394     13      125      122      123      127
     395     13      125      122      123      128
     396     10      125      122      123      150
     397     13      125      122      124      129
     398     13      125      122      124      130
     399     20      126      122      123      127
     400     20      126      122      123      128
     401     11      126      122      123      150
     402     20      126      122      124      129
     403     20      126      122      124      130
     404     20      126      122      125      131
     405     20      126      122      125      132
     406     17      127      123      150      146
     407     19      127      123      150      157
     408     19      127      123      150      158
     409     17      128      123      150      146
     410     19      128      123      150      157
     411     19      128      123      150      158
     412     14      134      133      135      140
     413     14      134      133      135      141
     414     14      134      133      136      142
     415     14      134      133      136      143
     416     14      134      133      137      144
     417     14      134      133      137      145
     418     14      135      133      134      138
     419     14      135      133      134      139
     420     14      135      133      136      142
     421     14      135      133      136      143
     422     14      135      133      137      144
     423     14      135      133      137      145
     424     14      136      133      134      138
     425     14      136      133      134      139
     426     14      136      133      135      140
     427     14      136      133      135      141
     428     14      136      133      137      144
     429     14      136      133      137      145
     430     14      137      133      134      138
     431     14      137      133      134      139
     432     14      137      133      135      140
     433     14      137      133      135      141
     434     14      137      133      136      142
     435     14      137      133      136      143
     436     14      147      146      148      153
     437     14      147      146      148      154
     438     14      147      146      149      155
     439     14      147      146      149      156
     440     14      147      146      150      157
     441     14      147      146      150      158
     442     14      148      146      147      151
     443     14      148      146      147      152
     444     14      148      146      149      155
     445     14      148      146      149      156
     446     14      148      146      150      157
     447     14      148      146      150      158
     448     14      149      146      147      151
     449     14      149      146      147      152
     450     14      149      146      148      153
     451     14      149      146      148      154
     452     14      149      146      150      157
     453     14      149      146      150      158
     454     14      150      146      147      151
     455     14      150      146      147      152
     456     14      150      146      148      153
     457     14      150      146      148      154
     458     14      150      146      149      155
     459     14      150      146      149      156

Impropers


