LAMMPS data file generated by clean-room 1-hop pipeline

     146 atoms
     145 bonds
     288 angles
     423 dihedrals
       0 impropers

       4 atom types
       6 bond types
      11 angle types
      13 dihedral types
       0 improper types

  -34.847000    33.840900 xlo xhi
  -32.554200    28.398300 ylo yhi
  -35.068200    31.131200 zlo zhi

Masses

       1    12.011000
       2    12.011000
       3    12.011000
       4     1.008000

Pair Coeffs

       1     0.066000     3.500000
       2     0.066000     3.500000
       3     0.066000     3.500000
       4     0.030000     2.500000

Bond Coeffs

       1   268.000000     1.529000
       2   340.000000     1.090000
       3   268.000000     1.529000
       4   268.000000     1.529000
       5   340.000000     1.090000
       6   340.000000     1.090000

Angle Coeffs

       1    58.350000   112.700000
       2    37.500000   110.700000
       3    37.500000   110.700000
       4    58.350000   112.700000
       5    58.350000   112.700000
       6    37.500000   110.700000
       7    58.350000   112.700000
       8    37.500000   110.700000
       9    37.500000   110.700000
      10    33.000000   107.800000
      11    33.000000   107.800000

Dihedral Coeffs

       1     0.850000    -0.200000     0.200000     0.000000
       2     0.000000     0.000000     0.300000     0.000000
       3     0.000000     0.000000     0.300000     0.000000
       4     0.850000    -0.200000     0.200000     0.000000
       5     0.850000    -0.200000     0.200000     0.000000
       6     0.000000     0.000000     0.300000     0.000000
       7     0.850000    -0.200000     0.200000     0.000000
       8     0.000000     0.000000     0.300000     0.000000
       9     0.000000     0.000000     0.300000     0.000000
      10     0.000000     0.000000     0.300000     0.000000
      11     0.000000     0.000000     0.300000     0.000000
      12     0.000000     0.000000     0.300000     0.000000
      13     0.000000     0.000000     0.300000     0.000000

Improper Coeffs


Atoms

       1    1      1  -0.26509275   -13.362300     7.439100     9.647700
       2    1      2  -0.19444138   -13.722400     7.059700     8.199800
       3    1      4   0.09676821   -13.907300     8.398300     9.935800
       4    1      4   0.09676821   -13.673800     6.597900    10.351100
       5    1      4   0.09676821   -12.236600     7.602400     9.724900
       6    1      4   0.09676821   -14.847000     6.894500     8.113100
       7    1      4   0.09676821   -13.408000     7.904800     7.502300
       8    1      1  -0.26509275    -0.159800     6.852400    10.069000
       9    1      2  -0.19444138    -0.056800     5.316000    10.068500
      10    1      4   0.09676821    -0.006600     7.244900     9.010100
      11    1      4   0.09676821    -1.190900     7.162000    10.443800
      12    1      4   0.09676821     0.639400     7.286500    10.756100
      13    1      4   0.09676821     0.972600     4.994100     9.699400
      14    1      4   0.09676821    -0.215200     4.934700    11.131200
      15    1      1  -0.26509275    13.244500   -11.448200    -2.712000
      16    1      2  -0.19444138    11.743600   -11.217200    -2.455500
      17    1      4   0.09676821    13.574500   -10.833300    -3.613500
      18    1      4   0.09676821    13.840900   -11.128200    -1.794700
      19    1      4   0.09676821    13.428900   -12.554200    -2.918600
      20    1      4   0.09676821    11.410900   -11.833400    -1.555900
      21    1      4   0.09676821    11.150600   -11.537500    -3.374900
      22    1      1  -0.26509275     3.443200     2.496500   -14.107000
      23    1      2  -0.19444138     2.866800     1.692500   -12.926700
      24    1      4   0.09676821     4.557200     2.276600   -14.208600
      25    1      4   0.09676821     2.907600     2.198300   -15.068200
      26    1      4   0.09676821     3.291600     3.610300   -13.917200
      27    1      4   0.09676821     1.752900     1.912700   -12.824700
      28    1      4   0.09676821     3.018300     0.578500   -13.115300
      29    1      2  -0.19444138   -12.979000     5.770600     7.802800
      30    1      2  -0.19444138   -11.462200     5.992900     7.949200
      31    1      4   0.09676821   -13.225900     5.514700     6.719700
      32    1      4   0.09676821   -13.302400     4.912300     8.479900
      33    1      4   0.09676821   -11.216400     6.213000     9.040500
      34    1      4   0.09676821   -11.145700     6.877600     7.303800
      35    1      2  -0.19444138   -10.706000     4.735000     7.480000
      36    1      2  -0.19444138    -9.190200     4.956600     7.642100
      37    1      4   0.09676821   -10.947200     4.547600     6.381700
      38    1      4   0.09676821   -11.026900     3.833000     8.099000
      39    1      4   0.09676821    -8.947700     5.098800     8.746700
      40    1      4   0.09676821    -8.881900     5.889800     7.064700
      41    1      2  -0.19444138    -8.408800     3.750000     7.085600
      42    1      2  -0.19444138    -6.903900     3.999900     7.298300
      43    1      4   0.09676821    -8.628900     3.643400     5.972000
      44    1      4   0.09676821    -8.717900     2.796800     7.629600
      45    1      4   0.09676821    -6.698500     4.067400     8.417700
      46    1      4   0.09676821    -6.615700     4.986500     6.805300
      47    1      2  -0.19444138    -6.041500     2.877600     6.686100
      48    1      2  -0.19444138    -4.575900     3.215100     7.017200
      49    1      4   0.09676821    -6.196600     2.848500     5.557200
      50    1      4   0.09676821    -6.317300     1.869600     7.140900
      51    1      4   0.09676821    -4.462300     3.216600     8.151500
      52    1      4   0.09676821    -4.344600     4.259500     6.622900
      53    1      2  -0.19444138    -1.092800     3.190000     9.244000
      54    1      2  -0.19444138    -1.145000     4.725400     9.152900
      55    1      4   0.09676821    -0.102300     2.785400     8.850100
      56    1      4   0.09676821    -1.209400     2.904800    10.341900
      57    1      4   0.09676821    -2.163100     5.078300     9.524600
      58    1      4   0.09676821    -0.994200     5.065500     8.075400
      59    1      2  -0.19444138    -0.969200     1.813300     4.875800
      60    1      2  -0.19444138     0.370100     1.184900     4.431300
      61    1      4   0.09676821    -1.092600     2.821800     4.358700
      62    1      4   0.09676821    -1.839500     1.132600     4.595000
      63    1      4   0.09676821     1.194300     1.957600     4.584000
      64    1      4   0.09676821     0.592700     0.269800     5.073700
      65    1      2  -0.19444138     0.337100     0.718800     2.959700
      66    1      2  -0.19444138     1.745700     0.267300     2.514300
      67    1      4   0.09676821    -0.008200     1.562100     2.275000
      68    1      4   0.09676821    -0.394200    -0.152400     2.885700
      69    1      4   0.09676821     2.411300     1.190200     2.441100
      70    1      4   0.09676821     2.182700    -0.450600     3.284600
      71    1      2  -0.19444138     1.696600    -0.473100     1.160200
      72    1      2  -0.19444138     3.121000    -0.750600     0.631000
      73    1      4   0.09676821     1.140500     0.149700     0.384200
      74    1      4   0.09676821     1.143000    -1.456600     1.320700
      75    1      4   0.09676821     3.589400     0.242400     0.323800
      76    1      4   0.09676821     3.756500    -1.231500     1.445900
      77    1      2  -0.19444138     4.553400    -4.353900    -1.926600
      78    1      2  -0.19444138     6.032500    -4.579600    -1.557500
      79    1      4   0.09676821     4.342600    -5.001600    -2.840700
      80    1      4   0.09676821     3.832500    -4.631700    -1.088300
      81    1      4   0.09676821     6.318400    -4.028600    -0.601300
      82    1      4   0.09676821     6.653100    -4.172900    -2.423100
      83    1      2  -0.19444138     6.334400    -6.087300    -1.466300
      84    1      2  -0.19444138     7.860800    -6.296700    -1.424700
      85    1      4   0.09676821     5.949500    -6.576700    -2.421200
      86    1      4   0.09676821     5.820300    -6.559700    -0.565100
      87    1      4   0.09676821     8.304200    -5.870700    -0.464900
      88    1      4   0.09676821     8.315100    -5.760200    -2.322200
      89    1      2  -0.19444138     8.177100    -7.798500    -1.559200
      90    1      2  -0.19444138     9.697000    -8.007500    -1.703400
      91    1      4   0.09676821     7.673700    -8.189300    -2.504400
      92    1      4   0.09676821     7.779600    -8.368600    -0.655700
      93    1      4   0.09676821    10.235200    -7.651200    -0.763600
      94    1      4   0.09676821    10.067200    -7.412000    -2.602400
      95    1      2  -0.19444138     9.981000    -9.502000    -1.946700
      96    1      2  -0.19444138    11.487700    -9.723900    -2.177500
      97    1      4   0.09676821     9.413100    -9.840900    -2.875200
      98    1      4   0.09676821     9.633700   -10.110400    -1.047600
      99    1      4   0.09676821    12.071200    -9.398400    -1.253900
     100    1      4   0.09676821    11.825900    -9.110400    -3.076900
     101    1      2  -0.19444138     3.814000    -0.499900    -3.226700
     102    1      2  -0.19444138     4.247300     0.561300    -4.254300
     103    1      4   0.09676821     3.896700    -1.505500    -3.756200
     104    1      4   0.09676821     2.735600    -0.344200    -2.891900
     105    1      4   0.09676821     4.114000     1.617400    -3.846200
     106    1      4   0.09676821     5.344700     0.384400    -4.507500
     107    1      2  -0.19444138     3.421800     0.336400    -5.535800
     108    1      2  -0.19444138     3.940600     1.228900    -6.678700
     109    1      4   0.09676821     3.552400    -0.750600    -5.853700
     110    1      4   0.09676821     2.317700     0.540300    -5.338000
     111    1      4   0.09676821     3.792900     2.329200    -6.420300
     112    1      4   0.09676821     5.050300     1.019600    -6.834700
     113    1      2  -0.19444138     3.184400     0.873000    -7.973000
     114    1      2  -0.19444138     3.745200     1.692700    -9.150200
     115    1      4   0.09676821     3.330400    -0.235900    -8.194100
     116    1      4   0.09676821     2.072800     1.090100    -7.843400
     117    1      4   0.09676821     3.595100     2.804800    -8.949900
     118    1      4   0.09676821     4.858200     1.473800    -9.264300
     119    1      2  -0.19444138     3.015800     1.293800   -10.446900
     120    1      2  -0.19444138     3.590600     2.096800   -11.628800
     121    1      4   0.09676821     3.166800     0.180200   -10.638600
     122    1      4   0.09676821     1.902200     1.513300   -10.341400
     123    1      4   0.09676821     3.439900     3.210900   -11.440400
     124    1      4   0.09676821     4.704300     1.876100   -11.731500
     125    1      3  -0.12818800    -2.190800     2.754000     6.936200
     126    1      2  -0.19444138    -3.544500     2.239600     6.413900
     127    1      2  -0.19444138    -2.276600     2.588400     8.466700
     128    1      2  -0.19444138    -0.966700     1.973100     6.411100
     129    1      4   0.09676821    -2.095900     3.850700     6.639600
     130    1      4   0.09676821    -3.727600     1.173200     6.772500
     131    1      4   0.09676821    -3.582400     2.284400     5.275400
     132    1      4   0.09676821    -2.328200     1.470700     8.684800
     133    1      4   0.09676821    -3.230500     3.082100     8.847500
     134    1      4   0.09676821    -0.966600     0.925400     6.860500
     135    1      4   0.09676821    -0.026800     2.522400     6.749100
     136    1      3  -0.12818800     4.458300    -1.829800    -1.250100
     137    1      2  -0.19444138     3.076600    -1.718700    -0.570900
     138    1      2  -0.19444138     4.416700    -2.886400    -2.370600
     139    1      2  -0.19444138     4.770600    -0.533600    -2.018800
     140    1      4   0.09676821     5.283800    -2.053000    -0.496100
     141    1      4   0.09676821     2.333200    -1.343700    -1.349600
     142    1      4   0.09676821     2.742400    -2.740700    -0.191800
     143    1      4   0.09676821     5.285200    -2.694500    -3.083400
     144    1      4   0.09676821     3.441100    -2.735000    -2.940500
     145    1      4   0.09676821     5.831100    -0.623200    -2.427500
     146    1      4   0.09676821     4.688000     0.394900    -1.362300

Bonds

       1      1        1        2
       2      2        1        3
       3      2        1        4
       4      2        1        5
       5      5        2        6
       6      5        2        7
       7      3        2       29
       8      1        8        9
       9      2        8       10
      10      2        8       11
      11      2        8       12
      12      5        9       13
      13      5        9       14
      14      3        9       54
      15      1       15       16
      16      2       15       17
      17      2       15       18
      18      2       15       19
      19      5       16       20
      20      5       16       21
      21      3       16       96
      22      1       22       23
      23      2       22       24
      24      2       22       25
      25      2       22       26
      26      5       23       27
      27      5       23       28
      28      3       23      120
      29      3       29       30
      30      5       29       31
      31      5       29       32
      32      5       30       33
      33      5       30       34
      34      3       30       35
      35      3       35       36
      36      5       35       37
      37      5       35       38
      38      5       36       39
      39      5       36       40
      40      3       36       41
      41      3       41       42
      42      5       41       43
      43      5       41       44
      44      5       42       45
      45      5       42       46
      46      3       42       47
      47      3       47       48
      48      5       47       49
      49      5       47       50
      50      5       48       51
      51      5       48       52
      52      3       48      126
      53      3       53       54
      54      5       53       55
      55      5       53       56
      56      3       53      127
      57      5       54       57
      58      5       54       58
      59      3       59       60
      60      5       59       61
      61      5       59       62
      62      3       59      128
      63      5       60       63
      64      5       60       64
      65      3       60       65
      66      3       65       66
      67      5       65       67
      68      5       65       68
      69      5       66       69
      70      5       66       70
      71      3       66       71
      72      3       71       72
      73      5       71       73
      74      5       71       74
      75      5       72       75
      76      5       72       76
      77      3       72      137
      78      3       77       78
      79      5       77       79
      80      5       77       80
      81      3       77      138
      82      5       78       81
      83      5       78       82
      84      3       78       83
      85      3       83       84
      86      5       83       85
      87      5       83       86
      88      5       84       87
      89      5       84       88
      90      3       84       89
      91      3       89       90
      92      5       89       91
      93      5       89       92
      94      5       90       93
      95      5       90       94
      96      3       90       95
      97      3       95       96
      98      5       95       97
      99      5       95       98
     100      5       96       99
     101      5       96      100
     102      3      101      102
     103      5      101      103
     104      5      101      104
     105      3      101      139
     106      5      102      105
     107      5      102      106
     108      3      102      107
     109      3      107      108
     110      5      107      109
     111      5      107      110
     112      5      108      111
     113      5      108      112
     114      3      108      113
     115      3      113      114
     116      5      113      115
     117      5      113      116
     118      5      114      117
     119      5      114      118
     120      3      114      119
     121      3      119      120
     122      5      119      121
     123      5      119      122
     124      5      120      123
     125      5      120      124
     126      4      125      126
     127      4      125      127
     128      4      125      128
     129      6      125      129
     130      5      126      130
     131      5      126      131
     132      5      127      132
     133      5      127      133
     134      5      128      134
     135      5      128      135
     136      4      136      137
     137      4      136      138
     138      4      136      139
     139      6      136      140
     140      5      137      141
     141      5      137      142
     142      5      138      143
     143      5      138      144
     144      5      139      145
     145      5      139      146

Angles

       1      2        1        2        6
       2      2        1        2        7
       3      1        1        2       29
       4      3        2        1        3
       5      3        2        1        4
       6      3        2        1        5
       7      4        2       29       30
       8      6        2       29       31
       9      6        2       29       32
      10     10        3        1        4
      11     10        3        1        5
      12     10        4        1        5
      13     11        6        2        7
      14      6        6        2       29
      15      6        7        2       29
      16      2        8        9       13
      17      2        8        9       14
      18      1        8        9       54
      19      3        9        8       10
      20      3        9        8       11
      21      3        9        8       12
      22      4        9       54       53
      23      6        9       54       57
      24      6        9       54       58
      25     10       10        8       11
      26     10       10        8       12
      27     10       11        8       12
      28     11       13        9       14
      29      6       13        9       54
      30      6       14        9       54
      31      2       15       16       20
      32      2       15       16       21
      33      1       15       16       96
      34      3       16       15       17
      35      3       16       15       18
      36      3       16       15       19
      37      4       16       96       95
      38      6       16       96       99
      39      6       16       96      100
      40     10       17       15       18
      41     10       17       15       19
      42     10       18       15       19
      43     11       20       16       21
      44      6       20       16       96
      45      6       21       16       96
      46      2       22       23       27
      47      2       22       23       28
      48      1       22       23      120
      49      3       23       22       24
      50      3       23       22       25
      51      3       23       22       26
      52      4       23      120      119
      53      6       23      120      123
      54      6       23      120      124
      55     10       24       22       25
      56     10       24       22       26
      57     10       25       22       26
      58     11       27       23       28
      59      6       27       23      120
      60      6       28       23      120
      61      6       29       30       33
      62      6       29       30       34
      63      4       29       30       35
      64      6       30       29       31
      65      6       30       29       32
      66      4       30       35       36
      67      6       30       35       37
      68      6       30       35       38
      69     11       31       29       32
      70     11       33       30       34
      71      6       33       30       35
      72      6       34       30       35
      73      6       35       36       39
      74      6       35       36       40
      75      4       35       36       41
      76      6       36       35       37
      77      6       36       35       38
      78      4       36       41       42
      79      6       36       41       43
      80      6       36       41       44
      81     11       37       35       38
      82     11       39       36       40
      83      6       39       36       41
      84      6       40       36       41
      85      6       41       42       45
      86      6       41       42       46
      87      4       41       42       47
      88      6       42       41       43
      89      6       42       41       44
      90      4       42       47       48
      91      6       42       47       49
      92      6       42       47       50
      93     11       43       41       44
      94     11       45       42       46
      95      6       45       42       47
      96      6       46       42       47
      97      6       47       48       51
      98      6       47       48       52
      99      4       47       48      126
     100      6       48       47       49
     101      6       48       47       50
     102      5       48      126      125
     103      6       48      126      130
     104      6       48      126      131
     105     11       49       47       50
     106     11       51       48       52
     107      6       51       48      126
     108      6       52       48      126
     109      6       53       54       57
     110      6       53       54       58
     111      5       53      127      125
     112      6       53      127      132
     113      6       53      127      133
     114      6       54       53       55
     115      6       54       53       56
     116      4       54       53      127
     117     11       55       53       56
     118      6       55       53      127
     119      6       56       53      127
     120     11       57       54       58
     121      6       59       60       63
     122      6       59       60       64
     123      4       59       60       65
     124      5       59      128      125
     125      6       59      128      134
     126      6       59      128      135
     127      6       60       59       61
     128      6       60       59       62
     129      4       60       59      128
     130      4       60       65       66
     131      6       60       65       67
     132      6       60       65       68
     133     11       61       59       62
     134      6       61       59      128
     135      6       62       59      128
     136     11       63       60       64
     137      6       63       60       65
     138      6       64       60       65
     139      6       65       66       69
     140      6       65       66       70
     141      4       65       66       71
     142      6       66       65       67
     143      6       66       65       68
     144      4       66       71       72
     145      6       66       71       73
     146      6       66       71       74
     147     11       67       65       68
     148     11       69       66       70
     149      6       69       66       71
     150      6       70       66       71
     151      6       71       72       75
     152      6       71       72       76
     153      4       71       72      137
     154      6       72       71       73
     155      6       72       71       74
     156      5       72      137      136
     157      6       72      137      141
     158      6       72      137      142
     159     11       73       71       74
     160     11       75       72       76
     161      6       75       72      137
     162      6       76       72      137
     163      6       77       78       81
     164      6       77       78       82
     165      4       77       78       83
     166      5       77      138      136
     167      6       77      138      143
     168      6       77      138      144
     169      6       78       77       79
     170      6       78       77       80
     171      4       78       77      138
     172      4       78       83       84
     173      6       78       83       85
     174      6       78       83       86
     175     11       79       77       80
     176      6       79       77      138
     177      6       80       77      138
     178     11       81       78       82
     179      6       81       78       83
     180      6       82       78       83
     181      6       83       84       87
     182      6       83       84       88
     183      4       83       84       89
     184      6       84       83       85
     185      6       84       83       86
     186      4       84       89       90
     187      6       84       89       91
     188      6       84       89       92
     189     11       85       83       86
     190     11       87       84       88
     191      6       87       84       89
     192      6       88       84       89
     193      6       89       90       93
     194      6       89       90       94
     195      4       89       90       95
     196      6       90       89       91
     197      6       90       89       92
     198      4       90       95       96
     199      6       90       95       97
     200      6       90       95       98
     201     11       91       89       92
     202     11       93       90       94
     203      6       93       90       95
     204      6       94       90       95
     205      6       95       96       99
     206      6       95       96      100
     207      6       96       95       97
     208      6       96       95       98
     209     11       97       95       98
     210     11       99       96      100
     211      6      101      102      105
     212      6      101      102      106
     213      4      101      102      107
     214      5      101      139      136
     215      6      101      139      145
     216      6      101      139      146
     217      6      102      101      103
     218      6      102      101      104
     219      4      102      101      139
     220      4      102      107      108
     221      6      102      107      109
     222      6      102      107      110
     223     11      103      101      104
     224      6      103      101      139
     225      6      104      101      139
     226     11      105      102      106
     227      6      105      102      107
     228      6      106      102      107
     229      6      107      108      111
     230      6      107      108      112
     231      4      107      108      113
     232      6      108      107      109
     233      6      108      107      110
     234      4      108      113      114
     235      6      108      113      115
     236      6      108      113      116
     237     11      109      107      110
     238     11      111      108      112
     239      6      111      108      113
     240      6      112      108      113
     241      6      113      114      117
     242      6      113      114      118
     243      4      113      114      119
     244      6      114      113      115
     245      6      114      113      116
     246      4      114      119      120
     247      6      114      119      121
     248      6      114      119      122
     249     11      115      113      116
     250     11      117      114      118
     251      6      117      114      119
     252      6      118      114      119
     253      6      119      120      123
     254      6      119      120      124
     255      6      120      119      121
     256      6      120      119      122
     257     11      121      119      122
     258     11      123      120      124
     259      9      125      126      130
     260      9      125      126      131
     261      9      125      127      132
     262      9      125      127      133
     263      9      125      128      134
     264      9      125      128      135
     265      7      126      125      127
     266      7      126      125      128
     267      8      126      125      129
     268      7      127      125      128
     269      8      127      125      129
     270      8      128      125      129
     271     11      130      126      131
     272     11      132      127      133
     273     11      134      128      135
     274      9      136      137      141
     275      9      136      137      142
     276      9      136      138      143
     277      9      136      138      144
     278      9      136      139      145
     279      9      136      139      146
     280      7      137      136      138
     281      7      137      136      139
     282      8      137      136      140
     283      7      138      136      139
     284      8      138      136      140
     285      8      139      136      140
     286     11      141      137      142
     287     11      143      138      144
     288     11      145      139      146

Dihedrals

       1      1        1        2       29       30
       2      2        1        2       29       31
       3      2        1        2       29       32
       4      6        2       29       30       33
       5      6        2       29       30       34
       6      4        2       29       30       35
       7     11        3        1        2        6
       8     11        3        1        2        7
       9      3        3        1        2       29
      10     11        4        1        2        6
      11     11        4        1        2        7
      12      3        4        1        2       29
      13     11        5        1        2        6
      14     11        5        1        2        7
      15      3        5        1        2       29
      16      6        6        2       29       30
      17     12        6        2       29       31
      18     12        6        2       29       32
      19      6        7        2       29       30
      20     12        7        2       29       31
      21     12        7        2       29       32
      22      1        8        9       54       53
      23      2        8        9       54       57
      24      2        8        9       54       58
      25      6        9       54       53       55
      26      6        9       54       53       56
      27      4        9       54       53      127
      28     11       10        8        9       13
      29     11       10        8        9       14
      30      3       10        8        9       54
      31     11       11        8        9       13
      32     11       11        8        9       14
      33      3       11        8        9       54
      34     11       12        8        9       13
      35     11       12        8        9       14
      36      3       12        8        9       54
      37      6       13        9       54       53
      38     12       13        9       54       57
      39     12       13        9       54       58
      40      6       14        9       54       53
      41     12       14        9       54       57
      42     12       14        9       54       58
      43      1       15       16       96       95
      44      2       15       16       96       99
      45      2       15       16       96      100
      46      4       16       96       95       90
      47      6       16       96       95       97
      48      6       16       96       95       98
      49     11       17       15       16       20
      50     11       17       15       16       21
      51      3       17       15       16       96
      52     11       18       15       16       20
      53     11       18       15       16       21
      54      3       18       15       16       96
      55     11       19       15       16       20
      56     11       19       15       16       21
      57      3       19       15       16       96
      58      6       20       16       96       95
      59     12       20       16       96       99
      60     12       20       16       96      100
      61      6       21       16       96       95
      62     12       21       16       96       99
      63     12       21       16       96      100
      64      1       22       23      120      119
      65      2       22       23      120      123
      66      2       22       23      120      124
      67      4       23      120      119      114
      68      6       23      120      119      121
      69      6       23      120      119      122
      70     11       24       22       23       27
      71     11       24       22       23       28
      72      3       24       22       23      120
      73     11       25       22       23       27
      74     11       25       22       23       28
      75      3       25       22       23      120
      76     11       26       22       23       27
      77     11       26       22       23       28
      78      3       26       22       23      120
      79      6       27       23      120      119
      80     12       27       23      120      123
      81     12       27       23      120      124
      82      6       28       23      120      119
      83     12       28       23      120      123
      84     12       28       23      120      124
      85      4       29       30       35       36
      86      6       29       30       35       37
      87      6       29       30       35       38
      88      6       30       35       36       39
      89      6       30       35       36       40
      90      4       30       35       36       41
      91     12       31       29       30       33
      92     12       31       29       30       34
      93      6       31       29       30       35
      94     12       32       29       30       33
      95     12       32       29       30       34
      96      6       32       29       30       35
      97      6       33       30       35       36
      98     12       33       30       35       37
      99     12       33       30       35       38
     100      6       34       30       35       36
     101     12       34       30       35       37
     102     12       34       30       35       38
     103      4       35       36       41       42
     104      6       35       36       41       43
     105      6       35       36       41       44
     106      6       36       41       42       45
     107      6       36       41       42       46
     108      4       36       41       42       47
     109     12       37       35       36       39
     110     12       37       35       36       40
     111      6       37       35       36       41
     112     12       38       35       36       39
     113     12       38       35       36       40
     114      6       38       35       36       41
     115      6       39       36       41       42
     116     12       39       36       41       43
     117     12       39       36       41       44
     118      6       40       36       41       42
     119     12       40       36       41       43
     120     12       40       36       41       44
     121      4       41       42       47       48
     122      6       41       42       47       49
     123      6       41       42       47       50
     124      6       42       47       48       51
     125      6       42       47       48       52
     126      4       42       47       48      126
     127     12       43       41       42       45
     128     12       43       41       42       46
     129      6       43       41       42       47
     130     12       44       41       42       45
     131     12       44       41       42       46
     132      6       44       41       42       47
     133      6       45       42       47       48
     134     12       45       42       47       49
     135     12       45       42       47       50
     136      6       46       42       47       48
     137     12       46       42       47       49
     138     12       46       42       47       50
     139      5       47       48      126      125
     140      6       47       48      126      130
     141      6       47       48      126      131
     142      7       48      126      125      127
     143      7       48      126      125      128
     144      8       48      126      125      129
     145     12       49       47       48       51
     146     12       49       47       48       52
     147      6       49       47       48      126
     148     12       50       47       48       51
     149     12       50       47       48       52
     150      6       50       47       48      126
     151     10       51       48      126      125
     152     12       51       48      126      130
     153     12       51       48      126      131
     154     10       52       48      126      125
     155     12       52       48      126      130
     156     12       52       48      126      131
     157      7       53      127      125      126
     158      7       53      127      125      128
     159      8       53      127      125      129
     160      5       54       53      127      125
     161      6       54       53      127      132
     162      6       54       53      127      133
     163     12       55       53       54       57
     164     12       55       53       54       58
     165     10       55       53      127      125
     166     12       55       53      127      132
     167     12       55       53      127      133
     168     12       56       53       54       57
     169     12       56       53       54       58
     170     10       56       53      127      125
     171     12       56       53      127      132
     172     12       56       53      127      133
     173      6       57       54       53      127
     174      6       58       54       53      127
     175      4       59       60       65       66
     176      6       59       60       65       67
     177      6       59       60       65       68
     178      7       59      128      125      126
     179      7       59      128      125      127
     180      8       59      128      125      129
     181      5       60       59      128      125
     182      6       60       59      128      134
     183      6       60       59      128      135
     184      6       60       65       66       69
     185      6       60       65       66       70
     186      4       60       65       66       71
     187     12       61       59       60       63
     188     12       61       59       60       64
     189      6       61       59       60       65
     190     10       61       59      128      125
     191     12       61       59      128      134
     192     12       61       59      128      135
     193     12       62       59       60       63
     194     12       62       59       60       64
     195      6       62       59       60       65
     196     10       62       59      128      125
     197     12       62       59      128      134
     198     12       62       59      128      135
     199      6       63       60       59      128
     200      6       63       60       65       66
     201     12       63       60       65       67
     202     12       63       60       65       68
     203      6       64       60       59      128
     204      6       64       60       65       66
     205     12       64       60       65       67
     206     12       64       60       65       68
     207      4       65       60       59      128
     208      4       65       66       71       72
     209      6       65       66       71       73
     210      6       65       66       71       74
     211      6       66       71       72       75
     212      6       66       71       72       76
     213      4       66       71       72      137
     214     12       67       65       66       69
     215     12       67       65       66       70
     216      6       67       65       66       71
     217     12       68       65       66       69
     218     12       68       65       66       70
     219      6       68       65       66       71
     220      6       69       66       71       72
     221     12       69       66       71       73
     222     12       69       66       71       74
     223      6       70       66       71       72
     224     12       70       66       71       73
     225     12       70       66       71       74
     226      5       71       72      137      136
     227      6       71       72      137      141
     228      6       71       72      137      142
     229      7       72      137      136      138
     230      7       72      137      136      139
     231      8       72      137      136      140
     232     12       73       71       72       75
     233     12       73       71       72       76
     234      6       73       71       72      137
     235     12       74       71       72       75
     236     12       74       71       72       76
     237      6       74       71       72      137
     238     10       75       72      137      136
     239     12       75       72      137      141
     240     12       75       72      137      142
     241     10       76       72      137      136
     242     12       76       72      137      141
     243     12       76       72      137      142
     244      4       77       78       83       84
     245      6       77       78       83       85
     246      6       77       78       83       86
     247      7       77      138      136      137
     248      7       77      138      136      139
     249      8       77      138      136      140
     250      5       78       77      138      136
     251      6       78       77      138      143
     252      6       78       77      138      144
     253      6       78       83       84       87
     254      6       78       83       84       88
     255      4       78       83       84       89
     256     12       79       77       78       81
     257     12       79       77       78       82
     258      6       79       77       78       83
     259     10       79       77      138      136
     260     12       79       77      138      143
     261     12       79       77      138      144
     262     12       80       77       78       81
     263     12       80       77       78       82
     264      6       80       77       78       83
     265     10       80       77      138      136
     266     12       80       77      138      143
     267     12       80       77      138      144
     268      6       81       78       77      138
     269      6       81       78       83       84
     270     12       81       78       83       85
     271     12       81       78       83       86
     272      6       82       78       77      138
     273      6       82       78       83       84
     274     12       82       78       83       85
     275     12       82       78       83       86
     276      4       83       78       77      138
     277      4       83       84       89       90
     278      6       83       84       89       91
     279      6       83       84       89       92
     280      6       84       89       90       93
     281      6       84       89       90       94
     282      4       84       89       90       95
     283     12       85       83       84       87
     284     12       85       83       84       88
     285      6       85       83       84       89
     286     12       86       83       84       87
     287     12       86       83       84       88
     288      6       86       83       84       89
     289      6       87       84       89       90
     290     12       87       84       89       91
     291     12       87       84       89       92
     292      6       88       84       89       90
     293     12       88       84       89       91
     294     12       88       84       89       92
     295      4       89       90       95       96
     296      6       89       90       95       97
     297      6       89       90       95       98
     298      6       90       95       96       99
     299      6       90       95       96      100
     300     12       91       89       90       93
     301     12       91       89       90       94
     302      6       91       89       90       95
     303     12       92       89       90       93
     304     12       92       89       90       94
     305      6       92       89       90       95
     306      6       93       90       95       96
     307     12       93       90       95       97
     308     12       93       90       95       98
     309      6       94       90       95       96
     310     12       94       90       95       97
     311     12       94       90       95       98
     312     12       97       95       96       99
     313     12       97       95       96      100
     314     12       98       95       96       99
     315     12       98       95       96      100
     316      4      101      102      107      108
     317      6      101      102      107      109
     318      6      101      102      107      110
     319      7      101      139      136      137
     320      7      101      139      136      138
     321      8      101      139      136      140
     322      5      102      101      139      136
     323      6      102      101      139      145
     324      6      102      101      139      146
     325      6      102      107      108      111
     326      6      102      107      108      112
     327      4      102      107      108      113
     328     12      103      101      102      105
     329     12      103      101      102      106
     330      6      103      101      102      107
     331     10      103      101      139      136
     332     12      103      101      139      145
     333     12      103      101      139      146
     334     12      104      101      102      105
     335     12      104      101      102      106
     336      6      104      101      102      107
     337     10      104      101      139      136
     338     12      104      101      139      145
     339     12      104      101      139      146
     340      6      105      102      101      139
     341      6      105      102      107      108
     342     12      105      102      107      109
     343     12      105      102      107      110
     344      6      106      102      101      139
     345      6      106      102      107      108
     346     12      106      102      107      109
     347     12      106      102      107      110
     348      4      107      102      101      139
     349      4      107      108      113      114
     350      6      107      108      113      115
     351      6      107      108      113      116
     352      6      108      113      114      117
     353      6      108      113      114      118
     354      4      108      113      114      119
     355     12      109      107      108      111
     356     12      109      107      108      112
     357      6      109      107      108      113
     358     12      110      107      108      111
     359     12      110      107      108      112
     360      6      110      107      108      113
     361      6      111      108      113      114
     362     12      111      108      113      115
     363     12      111      108      113      116
     364      6      112      108      113      114
     365     12      112      108      113      115
     366     12      112      108      113      116
     367      4      113      114      119      120
     368      6      113      114      119      121
     369      6      113      114      119      122
     370      6      114      119      120      123
     371      6      114      119      120      124
     372     12      115      113      114      117
     373     12      115      113      114      118
     374      6      115      113      114      119
     375     12      116      113      114      117
     376     12      116      113      114      118
     377      6      116      113      114      119
     378      6      117      114      119      120
     379     12      117      114      119      121
     380     12      117      114      119      122
     381      6      118      114      119      120
     382     12      118      114      119      121
     383     12      118      114      119      122
     384     12      121      119      120      123
     385     12      121      119      120      124
     386     12      122      119      120      123
     387     12      122      119      120      124
     388      9      126      125      127      132
     389      9      126      125      127      133
     390      9      126      125      128      134
     391      9      126      125      128      135
     392      9      127      125      126      130
     393      9      127      125      126      131
     394      9      127      125      128      134
     395      9      127      125      128      135
     396      9      128      125      126      130
     397      9      128      125      126      131
     398      9      128      125      127      132
     399      9      128      125      127      133
     400     13      129      125      126      130
     401     13      129      125      126      131
     402     13      129      125      127      132
     403     13      129      125      127      133
     404     13      129      125      128      134
     405     13      129      125      128      135
     406      9      137      136      138      143
     407      9      137      136      138      144
     408      9      137      136      139      145
     409      9      137      136      139      146
     410      9      138      136      137      141
     411      9      138      136      137      142
     412      9      138      136      139      145
     413      9      138      136      139      146
     414      9      139      136      137      141
     415      9      139      136      137      142
     416      9      139      136      138      143
     417      9      139      136      138      144
     418     13      140      136      137      141
     419     13      140      136      137      142
     420     13      140      136      138      143
     421     13      140      136      138      144
     422     13      140      136      139      145
     423     13      140      136      139      146

Impropers


