LAMMPS data file generated by clean-room 1-hop pipeline

     169 atoms
     173 bonds
     324 angles
     480 dihedrals
      30 impropers

      10 atom types
      17 bond types
      38 angle types
      60 dihedral types
       7 improper types

  -27.373800    30.195500 xlo xhi
  -32.231500    36.190800 ylo yhi
  -30.929400    27.248100 zlo zhi

Masses

       1    12.011000
       2    12.011000
       3    12.011000
       4    12.011000
       5    12.011000
       6    12.011000
       7    12.011000
       8    12.011000
       9     1.008000
      10     1.008000

Pair Coeffs

       1     0.070000     3.550000
       2     0.070000     3.550000
       3     0.070000     3.550000
       4     0.066000     3.500000
       5     0.066000     3.500000
       6     0.066000     3.500000
       7     0.066000     3.500000
       8     0.066000     3.500000
       9     0.030000     2.420000
      10     0.030000     2.500000

Bond Coeffs

       1   469.000000     1.400000
       2   317.000000     1.510000
       3   469.000000     1.400000
       4   469.000000     1.400000
       5   367.000000     1.080000
       6   385.000000     1.460000
       7   268.000000     1.529000
       8   268.000000     1.529000
       9   268.000000     1.529000
      10   340.000000     1.090000
      11   268.000000     1.529000
      12   340.000000     1.090000
      13   268.000000     1.529000
      14   268.000000     1.529000
      15   268.000000     1.529000
      16   340.000000     1.090000
      17   340.000000     1.090000

Angle Coeffs

       1    63.000000   120.000000
       2    63.000000   120.000000
       3    63.000000   120.000000
       4    35.000000   120.000000
       5    63.000000   114.000000
       6    63.000000   114.000000
       7    63.000000   114.000000
       8    35.000000   109.500000
       9    63.000000   120.000000
      10    70.000000   120.000000
      11    63.000000   120.000000
      12    63.000000   120.000000
      13    35.000000   120.000000
      14    63.000000   120.000000
      15    63.000000   120.000000
      16    35.000000   120.000000
      17    37.500000   110.700000
      18    58.350000   112.700000
      19    37.500000   110.700000
      20    58.350000   112.700000
      21    37.500000   110.700000
      22    58.350000   112.700000
      23    37.500000   110.700000
      24    37.500000   110.700000
      25    58.350000   112.700000
      26    58.350000   112.700000
      27    58.350000   112.700000
      28    37.500000   110.700000
      29    58.350000   112.700000
      30    37.500000   110.700000
      31    58.350000   112.700000
      32    37.500000   110.700000
      33    37.500000   110.700000
      34    37.500000   110.700000
      35    37.500000   110.700000
      36    33.000000   107.800000
      37    33.000000   107.800000
      38    33.000000   107.800000

Dihedral Coeffs

       1     0.000000     7.250000     0.000000     0.000000
       2     0.000000     7.250000     0.000000     0.000000
       3     0.000000     7.250000     0.000000     0.000000
       4     0.000000     7.250000     0.000000     0.000000
       5     0.000000     7.250000     0.000000     0.000000
       6     0.000000     7.250000     0.000000     0.000000
       7     0.000000     0.000000     0.462000     0.000000
       8     0.000000     0.000000     0.000000     0.000000
       9     0.000000     0.000000     0.462000     0.000000
      10     0.000000     0.000000     0.000000     0.000000
      11     0.000000     7.250000     0.000000     0.000000
      12     0.000000     7.250000     0.000000     0.000000
      13     0.000000     7.250000     0.000000     0.000000
      14    -0.250000     0.000000     0.000000     0.000000
      15    -0.250000     0.000000     0.000000     0.000000
      16    -0.250000     0.000000     0.000000     0.000000
      17     0.000000     0.000000     0.000000     0.000000
      18     0.000000     7.250000     0.000000     0.000000
      19     0.000000     7.250000     0.000000     0.000000
      20     0.000000     7.250000     0.000000     0.000000
      21     0.000000     7.250000     0.000000     0.000000
      22     0.000000     7.250000     0.000000     0.000000
      23     0.000000     7.250000     0.000000     0.000000
      24     0.000000     7.250000     0.000000     0.000000
      25     0.000000     1.650000     0.000000    -0.050000
      26     0.000000     7.250000     0.000000     0.000000
      27     0.000000     7.250000     0.000000     0.000000
      28     0.000000     7.250000     0.000000     0.000000
      29     0.000000     7.250000     0.000000     0.000000
      30     0.000000     7.250000     0.000000     0.000000
      31     0.850000    -0.200000     0.200000     0.000000
      32     0.000000     0.000000     0.300000     0.000000
      33     0.850000    -0.200000     0.200000     0.000000
      34     0.000000     0.000000     0.300000     0.000000
      35     0.850000    -0.200000     0.200000     0.000000
      36     0.850000    -0.200000     0.200000     0.000000
      37     0.850000    -0.200000     0.200000     0.000000
      38     0.000000     0.000000     0.300000     0.000000
      39     0.000000     0.000000     0.300000     0.000000
      40     0.850000    -0.200000     0.200000     0.000000
      41     0.850000    -0.200000     0.200000     0.000000
      42     0.850000    -0.200000     0.200000     0.000000
      43     0.000000     0.000000     0.300000     0.000000
      44     0.850000    -0.200000     0.200000     0.000000
      45     0.000000     0.000000     0.300000     0.000000
      46     0.850000    -0.200000     0.200000     0.000000
      47     0.000000     0.000000     0.300000     0.000000
      48     0.000000     0.000000     0.300000     0.000000
      49     0.000000     0.000000     0.300000     0.000000
      50     0.000000     0.000000     0.300000     0.000000
      51     0.850000    -0.200000     0.200000     0.000000
      52     0.850000    -0.200000     0.200000     0.000000
      53     0.000000     0.000000     0.300000     0.000000
      54     0.000000     0.000000     0.300000     0.000000
      55     0.000000     7.250000     0.000000     0.000000
      56     0.000000     0.000000     0.300000     0.000000
      57     0.000000     0.000000     0.300000     0.000000
      58     0.000000     0.000000     0.300000     0.000000
      59     0.000000     0.000000     0.300000     0.000000
      60     0.000000     0.000000     0.300000     0.000000

Improper Coeffs

       1     2.500000   -1    2
       2     2.500000   -1    2
       3     2.500000   -1    2
       4     2.500000   -1    2
       5     2.500000   -1    2
       6     2.500000   -1    2
       7     2.500000   -1    2

Atoms

       1    1      5  -0.26340674    -4.192200   -11.367500    -3.770100
       2    1      6  -0.19275537    -5.509200   -10.575300    -3.850100
       3    1     10   0.09845422    -4.224700   -12.231500    -4.513400
       4    1     10   0.09845422    -3.319300   -10.678700    -4.022300
       5    1     10   0.09845422    -4.059600   -11.778800    -2.714900
       6    1     10   0.09845422    -6.378800   -11.264800    -3.590500
       7    1     10   0.09845422    -5.651000   -10.166100    -4.904100
       8    1      5  -0.26340674    -6.235300    -3.984900    -0.106400
       9    1      6  -0.19275537    -5.651800    -2.703800    -0.738100
      10    1     10   0.09845422    -5.914500    -4.922500    -0.663300
      11    1     10   0.09845422    -5.884100    -4.057000     0.976400
      12    1     10   0.09845422    -7.373800    -3.921500    -0.125100
      13    1     10   0.09845422    -6.046100    -1.829800    -0.120400
      14    1     10   0.09845422    -6.011400    -2.587000    -1.814700
      15    1      5  -0.26340674    -3.797100     0.998200    -1.115800
      16    1      6  -0.19275537    -3.957600     1.406500    -2.591700
      17    1     10   0.09845422    -3.271500     1.830900    -0.541500
      18    1     10   0.09845422    -4.825600     0.809900    -0.660500
      19    1     10   0.09845422    -3.183800     0.037800    -1.054300
      20    1     10   0.09845422    -4.465100     0.544400    -3.137800
      21    1     10   0.09845422    -4.624600     2.329100    -2.655200
      22    1      5  -0.26340674     5.389200     1.899100     3.273800
      23    1      6  -0.19275537     3.864300     1.921900     3.055000
      24    1     10   0.09845422     5.936000     2.137800     2.304100
      25    1     10   0.09845422     5.667600     2.672900     4.063600
      26    1     10   0.09845422     5.702800     0.861800     3.630200
      27    1     10   0.09845422     3.370400     1.636500     4.042800
      28    1     10   0.09845422     3.594700     1.146100     2.268400
      29    1      5  -0.26340674     8.063600     6.242200     2.775700
      30    1      6  -0.19275537     8.465900     4.757400     2.866400
      31    1     10   0.09845422     8.582600     6.835100     3.600900
      32    1     10   0.09845422     8.368700     6.657600     1.757500
      33    1     10   0.09845422     6.933100     6.334300     2.897200
      34    1     10   0.09845422     8.155800     4.353600     3.888000
      35    1     10   0.09845422     9.593100     4.645300     2.738200
      36    1      5  -0.26340674     7.387700     6.654900     6.280400
      37    1      4  -0.14435795     6.073800     5.943100     5.912000
      38    1     10   0.09845422     8.143000     6.505400     5.439800
      39    1     10   0.09845422     7.189100     7.769300     6.419000
      40    1     10   0.09845422     7.800300     6.216300     7.248100
      41    1     10   0.09845422     6.273400     4.831400     5.760700
      42    1     10   0.09845422     5.311200     6.085300     6.745700
      43    1      5  -0.26340674     7.401800    15.096900     2.980600
      44    1      4  -0.14435795     6.524500    14.564400     1.832500
      45    1     10   0.09845422     8.361700    14.484200     3.041300
      46    1     10   0.09845422     7.659100    16.190800     2.786700
      47    1     10   0.09845422     6.833000    15.007100     3.964500
      48    1     10   0.09845422     5.563200    15.175100     1.774400
      49    1     10   0.09845422     7.091600    14.648000     0.847000
      50    1      6  -0.19275537    -5.467700    -9.409600    -2.845800
      51    1      6  -0.19275537    -4.328600    -8.427000    -3.183400
      52    1     10   0.09845422    -6.460000    -8.849700    -2.893700
      53    1     10   0.09845422    -5.318900    -9.821000    -1.792500
      54    1     10   0.09845422    -4.492700    -8.016700    -4.235100
      55    1     10   0.09845422    -3.312900    -8.940400    -3.123300
      56    1      6  -0.19275537    -4.424900    -7.273800    -2.168100
      57    1      6  -0.19275537    -3.475300    -6.093800    -2.457200
      58    1     10   0.09845422    -5.488500    -6.867300    -2.226400
      59    1     10   0.09845422    -4.240100    -7.669800    -1.114500
      60    1     10   0.09845422    -3.674500    -5.713500    -3.513100
      61    1     10   0.09845422    -2.375900    -6.373800    -2.340800
      62    1      6  -0.19275537    -1.672400     0.505000    -3.193700
      63    1      6  -0.19275537    -2.618100     1.715300    -3.296700
      64    1     10   0.09845422    -0.801000     0.610300    -3.920000
      65    1     10   0.09845422    -2.276600    -0.422300    -3.462800
      66    1     10   0.09845422    -2.110200     2.634400    -2.850000
      67    1     10   0.09845422    -2.855400     1.911300    -4.395800
      68    1      6  -0.19275537     6.230900     4.232500     1.988200
      69    1      6  -0.19275537     7.728700     3.970000     1.766000
      70    1     10   0.09845422     5.953000     3.886000     3.038900
      71    1     10   0.09845422     6.072700     5.356900     1.906900
      72    1     10   0.09845422     8.038200     4.351300     0.736600
      73    1     10   0.09845422     7.957400     2.857600     1.853400
      74    1      7  -0.12650199    -3.399200    -3.593100    -1.683000
      75    1      6  -0.19275537    -3.916000    -5.023200    -1.443300
      76    1      6  -0.19275537    -4.109900    -2.639100    -0.698300
      77    1      6  -0.19275537    -1.885700    -3.334800    -1.516500
      78    1     10   0.09845422    -3.699700    -3.293500    -2.741200
      79    1     10   0.09845422    -5.041200    -4.949900    -1.585400
      80    1     10   0.09845422    -3.688900    -5.366000    -0.380400
      81    1     10   0.09845422    -3.812600    -1.577200    -0.984000
      82    1     10   0.09845422    -3.761600    -2.848000     0.366100
      83    1     10   0.09845422    -1.546700    -3.594900    -0.460500
      84    1     10   0.09845422    -1.276800    -3.912900    -2.286600
      85    1      7  -0.12650199    -0.491300    -1.020500    -1.614400
      86    1      6  -0.19275537    -1.808000    -1.811800    -1.740800
      87    1      6  -0.19275537    -1.083900     0.389400    -1.773800
      88    1      6  -0.19275537     0.116900    -1.131100    -0.204500
      89    1     10   0.09845422     0.269100    -1.305000    -2.415100
      90    1     10   0.09845422    -2.236300    -1.605900    -2.776200
      91    1     10   0.09845422    -2.498900    -1.339900    -0.968400
      92    1     10   0.09845422    -0.335100     1.225000    -1.581000
      93    1     10   0.09845422    -1.907600     0.473100    -0.995000
      94    1     10   0.09845422     0.281000    -2.231600     0.040800
      95    1     10   0.09845422    -0.648100    -0.705000     0.524500
      96    1      7  -0.12650199     1.573300     1.090400    -0.362400
      97    1      6  -0.19275537     1.469300    -0.407500     0.007900
      98    1      4  -0.14435795     1.657600     1.339600    -1.885500
      99    1      6  -0.19275537     2.811200     1.646800     0.371800
     100    1     10   0.09845422     0.674100     1.643600     0.068200
     101    1     10   0.09845422     1.682800    -0.494900     1.123800
     102    1     10   0.09845422     2.294200    -0.959400    -0.550400
     103    1     10   0.09845422     0.672500     1.054600    -2.376700
     104    1     10   0.09845422     1.856200     2.444700    -2.082000
     105    1     10   0.09845422     2.626000     1.407700     1.466800
     106    1     10   0.09845422     3.779100     1.155200     0.022800
     107    1      1  -0.09188087     2.717300     0.476900    -2.592100
     108    1      2  -0.15186851     2.612800    -1.055800    -2.520000
     109    1      2  -0.15186851     3.569700    -1.932000    -3.344100
     110    1      3  -0.04360587     4.614200    -1.274900    -4.263700
     111    1      2  -0.15186851     4.754100     0.258700    -4.300900
     112    1      2  -0.15186851     3.814400     1.136000    -3.450500
     113    1      9   0.16350667     1.813700    -1.541600    -1.867100
     114    1      9   0.16350667     3.486900    -3.067800    -3.296700
     115    1      9   0.16350667     5.540800     0.744100    -4.968500
     116    1      9   0.16350667     3.910400     2.271300    -3.480500
     117    1      3  -0.04360587     5.482300    -2.161000    -5.174200
     118    1      2  -0.15186851     5.354300    -3.691800    -5.083700
     119    1      2  -0.15186851     6.170800    -4.590000    -6.029000
     120    1      3  -0.04360587     7.104900    -3.956300    -7.075600
     121    1      2  -0.15186851     7.253100    -2.425200    -7.151500
     122    1      2  -0.15186851     6.447100    -1.526000    -6.193900
     123    1      9   0.16350667     4.648400    -4.160000    -4.319900
     124    1      9   0.16350667     6.075300    -5.723900    -5.963400
     125    1      9   0.16350667     7.956800    -1.957900    -7.917700
     126    1      9   0.16350667     6.554500    -0.392600    -6.248200
     127    1      3  -0.04360587     5.581700    10.121700     2.673100
     128    1      2  -0.15186851     5.223800    10.734400     1.306600
     129    1      2  -0.15186851     5.535700    12.217400     1.024800
     130    1      1  -0.09188087     6.186400    13.089500     2.116300
     131    1      2  -0.15186851     6.540700    12.475700     3.482100
     132    1      2  -0.15186851     6.239600    10.992400     3.759500
     133    1      9   0.16350667     4.735900    10.090300     0.502800
     134    1      9   0.16350667     5.283800    12.670000     0.009300
     135    1      9   0.16350667     7.029400    13.119100     4.286400
     136    1      9   0.16350667     6.505300    10.536100     4.770000
     137    1      3  -0.04360587     7.879800    -4.858300    -8.052000
     138    1      2  -0.15186851     8.777900    -4.233400    -9.135200
     139    1      2  -0.15186851     9.536100    -5.140700   -10.122200
     140    1      2  -0.15186851     9.400400    -6.671700   -10.020600
     141    1      2  -0.15186851     8.506600    -7.295600    -8.932900
     142    1      2  -0.15186851     7.744800    -6.388200    -7.949700
     143    1      9   0.16350667     8.876600    -3.100100    -9.210200
     144    1      9   0.16350667    10.195500    -4.679300   -10.929400
     145    1      9   0.16350667     9.960700    -7.343300   -10.752200
     146    1      9   0.16350667     8.407500    -8.428500    -8.856600
     147    1      9   0.16350667     7.080400    -6.848900    -7.145800
     148    1      8  -0.05302821     3.833300     3.837400     1.279200
     149    1      6  -0.19275537     2.882600     3.182400     0.247600
     150    1      6  -0.19275537     3.366200     3.331600     2.664100
     151    1      6  -0.19275537     5.314300     3.524400     0.973200
     152    1      4  -0.14435795     3.594100     5.365000     1.198000
     153    1     10   0.09845422     3.149300     3.489000    -0.816500
     154    1     10   0.09845422     1.839700     3.572400     0.491600
     155    1     10   0.09845422     3.708900     4.033200     3.484300
     156    1     10   0.09845422     2.226000     3.348200     2.659700
     157    1     10   0.09845422     5.475100     2.397400     1.025800
     158    1     10   0.09845422     5.568400     3.891700    -0.076200
     159    1     10   0.09845422     3.885200     5.715700     0.153200
     160    1     10   0.09845422     2.476800     5.541600     1.337300
     161    1      1  -0.09188087     4.331800     6.252500     2.235900
     162    1      2  -0.15186851     4.876000     5.651700     3.550900
     163    1      1  -0.09188087     5.537100     6.554000     4.605200
     164    1      2  -0.15186851     5.756500     8.044700     4.310300
     165    1      3  -0.04360587     5.302700     8.636200     2.965400
     166    1      2  -0.15186851     4.584800     7.745100     1.928800
     167    1      9   0.16350667     4.827200     4.530200     3.731600
     168    1      9   0.16350667     6.271400     8.708900     5.080600
     169    1      9   0.16350667     4.237600     8.190800     0.938400

Bonds

       1     11        1        2
       2     12        1        3
       3     12        1        4
       4     12        1        5
       5     16        2        6
       6     16        2        7
       7     13        2       50
       8     11        8        9
       9     12        8       10
      10     12        8       11
      11     12        8       12
      12     16        9       13
      13     16        9       14
      14     13        9       76
      15     11       15       16
      16     12       15       17
      17     12       15       18
      18     12       15       19
      19     16       16       20
      20     16       16       21
      21     13       16       63
      22     11       22       23
      23     12       22       24
      24     12       22       25
      25     12       22       26
      26     16       23       27
      27     16       23       28
      28     13       23      150
      29     11       29       30
      30     12       29       31
      31     12       29       32
      32     12       29       33
      33     16       30       34
      34     16       30       35
      35     13       30       69
      36      7       36       37
      37     12       36       38
      38     12       36       39
      39     12       36       40
      40     10       37       41
      41     10       37       42
      42      2       37      163
      43      7       43       44
      44     12       43       45
      45     12       43       46
      46     12       43       47
      47     10       44       48
      48     10       44       49
      49      2       44      130
      50     13       50       51
      51     16       50       52
      52     16       50       53
      53     16       51       54
      54     16       51       55
      55     13       51       56
      56     13       56       57
      57     16       56       58
      58     16       56       59
      59     16       57       60
      60     16       57       61
      61     13       57       75
      62     13       62       63
      63     16       62       64
      64     16       62       65
      65     13       62       87
      66     16       63       66
      67     16       63       67
      68     13       68       69
      69     16       68       70
      70     16       68       71
      71     13       68      151
      72     16       69       72
      73     16       69       73
      74     14       74       75
      75     14       74       76
      76     14       74       77
      77     17       74       78
      78     16       75       79
      79     16       75       80
      80     16       76       81
      81     16       76       82
      82     16       77       83
      83     16       77       84
      84     13       77       86
      85     14       85       86
      86     14       85       87
      87     14       85       88
      88     17       85       89
      89     16       86       90
      90     16       86       91
      91     16       87       92
      92     16       87       93
      93     16       88       94
      94     16       88       95
      95     13       88       97
      96     14       96       97
      97      8       96       98
      98     14       96       99
      99     17       96      100
     100     16       97      101
     101     16       97      102
     102     10       98      103
     103     10       98      104
     104      2       98      107
     105     16       99      105
     106     16       99      106
     107     13       99      149
     108      1      107      108
     109      3      108      109
     110      5      108      113
     111      4      109      110
     112      5      109      114
     113      4      110      111
     114      6      110      117
     115      3      111      112
     116      5      111      115
     117      1      112      107
     118      5      112      116
     119      4      117      118
     120      3      118      119
     121      5      118      123
     122      4      119      120
     123      5      119      124
     124      4      120      121
     125      6      120      137
     126      3      121      122
     127      5      121      125
     128      4      122      117
     129      5      122      126
     130      4      127      128
     131      6      127      165
     132      3      128      129
     133      5      128      133
     134      1      129      130
     135      5      129      134
     136      1      130      131
     137      3      131      132
     138      5      131      135
     139      4      132      127
     140      5      132      136
     141      4      137      138
     142      3      138      139
     143      5      138      143
     144      3      139      140
     145      5      139      144
     146      3      140      141
     147      5      140      145
     148      3      141      142
     149      5      141      146
     150      4      142      137
     151      5      142      147
     152     15      148      149
     153     15      148      150
     154     15      148      151
     155      9      148      152
     156     16      149      153
     157     16      149      154
     158     16      150      155
     159     16      150      156
     160     16      151      157
     161     16      151      158
     162     10      152      159
     163     10      152      160
     164      2      152      161
     165      1      161      162
     166      1      162      163
     167      5      162      167
     168      1      163      164
     169      4      164      165
     170      5      164      168
     171      4      165      166
     172      1      166      161
     173      5      166      169

Angles

       1     23        1        2        6
       2     23        1        2        7
       3     22        1        2       50
       4     24        2        1        3
       5     24        2        1        4
       6     24        2        1        5
       7     25        2       50       51
       8     28        2       50       52
       9     28        2       50       53
      10     37        3        1        4
      11     37        3        1        5
      12     37        4        1        5
      13     38        6        2        7
      14     28        6        2       50
      15     28        7        2       50
      16     23        8        9       13
      17     23        8        9       14
      18     22        8        9       76
      19     24        9        8       10
      20     24        9        8       11
      21     24        9        8       12
      22     26        9       76       74
      23     28        9       76       81
      24     28        9       76       82
      25     37       10        8       11
      26     37       10        8       12
      27     37       11        8       12
      28     38       13        9       14
      29     28       13        9       76
      30     28       14        9       76
      31     23       15       16       20
      32     23       15       16       21
      33     22       15       16       63
      34     24       16       15       17
      35     24       16       15       18
      36     24       16       15       19
      37     25       16       63       62
      38     28       16       63       66
      39     28       16       63       67
      40     37       17       15       18
      41     37       17       15       19
      42     37       18       15       19
      43     38       20       16       21
      44     28       20       16       63
      45     28       21       16       63
      46     23       22       23       27
      47     23       22       23       28
      48     22       22       23      150
      49     24       23       22       24
      50     24       23       22       25
      51     24       23       22       26
      52     27       23      150      148
      53     28       23      150      155
      54     28       23      150      156
      55     37       24       22       25
      56     37       24       22       26
      57     37       25       22       26
      58     38       27       23       28
      59     28       27       23      150
      60     28       28       23      150
      61     23       29       30       34
      62     23       29       30       35
      63     22       29       30       69
      64     24       30       29       31
      65     24       30       29       32
      66     24       30       29       33
      67     25       30       69       68
      68     28       30       69       72
      69     28       30       69       73
      70     37       31       29       32
      71     37       31       29       33
      72     37       32       29       33
      73     38       34       30       35
      74     28       34       30       69
      75     28       35       30       69
      76     21       36       37       41
      77     21       36       37       42
      78      5       36       37      163
      79     17       37       36       38
      80     17       37       36       39
      81     17       37       36       40
      82     10       37      163      162
      83     10       37      163      164
      84     37       38       36       39
      85     37       38       36       40
      86     37       39       36       40
      87     36       41       37       42
      88      8       41       37      163
      89      8       42       37      163
      90     21       43       44       48
      91     21       43       44       49
      92      5       43       44      130
      93     17       44       43       45
      94     17       44       43       46
      95     17       44       43       47
      96     10       44      130      129
      97     10       44      130      131
      98     37       45       43       46
      99     37       45       43       47
     100     37       46       43       47
     101     36       48       44       49
     102      8       48       44      130
     103      8       49       44      130
     104     28       50       51       54
     105     28       50       51       55
     106     25       50       51       56
     107     28       51       50       52
     108     28       51       50       53
     109     25       51       56       57
     110     28       51       56       58
     111     28       51       56       59
     112     38       52       50       53
     113     38       54       51       55
     114     28       54       51       56
     115     28       55       51       56
     116     28       56       57       60
     117     28       56       57       61
     118     25       56       57       75
     119     28       57       56       58
     120     28       57       56       59
     121     26       57       75       74
     122     28       57       75       79
     123     28       57       75       80
     124     38       58       56       59
     125     38       60       57       61
     126     28       60       57       75
     127     28       61       57       75
     128     28       62       63       66
     129     28       62       63       67
     130     26       62       87       85
     131     28       62       87       92
     132     28       62       87       93
     133     28       63       62       64
     134     28       63       62       65
     135     25       63       62       87
     136     38       64       62       65
     137     28       64       62       87
     138     28       65       62       87
     139     38       66       63       67
     140     28       68       69       72
     141     28       68       69       73
     142     27       68      151      148
     143     28       68      151      157
     144     28       68      151      158
     145     28       69       68       70
     146     28       69       68       71
     147     25       69       68      151
     148     38       70       68       71
     149     28       70       68      151
     150     28       71       68      151
     151     38       72       69       73
     152     33       74       75       79
     153     33       74       75       80
     154     33       74       76       81
     155     33       74       76       82
     156     33       74       77       83
     157     33       74       77       84
     158     26       74       77       86
     159     29       75       74       76
     160     29       75       74       77
     161     30       75       74       78
     162     29       76       74       77
     163     30       76       74       78
     164     30       77       74       78
     165     26       77       86       85
     166     28       77       86       90
     167     28       77       86       91
     168     38       79       75       80
     169     38       81       76       82
     170     38       83       77       84
     171     28       83       77       86
     172     28       84       77       86
     173     33       85       86       90
     174     33       85       86       91
     175     33       85       87       92
     176     33       85       87       93
     177     33       85       88       94
     178     33       85       88       95
     179     26       85       88       97
     180     29       86       85       87
     181     29       86       85       88
     182     30       86       85       89
     183     29       87       85       88
     184     30       87       85       89
     185     30       88       85       89
     186     26       88       97       96
     187     28       88       97      101
     188     28       88       97      102
     189     38       90       86       91
     190     38       92       87       93
     191     38       94       88       95
     192     28       94       88       97
     193     28       95       88       97
     194     33       96       97      101
     195     33       96       97      102
     196     32       96       98      103
     197     32       96       98      104
     198      6       96       98      107
     199     33       96       99      105
     200     33       96       99      106
     201     26       96       99      149
     202     18       97       96       98
     203     29       97       96       99
     204     30       97       96      100
     205     18       98       96       99
     206     19       98       96      100
     207     10       98      107      108
     208     10       98      107      112
     209     30       99       96      100
     210     27       99      149      148
     211     28       99      149      153
     212     28       99      149      154
     213     38      101       97      102
     214     36      103       98      104
     215      8      103       98      107
     216      8      104       98      107
     217     38      105       99      106
     218     28      105       99      149
     219     28      106       99      149
     220      2      107      108      109
     221      4      107      108      113
     222      2      107      112      111
     223      4      107      112      116
     224      9      108      107      112
     225     12      108      109      110
     226     13      108      109      114
     227     13      109      108      113
     228     14      109      110      111
     229     15      109      110      117
     230     16      110      109      114
     231     12      110      111      112
     232     16      110      111      115
     233     15      110      117      118
     234     15      110      117      122
     235     15      111      110      117
     236     13      111      112      116
     237     13      112      111      115
     238     12      117      118      119
     239     16      117      118      123
     240     12      117      122      121
     241     16      117      122      126
     242     14      118      117      122
     243     12      118      119      120
     244     13      118      119      124
     245     13      119      118      123
     246     14      119      120      121
     247     15      119      120      137
     248     16      120      119      124
     249     12      120      121      122
     250     16      120      121      125
     251     15      120      137      138
     252     15      120      137      142
     253     15      121      120      137
     254     13      121      122      126
     255     13      122      121      125
     256     12      127      128      129
     257     16      127      128      133
     258     12      127      132      131
     259     16      127      132      136
     260     15      127      165      164
     261     15      127      165      166
     262     14      128      127      132
     263     15      128      127      165
     264      2      128      129      130
     265     13      128      129      134
     266     13      129      128      133
     267      9      129      130      131
     268      4      130      129      134
     269      2      130      131      132
     270      4      130      131      135
     271     13      131      132      136
     272     15      132      127      165
     273     13      132      131      135
     274     12      137      138      139
     275     16      137      138      143
     276     12      137      142      141
     277     16      137      142      147
     278     14      138      137      142
     279     11      138      139      140
     280     13      138      139      144
     281     13      139      138      143
     282     11      139      140      141
     283     13      139      140      145
     284     13      140      139      144
     285     11      140      141      142
     286     13      140      141      146
     287     13      141      140      145
     288     13      141      142      147
     289     13      142      141      146
     290     35      148      149      153
     291     35      148      149      154
     292     35      148      150      155
     293     35      148      150      156
     294     35      148      151      157
     295     35      148      151      158
     296     34      148      152      159
     297     34      148      152      160
     298      7      148      152      161
     299     31      149      148      150
     300     31      149      148      151
     301     20      149      148      152
     302     31      150      148      151
     303     20      150      148      152
     304     20      151      148      152
     305     10      152      161      162
     306     10      152      161      166
     307     38      153      149      154
     308     38      155      150      156
     309     38      157      151      158
     310     36      159      152      160
     311      8      159      152      161
     312      8      160      152      161
     313      1      161      162      163
     314      4      161      162      167
     315      3      161      166      165
     316      4      161      166      169
     317      9      162      161      166
     318      9      162      163      164
     319      4      163      162      167
     320      3      163      164      165
     321      4      163      164      168
     322     14      164      165      166
     323     16      165      164      168
     324     16      165      166      169

Dihedrals

       1     35        1        2       50       51
       2     38        1        2       50       52
       3     38        1        2       50       53
       4     43        2       50       51       54
       5     43        2       50       51       55
       6     40        2       50       51       56
       7     58        3        1        2        6
       8     58        3        1        2        7
       9     39        3        1        2       50
      10     58        4        1        2        6
      11     58        4        1        2        7
      12     39        4        1        2       50
      13     58        5        1        2        6
      14     58        5        1        2        7
      15     39        5        1        2       50
      16     43        6        2       50       51
      17     59        6        2       50       52
      18     59        6        2       50       53
      19     43        7        2       50       51
      20     59        7        2       50       52
      21     59        7        2       50       53
      22     36        8        9       76       74
      23     38        8        9       76       81
      24     38        8        9       76       82
      25     44        9       76       74       75
      26     44        9       76       74       77
      27     45        9       76       74       78
      28     58       10        8        9       13
      29     58       10        8        9       14
      30     39       10        8        9       76
      31     58       11        8        9       13
      32     58       11        8        9       14
      33     39       11        8        9       76
      34     58       12        8        9       13
      35     58       12        8        9       14
      36     39       12        8        9       76
      37     53       13        9       76       74
      38     59       13        9       76       81
      39     59       13        9       76       82
      40     53       14        9       76       74
      41     59       14        9       76       81
      42     59       14        9       76       82
      43     35       15       16       63       62
      44     38       15       16       63       66
      45     38       15       16       63       67
      46     43       16       63       62       64
      47     43       16       63       62       65
      48     40       16       63       62       87
      49     58       17       15       16       20
      50     58       17       15       16       21
      51     39       17       15       16       63
      52     58       18       15       16       20
      53     58       18       15       16       21
      54     39       18       15       16       63
      55     58       19       15       16       20
      56     58       19       15       16       21
      57     39       19       15       16       63
      58     43       20       16       63       62
      59     59       20       16       63       66
      60     59       20       16       63       67
      61     43       21       16       63       62
      62     59       21       16       63       66
      63     59       21       16       63       67
      64     37       22       23      150      148
      65     38       22       23      150      155
      66     38       22       23      150      156
      67     46       23      150      148      149
      68     46       23      150      148      151
      69     33       23      150      148      152
      70     58       24       22       23       27
      71     58       24       22       23       28
      72     39       24       22       23      150
      73     58       25       22       23       27
      74     58       25       22       23       28
      75     39       25       22       23      150
      76     58       26       22       23       27
      77     58       26       22       23       28
      78     39       26       22       23      150
      79     54       27       23      150      148
      80     59       27       23      150      155
      81     59       27       23      150      156
      82     54       28       23      150      148
      83     59       28       23      150      155
      84     59       28       23      150      156
      85     35       29       30       69       68
      86     38       29       30       69       72
      87     38       29       30       69       73
      88     43       30       69       68       70
      89     43       30       69       68       71
      90     40       30       69       68      151
      91     58       31       29       30       34
      92     58       31       29       30       35
      93     39       31       29       30       69
      94     58       32       29       30       34
      95     58       32       29       30       35
      96     39       32       29       30       69
      97     58       33       29       30       34
      98     58       33       29       30       35
      99     39       33       29       30       69
     100     43       34       30       69       68
     101     59       34       30       69       72
     102     59       34       30       69       73
     103     43       35       30       69       68
     104     59       35       30       69       72
     105     59       35       30       69       73
     106     14       36       37      163      162
     107     14       36       37      163      164
     108      2       37      163      162      161
     109     30       37      163      162      167
     110     26       37      163      164      165
     111     30       37      163      164      168
     112     56       38       36       37       41
     113     56       38       36       37       42
     114      7       38       36       37      163
     115     56       39       36       37       41
     116     56       39       36       37       42
     117      7       39       36       37      163
     118     56       40       36       37       41
     119     56       40       36       37       42
     120      7       40       36       37      163
     121     17       41       37      163      162
     122     17       41       37      163      164
     123     17       42       37      163      162
     124     17       42       37      163      164
     125     14       43       44      130      129
     126     14       43       44      130      131
     127     18       44      130      129      128
     128     30       44      130      129      134
     129     18       44      130      131      132
     130     30       44      130      131      135
     131     56       45       43       44       48
     132     56       45       43       44       49
     133      7       45       43       44      130
     134     56       46       43       44       48
     135     56       46       43       44       49
     136      7       46       43       44      130
     137     56       47       43       44       48
     138     56       47       43       44       49
     139      7       47       43       44      130
     140     17       48       44      130      129
     141     17       48       44      130      131
     142     17       49       44      130      129
     143     17       49       44      130      131
     144     40       50       51       56       57
     145     43       50       51       56       58
     146     43       50       51       56       59
     147     43       51       56       57       60
     148     43       51       56       57       61
     149     40       51       56       57       75
     150     59       52       50       51       54
     151     59       52       50       51       55
     152     43       52       50       51       56
     153     59       53       50       51       54
     154     59       53       50       51       55
     155     43       53       50       51       56
     156     43       54       51       56       57
     157     59       54       51       56       58
     158     59       54       51       56       59
     159     43       55       51       56       57
     160     59       55       51       56       58
     161     59       55       51       56       59
     162     41       56       57       75       74
     163     43       56       57       75       79
     164     43       56       57       75       80
     165     44       57       75       74       76
     166     44       57       75       74       77
     167     45       57       75       74       78
     168     59       58       56       57       60
     169     59       58       56       57       61
     170     43       58       56       57       75
     171     59       59       56       57       60
     172     59       59       56       57       61
     173     43       59       56       57       75
     174     53       60       57       75       74
     175     59       60       57       75       79
     176     59       60       57       75       80
     177     53       61       57       75       74
     178     59       61       57       75       79
     179     59       61       57       75       80
     180     44       62       87       85       86
     181     44       62       87       85       88
     182     45       62       87       85       89
     183     41       63       62       87       85
     184     43       63       62       87       92
     185     43       63       62       87       93
     186     59       64       62       63       66
     187     59       64       62       63       67
     188     53       64       62       87       85
     189     59       64       62       87       92
     190     59       64       62       87       93
     191     59       65       62       63       66
     192     59       65       62       63       67
     193     53       65       62       87       85
     194     59       65       62       87       92
     195     59       65       62       87       93
     196     43       66       63       62       87
     197     43       67       63       62       87
     198     46       68      151      148      149
     199     46       68      151      148      150
     200     33       68      151      148      152
     201     42       69       68      151      148
     202     43       69       68      151      157
     203     43       69       68      151      158
     204     59       70       68       69       72
     205     59       70       68       69       73
     206     54       70       68      151      148
     207     59       70       68      151      157
     208     59       70       68      151      158
     209     59       71       68       69       72
     210     59       71       68       69       73
     211     54       71       68      151      148
     212     59       71       68      151      157
     213     59       71       68      151      158
     214     43       72       69       68      151
     215     43       73       69       68      151
     216     51       74       77       86       85
     217     53       74       77       86       90
     218     53       74       77       86       91
     219     48       75       74       76       81
     220     48       75       74       76       82
     221     48       75       74       77       83
     222     48       75       74       77       84
     223     44       75       74       77       86
     224     48       76       74       75       79
     225     48       76       74       75       80
     226     48       76       74       77       83
     227     48       76       74       77       84
     228     44       76       74       77       86
     229     48       77       74       75       79
     230     48       77       74       75       80
     231     48       77       74       76       81
     232     48       77       74       76       82
     233     44       77       86       85       87
     234     44       77       86       85       88
     235     45       77       86       85       89
     236     60       78       74       75       79
     237     60       78       74       75       80
     238     60       78       74       76       81
     239     60       78       74       76       82
     240     60       78       74       77       83
     241     60       78       74       77       84
     242     45       78       74       77       86
     243     53       83       77       86       85
     244     59       83       77       86       90
     245     59       83       77       86       91
     246     53       84       77       86       85
     247     59       84       77       86       90
     248     59       84       77       86       91
     249     51       85       88       97       96
     250     53       85       88       97      101
     251     53       85       88       97      102
     252     48       86       85       87       92
     253     48       86       85       87       93
     254     48       86       85       88       94
     255     48       86       85       88       95
     256     44       86       85       88       97
     257     48       87       85       86       90
     258     48       87       85       86       91
     259     48       87       85       88       94
     260     48       87       85       88       95
     261     44       87       85       88       97
     262     48       88       85       86       90
     263     48       88       85       86       91
     264     48       88       85       87       92
     265     48       88       85       87       93
     266     31       88       97       96       98
     267     44       88       97       96       99
     268     45       88       97       96      100
     269     60       89       85       86       90
     270     60       89       85       86       91
     271     60       89       85       87       92
     272     60       89       85       87       93
     273     60       89       85       88       94
     274     60       89       85       88       95
     275     45       89       85       88       97
     276     53       94       88       97       96
     277     59       94       88       97      101
     278     59       94       88       97      102
     279     53       95       88       97       96
     280     59       95       88       97      101
     281     59       95       88       97      102
     282     15       96       98      107      108
     283     15       96       98      107      112
     284     52       96       99      149      148
     285     53       96       99      149      153
     286     53       96       99      149      154
     287     47       97       96       98      103
     288     47       97       96       98      104
     289      8       97       96       98      107
     290     48       97       96       99      105
     291     48       97       96       99      106
     292     44       97       96       99      149
     293     32       98       96       97      101
     294     32       98       96       97      102
     295     32       98       96       99      105
     296     32       98       96       99      106
     297     31       98       96       99      149
     298     18       98      107      108      109
     299     30       98      107      108      113
     300     18       98      107      112      111
     301     30       98      107      112      116
     302     48       99       96       97      101
     303     48       99       96       97      102
     304     47       99       96       98      103
     305     47       99       96       98      104
     306      8       99       96       98      107
     307     46       99      149      148      150
     308     46       99      149      148      151
     309     33       99      149      148      152
     310     60      100       96       97      101
     311     60      100       96       97      102
     312     57      100       96       98      103
     313     57      100       96       98      104
     314      9      100       96       98      107
     315     60      100       96       99      105
     316     60      100       96       99      106
     317     45      100       96       99      149
     318     17      103       98      107      108
     319     17      103       98      107      112
     320     17      104       98      107      108
     321     17      104       98      107      112
     322     54      105       99      149      148
     323     59      105       99      149      153
     324     59      105       99      149      154
     325     54      106       99      149      148
     326     59      106       99      149      153
     327     59      106       99      149      154
     328      3      107      108      109      110
     329      4      107      108      109      114
     330      3      107      112      111      110
     331      4      107      112      111      115
     332     11      108      107      112      111
     333     13      108      107      112      116
     334     22      108      109      110      111
     335     23      108      109      110      117
     336     11      109      108      107      112
     337     22      109      110      111      112
     338     24      109      110      111      115
     339     25      109      110      117      118
     340     25      109      110      117      122
     341     28      110      109      108      113
     342     28      110      111      112      116
     343     23      110      117      118      119
     344     29      110      117      118      123
     345     23      110      117      122      121
     346     29      110      117      122      126
     347     24      111      110      109      114
     348     25      111      110      117      118
     349     25      111      110      117      122
     350     13      112      107      108      113
     351     23      112      111      110      117
     352     55      113      108      109      114
     353     29      114      109      110      117
     354     29      115      111      110      117
     355     55      115      111      112      116
     356     27      117      118      119      120
     357     28      117      118      119      124
     358     27      117      122      121      120
     359     28      117      122      121      125
     360     22      118      117      122      121
     361     24      118      117      122      126
     362     22      118      119      120      121
     363     23      118      119      120      137
     364     22      119      118      117      122
     365     22      119      120      121      122
     366     24      119      120      121      125
     367     25      119      120      137      138
     368     25      119      120      137      142
     369     28      120      119      118      123
     370     28      120      121      122      126
     371     23      120      137      138      139
     372     29      120      137      138      143
     373     23      120      137      142      141
     374     29      120      137      142      147
     375     24      121      120      119      124
     376     25      121      120      137      138
     377     25      121      120      137      142
     378     24      122      117      118      123
     379     23      122      121      120      137
     380     55      123      118      119      124
     381     29      124      119      120      137
     382     29      125      121      120      137
     383     55      125      121      122      126
     384      3      127      128      129      130
     385     28      127      128      129      134
     386      3      127      132      131      130
     387     28      127      132      131      135
     388      6      127      165      164      163
     389     29      127      165      164      168
     390      6      127      165      166      161
     391     29      127      165      166      169
     392     22      128      127      132      131
     393     24      128      127      132      136
     394     25      128      127      165      164
     395     25      128      127      165      166
     396     11      128      129      130      131
     397     22      129      128      127      132
     398     23      129      128      127      165
     399     11      129      130      131      132
     400     13      129      130      131      135
     401      4      130      129      128      133
     402      4      130      131      132      136
     403     13      131      130      129      134
     404     23      131      132      127      165
     405     24      132      127      128      133
     406     25      132      127      165      164
     407     25      132      127      165      166
     408     29      133      128      127      165
     409     55      133      128      129      134
     410     55      135      131      132      136
     411     29      136      132      127      165
     412     20      137      138      139      140
     413     28      137      138      139      144
     414     20      137      142      141      140
     415     28      137      142      141      146
     416     22      138      137      142      141
     417     24      138      137      142      147
     418     19      138      139      140      141
     419     21      138      139      140      145
     420     22      139      138      137      142
     421     19      139      140      141      142
     422     21      139      140      141      146
     423     21      140      139      138      143
     424     21      140      141      142      147
     425     21      141      140      139      144
     426     24      142      137      138      143
     427     21      142      141      140      145
     428     55      143      138      139      144
     429     55      144      139      140      145
     430     55      145      140      141      146
     431     55      146      141      142      147
     432     16      148      152      161      162
     433     16      148      152      161      166
     434     50      149      148      150      155
     435     50      149      148      150      156
     436     50      149      148      151      157
     437     50      149      148      151      158
     438     49      149      148      152      159
     439     49      149      148      152      160
     440     10      149      148      152      161
     441     50      150      148      149      153
     442     50      150      148      149      154
     443     50      150      148      151      157
     444     50      150      148      151      158
     445     49      150      148      152      159
     446     49      150      148      152      160
     447     10      150      148      152      161
     448     50      151      148      149      153
     449     50      151      148      149      154
     450     50      151      148      150      155
     451     50      151      148      150      156
     452     49      151      148      152      159
     453     49      151      148      152      160
     454     10      151      148      152      161
     455     34      152      148      149      153
     456     34      152      148      149      154
     457     34      152      148      150      155
     458     34      152      148      150      156
     459     34      152      148      151      157
     460     34      152      148      151      158
     461      2      152      161      162      163
     462     30      152      161      162      167
     463     26      152      161      166      165
     464     30      152      161      166      169
     465     17      159      152      161      162
     466     17      159      152      161      166
     467     17      160      152      161      162
     468     17      160      152      161      166
     469      1      161      162      163      164
     470      5      161      166      165      164
     471     12      162      161      166      165
     472     13      162      161      166      169
     473     12      162      163      164      165
     474     13      162      163      164      168
     475      1      163      162      161      166
     476      5      163      164      165      166
     477     13      164      163      162      167
     478     24      164      165      166      169
     479     13      166      161      162      167
     480     24      166      165      164      168

Impropers

       1      1       98      107      108      112
       2      3      107      108      109      113
       3      6      108      109      110      114
       4      7      109      110      111      117
       5      6      110      111      112      115
       6      3      107      112      111      116
       7      7      110      117      118      122
       8      6      117      118      119      123
       9      6      118      119      120      124
      10      7      119      120      121      137
      11      6      120      121      122      125
      12      6      117      122      121      126
      13      7      128      127      132      165
      14      6      127      128      129      133
      15      3      128      129      130      134
      16      1       44      130      129      131
      17      3      130      131      132      135
      18      6      127      132      131      136
      19      7      120      137      138      142
      20      6      137      138      139      143
      21      5      138      139      140      144
      22      5      139      140      141      145
      23      5      140      141      142      146
      24      6      137      142      141      147
      25      1      152      161      162      166
      26      2      161      162      163      167
      27      1       37      163      162      164
      28      4      163      164      165      168
      29      7      127      165      164      166
      30      4      161      166      165      169

