LAMMPS data file generated by clean-room 1-hop pipeline

     276 atoms
     276 bonds
     552 angles
     828 dihedrals
       0 impropers

       2 atom types
       2 bond types
       3 angle types
       3 dihedral types
       0 improper types

  -24.595100    29.196000 xlo xhi
  -32.116400    32.686200 ylo yhi
  -30.432000    30.989600 zlo zhi

Masses

       1    12.011000
       2     1.008000

Pair Coeffs

       1     0.066000     3.500000
       2     0.030000     2.500000

Bond Coeffs

       1   268.000000     1.529000
       2   340.000000     1.090000

Angle Coeffs

       1    58.350000   112.700000
       2    37.500000   110.700000
       3    33.000000   107.800000

Dihedral Coeffs

       1     0.850000    -0.200000     0.200000     0.000000
       2     0.000000     0.000000     0.300000     0.000000
       3     0.000000     0.000000     0.300000     0.000000

Improper Coeffs


Atoms

       1    1      1  -0.19413973    -1.667200   -11.186300    -3.210100
       2    1      1  -0.19413973    -0.445600   -10.254300    -3.122500
       3    1      2   0.09706986    -1.409000   -12.116400    -3.816600
       4    1      2   0.09706986    -2.006800   -11.487400    -2.164200
       5    1      2   0.09706986    -0.776800    -9.272300    -2.646400
       6    1      2   0.09706986    -0.029500   -10.046600    -4.163900
       7    1      1  -0.19413973    -2.784400   -10.357200    -3.864700
       8    1      1  -0.19413973    -2.288900    -9.778700    -5.200300
       9    1      2   0.09706986    -3.729800   -10.977200    -4.010700
      10    1      2   0.09706986    -3.009400    -9.481800    -3.169600
      11    1      2   0.09706986    -1.308000    -9.230600    -5.005100
      12    1      2   0.09706986    -2.117800   -10.601300    -5.970400
      13    1      1  -0.19413973    -3.313800    -8.745400    -5.699500
      14    1      1  -0.19413973    -2.705300    -8.021900    -6.911500
      15    1      2   0.09706986    -4.313500    -9.228100    -5.960100
      16    1      2   0.09706986    -3.465900    -7.978100    -4.870500
      17    1      2   0.09706986    -1.673000    -7.648300    -6.602900
      18    1      2   0.09706986    -2.602900    -8.717100    -7.808500
      19    1      1  -0.19413973    -3.558300    -6.785600    -7.240600
      20    1      1  -0.19413973    -2.764000    -5.942500    -8.251300
      21    1      2   0.09706986    -4.595100    -7.060500    -7.627600
      22    1      2   0.09706986    -3.657100    -6.176600    -6.282300
      23    1      2   0.09706986    -1.713400    -5.822900    -7.824200
      24    1      2   0.09706986    -2.699000    -6.445800    -9.272100
      25    1      1  -0.19413973    -3.368000    -4.531100    -8.336200
      26    1      1  -0.19413973    -2.333900    -3.643100    -9.047500
      27    1      2   0.09706986    -4.388600    -4.513100    -8.843100
      28    1      2   0.09706986    -3.465500    -4.145200    -7.268100
      29    1      2   0.09706986    -2.241300    -3.885900   -10.158200
      30    1      2   0.09706986    -1.333600    -3.836900    -8.536700
      31    1      1  -0.19413973    -2.671900    -2.165200    -8.793700
      32    1      1  -0.19413973    -1.421600    -1.349000    -9.160400
      33    1      2   0.09706986    -3.604600    -1.821500    -9.350700
      34    1      2   0.09706986    -2.832400    -2.046200    -7.671400
      35    1      2   0.09706986    -1.234200    -1.330800   -10.285300
      36    1      2   0.09706986    -0.537300    -1.845400    -8.639400
      37    1      1  -0.19413973    -1.550700     0.063400    -8.567100
      38    1      1  -0.19413973    -0.168100     0.733900    -8.638600
      39    1      2   0.09706986    -2.354900     0.676200    -9.092500
      40    1      2   0.09706986    -1.817900    -0.050400    -7.464900
      41    1      2   0.09706986     0.137600     0.944000    -9.716600
      42    1      2   0.09706986     0.587100     0.024900    -8.161300
      43    1      1  -0.19413973    -0.193700     2.020900    -7.797400
      44    1      1  -0.19413973     1.238700     2.567800    -7.671900
      45    1      2   0.09706986    -0.889500     2.795700    -8.260500
      46    1      2   0.09706986    -0.562300     1.756200    -6.751600
      47    1      2   0.09706986     1.639700     2.881800    -8.691200
      48    1      2   0.09706986     1.908300     1.754200    -7.237100
      49    1      1  -0.19413973     1.210700     3.755500    -6.694300
      50    1      1  -0.19413973     2.626800     4.291000    -6.411600
      51    1      2   0.09706986     0.555700     4.591800    -7.109000
      52    1      2   0.09706986     0.770200     3.385400    -5.709800
      53    1      2   0.09706986     3.090100     4.751100    -7.346200
      54    1      2   0.09706986     3.280500     3.436200    -6.034700
      55    1      1  -0.19413973     2.455700     5.327000    -5.285700
      56    1      1  -0.19413973     3.783500     5.877800    -4.732400
      57    1      2   0.09706986     1.802300     6.188400    -5.647800
      58    1      2   0.09706986     1.926200     4.799400    -4.425100
      59    1      2   0.09706986     4.337200     6.503000    -5.507800
      60    1      2   0.09706986     4.437800     5.007800    -4.391800
      61    1      1  -0.19413973     3.378400     6.712500    -3.503400
      62    1      1  -0.19413973     4.562700     7.233700    -2.668500
      63    1      2   0.09706986     2.719000     7.585400    -3.824300
      64    1      2   0.09706986     2.773000     6.024700    -2.825900
      65    1      2   0.09706986     5.173500     8.016100    -3.228800
      66    1      2   0.09706986     5.226600     6.353000    -2.379100
      67    1      1  -0.19413973     3.911100     7.803100    -1.394600
      68    1      1  -0.19413973     4.918600     8.177200    -0.292800
      69    1      2   0.09706986     3.245900     8.694300    -1.644900
      70    1      2   0.09706986     3.261600     6.967800    -0.969400
      71    1      2   0.09706986     5.544700     9.092300    -0.558800
      72    1      2   0.09706986     5.598500     7.280100    -0.115900
      73    1      1  -0.19413973     4.064600     8.383100     0.972200
      74    1      1  -0.19413973     4.922200     8.431400     2.248500
      75    1      2   0.09706986     3.385600     9.294600     0.887100
      76    1      2   0.09706986     3.417400     7.448500     1.061900
      77    1      2   0.09706986     5.512300     9.400200     2.362900
      78    1      2   0.09706986     5.642700     7.549400     2.196700
      79    1      1  -0.19413973     3.963700     8.151800     3.421000
      80    1      1  -0.19413973     4.777600     7.715400     4.650300
      81    1      2   0.09706986     3.363900     7.234900     3.105500
      82    1      2   0.09706986     3.244500     9.008300     3.639500
      83    1      2   0.09706986     5.295900     8.572600     5.194500
      84    1      2   0.09706986     5.566600     6.994100     4.253800
      85    1      1  -0.19413973     3.859500     6.861400     5.543000
      86    1      1  -0.19413973     4.781400     5.962300     6.382600
      87    1      2   0.09706986     3.316900     6.159900     4.826600
      88    1      2   0.09706986     3.090700     7.448400     6.146300
      89    1      2   0.09706986     5.254000     6.479500     7.281300
      90    1      2   0.09706986     5.609300     5.651400     5.663100
      91    1      1  -0.19413973     4.050000     4.648700     6.708600
      92    1      1  -0.19413973     5.168800     3.609700     6.890700
      93    1      2   0.09706986     3.508500     4.354200     5.749200
      94    1      2   0.09706986     3.298300     4.708500     7.564200
      95    1      2   0.09706986     5.919900     3.855700     6.069500
      96    1      2   0.09706986     5.698300     3.670800     7.897700
      97    1      1  -0.19413973     4.661200     2.202800     6.530700
      98    1      1  -0.19413973     5.918400     1.421500     6.109600
      99    1      2   0.09706986     4.032300     2.321500     5.586800
     100    1      2   0.09706986     4.037300     1.702100     7.343800
     101    1      2   0.09706986     6.497300     2.132600     5.432300
     102    1      2   0.09706986     6.580900     1.132300     6.990400
     103    1      1  -0.19413973     5.546800     0.226500     5.214400
     104    1      1  -0.19413973     6.817100    -0.140200     4.424400
     105    1      2   0.09706986     4.790100     0.607800     4.451400
     106    1      2   0.09706986     5.097500    -0.648100     5.791800
     107    1      2   0.09706986     7.217800     0.837900     3.997200
     108    1      2   0.09706986     7.617400    -0.615700     5.081600
     109    1      1  -0.19413973     6.450400    -1.020300     3.216200
     110    1      1  -0.19413973     7.627600    -1.006100     2.222200
     111    1      2   0.09706986     5.572600    -0.516800     2.690600
     112    1      2   0.09706986     6.150300    -2.075900     3.525400
     113    1      2   0.09706986     7.894500     0.086700     2.037900
     114    1      2   0.09706986     8.541000    -1.556200     2.623900
     115    1      1  -0.19413973     7.141200    -1.587800     0.882700
     116    1      1  -0.19413973     8.139900    -1.259300    -0.243400
     117    1      2   0.09706986     6.169200    -1.051800     0.622200
     118    1      2   0.09706986     6.941700    -2.708100     0.959500
     119    1      2   0.09706986     8.324500    -0.134800    -0.220600
     120    1      2   0.09706986     9.129200    -1.812100    -0.124300
     121    1      1  -0.19413973     7.441200    -1.593200    -1.573900
     122    1      1  -0.19413973     8.186600    -0.986800    -2.777400
     123    1      2   0.09706986     6.419100    -1.089300    -1.541100
     124    1      2   0.09706986     7.296900    -2.718100    -1.695200
     125    1      2   0.09706986     8.335300     0.123500    -2.568100
     126    1      2   0.09706986     9.196000    -1.481700    -2.964200
     127    1      1  -0.19413973     7.235800    -1.118000    -3.981400
     128    1      1  -0.19413973     7.686600    -0.245600    -5.167100
     129    1      2   0.09706986     7.104200    -2.208300    -4.290200
     130    1      2   0.09706986     6.228400    -0.704200    -3.644400
     131    1      2   0.09706986     7.846800     0.812000    -4.774000
     132    1      2   0.09706986     8.645500    -0.624100    -5.653200
     133    1      1  -0.19413973     6.502600    -0.205900    -6.150900
     134    1      1  -0.19413973     6.682200     0.916900    -7.188200
     135    1      2   0.09706986     6.334400    -1.218400    -6.647600
     136    1      2   0.09706986     5.580300     0.065800    -5.538300
     137    1      2   0.09706986     6.907300     1.875500    -6.613400
     138    1      2   0.09706986     7.528400     0.704300    -7.921700
     139    1      1  -0.19413973     5.327300     1.109900    -7.894500
     140    1      1  -0.19413973     5.320200     2.444300    -8.661500
     141    1      2   0.09706986     5.069200     0.227000    -8.567900
     142    1      2   0.09706986     4.538900     1.200200    -7.076300
     143    1      2   0.09706986     5.657400     3.250700    -7.929000
     144    1      2   0.09706986     6.020000     2.433300    -9.561500
     145    1      1  -0.19413973     3.868200     2.769400    -9.056400
     146    1      1  -0.19413973     3.780100     4.251500    -9.461400
     147    1      2   0.09706986     3.476200     2.072100    -9.868900
     148    1      2   0.09706986     3.236900     2.648200    -8.116500
     149    1      2   0.09706986     4.335500     4.474000   -10.432000
     150    1      2   0.09706986     4.251600     4.846800    -8.610600
     151    1      1  -0.19413973     2.300900     4.670300    -9.531600
     152    1      1  -0.19413973     2.231000     6.204700    -9.479300
     153    1      2   0.09706986     1.758200     4.226900   -10.430800
     154    1      2   0.09706986     1.807800     4.305000    -8.574100
     155    1      2   0.09706986     2.626000     6.697600   -10.428100
     156    1      2   0.09706986     2.877400     6.520100    -8.594800
     157    1      1  -0.19413973     0.792400     6.638000    -9.146200
     158    1      1  -0.19413973     0.875900     8.089800    -8.644300
     159    1      2   0.09706986     0.076500     6.504100   -10.023200
     160    1      2   0.09706986     0.442500     6.002000    -8.266100
     161    1      2   0.09706986     1.173100     8.818000    -9.469300
     162    1      2   0.09706986     1.680300     8.094300    -7.837400
     163    1      1  -0.19413973    -0.433300     8.509700    -7.953500
     164    1      1  -0.19413973    -0.086900     9.739000    -7.095200
     165    1      2   0.09706986    -1.280900     8.698000    -8.692400
     166    1      2   0.09706986    -0.728800     7.674400    -7.235300
     167    1      2   0.09706986     0.186700    10.646100    -7.729700
     168    1      2   0.09706986     0.815600     9.438900    -6.467200
     169    1      1  -0.19413973    -1.222700    10.056700    -6.107300
     170    1      1  -0.19413973    -0.621400    10.959500    -5.014900
     171    1      2   0.09706986    -2.127900    10.519500    -6.621800
     172    1      2   0.09706986    -1.526800     9.080700    -5.602600
     173    1      2   0.09706986    -0.314300    11.980300    -5.419800
     174    1      2   0.09706986     0.303000    10.418400    -4.623800
     175    1      1  -0.19413973    -1.600300    11.088300    -3.835000
     176    1      1  -0.19413973    -0.817400    11.615100    -2.618100
     177    1      2   0.09706986    -2.495800    11.742800    -4.096200
     178    1      2   0.09706986    -1.960600    10.040000    -3.568700
     179    1      2   0.09706986    -0.441400    12.679900    -2.774600
     180    1      2   0.09706986     0.072600    10.918000    -2.470300
     181    1      1  -0.19413973    -1.704700    11.505300    -1.365800
     182    1      1  -0.19413973    -0.832200    11.646400    -0.104900
     183    1      2   0.09706986    -2.552000    12.267500    -1.388100
     184    1      2   0.09706986    -2.144100    10.453300    -1.347300
     185    1      2   0.09706986    -0.374800    12.686200    -0.010000
     186    1      2   0.09706986    -0.001200    10.869800    -0.178600
     187    1      1  -0.19413973    -1.702900    11.294900     1.114300
     188    1      1  -0.19413973    -0.822700    11.063800     2.356200
     189    1      2   0.09706986    -2.221900    10.305000     0.889000
     190    1      2   0.09706986    -2.490900    12.097600     1.300300
     191    1      2   0.09706986    -0.291200    12.015000     2.691200
     192    1      2   0.09706986    -0.051700    10.268100     2.089600
     193    1      1  -0.19413973    -1.731800    10.500200     3.463100
     194    1      1  -0.19413973    -0.896700     9.929400     4.623600
     195    1      2   0.09706986    -2.314400     9.628500     3.014300
     196    1      2   0.09706986    -2.466000    11.291900     3.829000
     197    1      2   0.09706986    -0.312000    10.740200     5.171100
     198    1      2   0.09706986    -0.173900     9.163200     4.188400
     199    1      1  -0.19413973    -1.867700     9.194600     5.565700
     200    1      1  -0.19413973    -1.095800     8.333600     6.581600
     201    1      2   0.09706986    -2.488900     8.482400     4.927800
     202    1      2   0.09706986    -2.562500     9.931000     6.089700
     203    1      2   0.09706986    -0.483100     8.970600     7.301700
     204    1      2   0.09706986    -0.402300     7.643100     5.997000
     205    1      1  -0.19413973    -2.121700     7.461700     7.328300
     206    1      1  -0.19413973    -1.400900     6.373100     8.143300
     207    1      2   0.09706986    -2.757000     6.931700     6.543900
     208    1      2   0.09706986    -2.796300     8.098300     7.990900
     209    1      2   0.09706986    -0.783300     6.819700     8.991200
     210    1      2   0.09706986    -0.715900     5.803700     7.432200
     211    1      1  -0.19413973    -2.458500     5.387600     8.673000
     212    1      1  -0.19413973    -1.759400     4.143300     9.249100
     213    1      2   0.09706986    -3.087800     5.046600     7.785500
     214    1      2   0.09706986    -3.133700     5.881700     9.447300
     215    1      2   0.09706986    -1.062600     3.734300     8.444900
     216    1      2   0.09706986    -1.154700     4.397500    10.181500
     217    1      1  -0.19413973    -2.820400     3.066900     9.542100
     218    1      1  -0.19413973    -2.109500     1.741100     9.866900
     219    1      2   0.09706986    -3.428300     2.910500     8.590500
     220    1      2   0.09706986    -3.514900     3.385400    10.387900
     221    1      2   0.09706986    -1.384700     1.519800     9.015400
     222    1      2   0.09706986    -1.530800     1.811300    10.847200
     223    1      1  -0.19413973    -3.142600     0.600300     9.906000
     224    1      1  -0.19413973    -2.381400    -0.734300     9.991300
     225    1      2   0.09706986    -3.717300     0.615800     8.921600
     226    1      2   0.09706986    -3.870500     0.721800    10.774400
     227    1      2   0.09706986    -1.617400    -0.748500     9.145800
     228    1      2   0.09706986    -1.839000    -0.833000    10.989600
     229    1      1  -0.19413973    -3.342600    -1.914400     9.759800
     230    1      1  -0.19413973    -2.480000    -3.181900     9.633900
     231    1      2   0.09706986    -3.875500    -1.743900     8.765800
     232    1      2   0.09706986    -4.110600    -2.010000    10.595600
     233    1      2   0.09706986    -1.674800    -2.967100     8.856100
     234    1      2   0.09706986    -1.980700    -3.433700    10.627900
     235    1      1  -0.19413973    -3.302700    -4.372000     9.108300
     236    1      1  -0.19413973    -2.281900    -5.484700     8.815300
     237    1      2   0.09706986    -3.788600    -4.057700     8.125800
     238    1      2   0.09706986    -4.102800    -4.709600     9.845200
     239    1      2   0.09706986    -1.456400    -5.016700     8.183800
     240    1      2   0.09706986    -1.827200    -5.883000     9.782800
     241    1      1  -0.19413973    -2.881200    -6.622600     7.970900
     242    1      1  -0.19413973    -1.677500    -7.491200     7.566800
     243    1      2   0.09706986    -3.326700    -6.160100     7.028500
     244    1      2   0.09706986    -3.678900    -7.217600     8.526000
     245    1      2   0.09706986    -0.882400    -6.779800     7.167400
     246    1      2   0.09706986    -1.255300    -8.051000     8.466500
     247    1      1  -0.19413973    -2.009600    -8.448700     6.410700
     248    1      1  -0.19413973    -0.658400    -9.021800     5.949100
     249    1      2   0.09706986    -2.439200    -7.822500     5.559600
     250    1      2   0.09706986    -2.750500    -9.264000     6.701800
     251    1      2   0.09706986     0.057400    -8.143300     5.832600
     252    1      2   0.09706986    -0.231900    -9.755200     6.711500
     253    1      1  -0.19413973    -0.804800    -9.651900     4.555700
     254    1      1  -0.19413973     0.602600    -9.968100     4.017300
     255    1      2   0.09706986    -1.264600    -8.857600     3.877700
     256    1      2   0.09706986    -1.472600   -10.575300     4.563700
     257    1      2   0.09706986     1.254000    -9.044400     4.153900
     258    1      2   0.09706986     1.071800   -10.854000     4.560200
     259    1      1  -0.19413973     0.452400   -10.208800     2.507300
     260    1      1  -0.19413973     1.799800   -10.351900     1.776300
     261    1      2   0.09706986    -0.061400    -9.282100     2.082500
     262    1      2   0.09706986    -0.203500   -11.119800     2.304600
     263    1      2   0.09706986     2.481900    -9.478800     2.035600
     264    1      2   0.09706986     2.309500   -11.340300     2.021800
     265    1      1  -0.19413973     1.396300   -10.243000     0.298700
     266    1      1  -0.19413973     2.541000   -10.281200    -0.726900
     267    1      2   0.09706986     0.868600    -9.237600     0.176700
     268    1      2   0.09706986     0.655700   -11.076200     0.054100
     269    1      2   0.09706986     3.325700    -9.489100    -0.496000
     270    1      2   0.09706986     3.016900   -11.314800    -0.778800
     271    1      1  -0.19413973     0.607700   -10.883500    -2.196000
     272    1      1  -0.19413973     1.782600    -9.904100    -2.010800
     273    1      2   0.09706986     0.089300   -11.026600    -1.192400
     274    1      2   0.09706986     0.974900   -11.891900    -2.577900
     275    1      2   0.09706986     1.344900    -8.866800    -1.827800
     276    1      2   0.09706986     2.454700    -9.875100    -2.933200

Bonds

       1      1        1        2
       2      2        1        3
       3      2        1        4
       4      1        1        7
       5      2        2        5
       6      2        2        6
       7      1        2      271
       8      1        7        8
       9      2        7        9
      10      2        7       10
      11      2        8       11
      12      2        8       12
      13      1        8       13
      14      1       13       14
      15      2       13       15
      16      2       13       16
      17      2       14       17
      18      2       14       18
      19      1       14       19
      20      1       19       20
      21      2       19       21
      22      2       19       22
      23      2       20       23
      24      2       20       24
      25      1       20       25
      26      1       25       26
      27      2       25       27
      28      2       25       28
      29      2       26       29
      30      2       26       30
      31      1       26       31
      32      1       31       32
      33      2       31       33
      34      2       31       34
      35      2       32       35
      36      2       32       36
      37      1       32       37
      38      1       37       38
      39      2       37       39
      40      2       37       40
      41      2       38       41
      42      2       38       42
      43      1       38       43
      44      1       43       44
      45      2       43       45
      46      2       43       46
      47      2       44       47
      48      2       44       48
      49      1       44       49
      50      1       49       50
      51      2       49       51
      52      2       49       52
      53      2       50       53
      54      2       50       54
      55      1       50       55
      56      1       55       56
      57      2       55       57
      58      2       55       58
      59      2       56       59
      60      2       56       60
      61      1       56       61
      62      1       61       62
      63      2       61       63
      64      2       61       64
      65      2       62       65
      66      2       62       66
      67      1       62       67
      68      1       67       68
      69      2       67       69
      70      2       67       70
      71      2       68       71
      72      2       68       72
      73      1       68       73
      74      1       73       74
      75      2       73       75
      76      2       73       76
      77      2       74       77
      78      2       74       78
      79      1       74       79
      80      1       79       80
      81      2       79       81
      82      2       79       82
      83      2       80       83
      84      2       80       84
      85      1       80       85
      86      1       85       86
      87      2       85       87
      88      2       85       88
      89      2       86       89
      90      2       86       90
      91      1       86       91
      92      1       91       92
      93      2       91       93
      94      2       91       94
      95      2       92       95
      96      2       92       96
      97      1       92       97
      98      1       97       98
      99      2       97       99
     100      2       97      100
     101      2       98      101
     102      2       98      102
     103      1       98      103
     104      1      103      104
     105      2      103      105
     106      2      103      106
     107      2      104      107
     108      2      104      108
     109      1      104      109
     110      1      109      110
     111      2      109      111
     112      2      109      112
     113      2      110      113
     114      2      110      114
     115      1      110      115
     116      1      115      116
     117      2      115      117
     118      2      115      118
     119      2      116      119
     120      2      116      120
     121      1      116      121
     122      1      121      122
     123      2      121      123
     124      2      121      124
     125      2      122      125
     126      2      122      126
     127      1      122      127
     128      1      127      128
     129      2      127      129
     130      2      127      130
     131      2      128      131
     132      2      128      132
     133      1      128      133
     134      1      133      134
     135      2      133      135
     136      2      133      136
     137      2      134      137
     138      2      134      138
     139      1      134      139
     140      1      139      140
     141      2      139      141
     142      2      139      142
     143      2      140      143
     144      2      140      144
     145      1      140      145
     146      1      145      146
     147      2      145      147
     148      2      145      148
     149      2      146      149
     150      2      146      150
     151      1      146      151
     152      1      151      152
     153      2      151      153
     154      2      151      154
     155      2      152      155
     156      2      152      156
     157      1      152      157
     158      1      157      158
     159      2      157      159
     160      2      157      160
     161      2      158      161
     162      2      158      162
     163      1      158      163
     164      1      163      164
     165      2      163      165
     166      2      163      166
     167      2      164      167
     168      2      164      168
     169      1      164      169
     170      1      169      170
     171      2      169      171
     172      2      169      172
     173      2      170      173
     174      2      170      174
     175      1      170      175
     176      1      175      176
     177      2      175      177
     178      2      175      178
     179      2      176      179
     180      2      176      180
     181      1      176      181
     182      1      181      182
     183      2      181      183
     184      2      181      184
     185      2      182      185
     186      2      182      186
     187      1      182      187
     188      1      187      188
     189      2      187      189
     190      2      187      190
     191      2      188      191
     192      2      188      192
     193      1      188      193
     194      1      193      194
     195      2      193      195
     196      2      193      196
     197      2      194      197
     198      2      194      198
     199      1      194      199
     200      1      199      200
     201      2      199      201
     202      2      199      202
     203      2      200      203
     204      2      200      204
     205      1      200      205
     206      1      205      206
     207      2      205      207
     208      2      205      208
     209      2      206      209
     210      2      206      210
     211      1      206      211
     212      1      211      212
     213      2      211      213
     214      2      211      214
     215      2      212      215
     216      2      212      216
     217      1      212      217
     218      1      217      218
     219      2      217      219
     220      2      217      220
     221      2      218      221
     222      2      218      222
     223      1      218      223
     224      1      223      224
     225      2      223      225
     226      2      223      226
     227      2      224      227
     228      2      224      228
     229      1      224      229
     230      1      229      230
     231      2      229      231
     232      2      229      232
     233      2      230      233
     234      2      230      234
     235      1      230      235
     236      1      235      236
     237      2      235      237
     238      2      235      238
     239      2      236      239
     240      2      236      240
     241      1      236      241
     242      1      241      242
     243      2      241      243
     244      2      241      244
     245      2      242      245
     246      2      242      246
     247      1      242      247
     248      1      247      248
     249      2      247      249
     250      2      247      250
     251      2      248      251
     252      2      248      252
     253      1      248      253
     254      1      253      254
     255      2      253      255
     256      2      253      256
     257      2      254      257
     258      2      254      258
     259      1      254      259
     260      1      259      260
     261      2      259      261
     262      2      259      262
     263      2      260      263
     264      2      260      264
     265      1      260      265
     266      1      265      266
     267      2      265      267
     268      2      265      268
     269      2      266      269
     270      2      266      270
     271      1      266      272
     272      1      271      272
     273      2      271      273
     274      2      271      274
     275      2      272      275
     276      2      272      276

Angles

       1      2        1        2        5
       2      2        1        2        6
       3      1        1        2      271
       4      1        1        7        8
       5      2        1        7        9
       6      2        1        7       10
       7      2        2        1        3
       8      2        2        1        4
       9      1        2        1        7
      10      1        2      271      272
      11      2        2      271      273
      12      2        2      271      274
      13      3        3        1        4
      14      2        3        1        7
      15      2        4        1        7
      16      3        5        2        6
      17      2        5        2      271
      18      2        6        2      271
      19      2        7        8       11
      20      2        7        8       12
      21      1        7        8       13
      22      2        8        7        9
      23      2        8        7       10
      24      1        8       13       14
      25      2        8       13       15
      26      2        8       13       16
      27      3        9        7       10
      28      3       11        8       12
      29      2       11        8       13
      30      2       12        8       13
      31      2       13       14       17
      32      2       13       14       18
      33      1       13       14       19
      34      2       14       13       15
      35      2       14       13       16
      36      1       14       19       20
      37      2       14       19       21
      38      2       14       19       22
      39      3       15       13       16
      40      3       17       14       18
      41      2       17       14       19
      42      2       18       14       19
      43      2       19       20       23
      44      2       19       20       24
      45      1       19       20       25
      46      2       20       19       21
      47      2       20       19       22
      48      1       20       25       26
      49      2       20       25       27
      50      2       20       25       28
      51      3       21       19       22
      52      3       23       20       24
      53      2       23       20       25
      54      2       24       20       25
      55      2       25       26       29
      56      2       25       26       30
      57      1       25       26       31
      58      2       26       25       27
      59      2       26       25       28
      60      1       26       31       32
      61      2       26       31       33
      62      2       26       31       34
      63      3       27       25       28
      64      3       29       26       30
      65      2       29       26       31
      66      2       30       26       31
      67      2       31       32       35
      68      2       31       32       36
      69      1       31       32       37
      70      2       32       31       33
      71      2       32       31       34
      72      1       32       37       38
      73      2       32       37       39
      74      2       32       37       40
      75      3       33       31       34
      76      3       35       32       36
      77      2       35       32       37
      78      2       36       32       37
      79      2       37       38       41
      80      2       37       38       42
      81      1       37       38       43
      82      2       38       37       39
      83      2       38       37       40
      84      1       38       43       44
      85      2       38       43       45
      86      2       38       43       46
      87      3       39       37       40
      88      3       41       38       42
      89      2       41       38       43
      90      2       42       38       43
      91      2       43       44       47
      92      2       43       44       48
      93      1       43       44       49
      94      2       44       43       45
      95      2       44       43       46
      96      1       44       49       50
      97      2       44       49       51
      98      2       44       49       52
      99      3       45       43       46
     100      3       47       44       48
     101      2       47       44       49
     102      2       48       44       49
     103      2       49       50       53
     104      2       49       50       54
     105      1       49       50       55
     106      2       50       49       51
     107      2       50       49       52
     108      1       50       55       56
     109      2       50       55       57
     110      2       50       55       58
     111      3       51       49       52
     112      3       53       50       54
     113      2       53       50       55
     114      2       54       50       55
     115      2       55       56       59
     116      2       55       56       60
     117      1       55       56       61
     118      2       56       55       57
     119      2       56       55       58
     120      1       56       61       62
     121      2       56       61       63
     122      2       56       61       64
     123      3       57       55       58
     124      3       59       56       60
     125      2       59       56       61
     126      2       60       56       61
     127      2       61       62       65
     128      2       61       62       66
     129      1       61       62       67
     130      2       62       61       63
     131      2       62       61       64
     132      1       62       67       68
     133      2       62       67       69
     134      2       62       67       70
     135      3       63       61       64
     136      3       65       62       66
     137      2       65       62       67
     138      2       66       62       67
     139      2       67       68       71
     140      2       67       68       72
     141      1       67       68       73
     142      2       68       67       69
     143      2       68       67       70
     144      1       68       73       74
     145      2       68       73       75
     146      2       68       73       76
     147      3       69       67       70
     148      3       71       68       72
     149      2       71       68       73
     150      2       72       68       73
     151      2       73       74       77
     152      2       73       74       78
     153      1       73       74       79
     154      2       74       73       75
     155      2       74       73       76
     156      1       74       79       80
     157      2       74       79       81
     158      2       74       79       82
     159      3       75       73       76
     160      3       77       74       78
     161      2       77       74       79
     162      2       78       74       79
     163      2       79       80       83
     164      2       79       80       84
     165      1       79       80       85
     166      2       80       79       81
     167      2       80       79       82
     168      1       80       85       86
     169      2       80       85       87
     170      2       80       85       88
     171      3       81       79       82
     172      3       83       80       84
     173      2       83       80       85
     174      2       84       80       85
     175      2       85       86       89
     176      2       85       86       90
     177      1       85       86       91
     178      2       86       85       87
     179      2       86       85       88
     180      1       86       91       92
     181      2       86       91       93
     182      2       86       91       94
     183      3       87       85       88
     184      3       89       86       90
     185      2       89       86       91
     186      2       90       86       91
     187      2       91       92       95
     188      2       91       92       96
     189      1       91       92       97
     190      2       92       91       93
     191      2       92       91       94
     192      1       92       97       98
     193      2       92       97       99
     194      2       92       97      100
     195      3       93       91       94
     196      3       95       92       96
     197      2       95       92       97
     198      2       96       92       97
     199      2       97       98      101
     200      2       97       98      102
     201      1       97       98      103
     202      2       98       97       99
     203      2       98       97      100
     204      1       98      103      104
     205      2       98      103      105
     206      2       98      103      106
     207      3       99       97      100
     208      3      101       98      102
     209      2      101       98      103
     210      2      102       98      103
     211      2      103      104      107
     212      2      103      104      108
     213      1      103      104      109
     214      2      104      103      105
     215      2      104      103      106
     216      1      104      109      110
     217      2      104      109      111
     218      2      104      109      112
     219      3      105      103      106
     220      3      107      104      108
     221      2      107      104      109
     222      2      108      104      109
     223      2      109      110      113
     224      2      109      110      114
     225      1      109      110      115
     226      2      110      109      111
     227      2      110      109      112
     228      1      110      115      116
     229      2      110      115      117
     230      2      110      115      118
     231      3      111      109      112
     232      3      113      110      114
     233      2      113      110      115
     234      2      114      110      115
     235      2      115      116      119
     236      2      115      116      120
     237      1      115      116      121
     238      2      116      115      117
     239      2      116      115      118
     240      1      116      121      122
     241      2      116      121      123
     242      2      116      121      124
     243      3      117      115      118
     244      3      119      116      120
     245      2      119      116      121
     246      2      120      116      121
     247      2      121      122      125
     248      2      121      122      126
     249      1      121      122      127
     250      2      122      121      123
     251      2      122      121      124
     252      1      122      127      128
     253      2      122      127      129
     254      2      122      127      130
     255      3      123      121      124
     256      3      125      122      126
     257      2      125      122      127
     258      2      126      122      127
     259      2      127      128      131
     260      2      127      128      132
     261      1      127      128      133
     262      2      128      127      129
     263      2      128      127      130
     264      1      128      133      134
     265      2      128      133      135
     266      2      128      133      136
     267      3      129      127      130
     268      3      131      128      132
     269      2      131      128      133
     270      2      132      128      133
     271      2      133      134      137
     272      2      133      134      138
     273      1      133      134      139
     274      2      134      133      135
     275      2      134      133      136
     276      1      134      139      140
     277      2      134      139      141
     278      2      134      139      142
     279      3      135      133      136
     280      3      137      134      138
     281      2      137      134      139
     282      2      138      134      139
     283      2      139      140      143
     284      2      139      140      144
     285      1      139      140      145
     286      2      140      139      141
     287      2      140      139      142
     288      1      140      145      146
     289      2      140      145      147
     290      2      140      145      148
     291      3      141      139      142
     292      3      143      140      144
     293      2      143      140      145
     294      2      144      140      145
     295      2      145      146      149
     296      2      145      146      150
     297      1      145      146      151
     298      2      146      145      147
     299      2      146      145      148
     300      1      146      151      152
     301      2      146      151      153
     302      2      146      151      154
     303      3      147      145      148
     304      3      149      146      150
     305      2      149      146      151
     306      2      150      146      151
     307      2      151      152      155
     308      2      151      152      156
     309      1      151      152      157
     310      2      152      151      153
     311      2      152      151      154
     312      1      152      157      158
     313      2      152      157      159
     314      2      152      157      160
     315      3      153      151      154
     316      3      155      152      156
     317      2      155      152      157
     318      2      156      152      157
     319      2      157      158      161
     320      2      157      158      162
     321      1      157      158      163
     322      2      158      157      159
     323      2      158      157      160
     324      1      158      163      164
     325      2      158      163      165
     326      2      158      163      166
     327      3      159      157      160
     328      3      161      158      162
     329      2      161      158      163
     330      2      162      158      163
     331      2      163      164      167
     332      2      163      164      168
     333      1      163      164      169
     334      2      164      163      165
     335      2      164      163      166
     336      1      164      169      170
     337      2      164      169      171
     338      2      164      169      172
     339      3      165      163      166
     340      3      167      164      168
     341      2      167      164      169
     342      2      168      164      169
     343      2      169      170      173
     344      2      169      170      174
     345      1      169      170      175
     346      2      170      169      171
     347      2      170      169      172
     348      1      170      175      176
     349      2      170      175      177
     350      2      170      175      178
     351      3      171      169      172
     352      3      173      170      174
     353      2      173      170      175
     354      2      174      170      175
     355      2      175      176      179
     356      2      175      176      180
     357      1      175      176      181
     358      2      176      175      177
     359      2      176      175      178
     360      1      176      181      182
     361      2      176      181      183
     362      2      176      181      184
     363      3      177      175      178
     364      3      179      176      180
     365      2      179      176      181
     366      2      180      176      181
     367      2      181      182      185
     368      2      181      182      186
     369      1      181      182      187
     370      2      182      181      183
     371      2      182      181      184
     372      1      182      187      188
     373      2      182      187      189
     374      2      182      187      190
     375      3      183      181      184
     376      3      185      182      186
     377      2      185      182      187
     378      2      186      182      187
     379      2      187      188      191
     380      2      187      188      192
     381      1      187      188      193
     382      2      188      187      189
     383      2      188      187      190
     384      1      188      193      194
     385      2      188      193      195
     386      2      188      193      196
     387      3      189      187      190
     388      3      191      188      192
     389      2      191      188      193
     390      2      192      188      193
     391      2      193      194      197
     392      2      193      194      198
     393      1      193      194      199
     394      2      194      193      195
     395      2      194      193      196
     396      1      194      199      200
     397      2      194      199      201
     398      2      194      199      202
     399      3      195      193      196
     400      3      197      194      198
     401      2      197      194      199
     402      2      198      194      199
     403      2      199      200      203
     404      2      199      200      204
     405      1      199      200      205
     406      2      200      199      201
     407      2      200      199      202
     408      1      200      205      206
     409      2      200      205      207
     410      2      200      205      208
     411      3      201      199      202
     412      3      203      200      204
     413      2      203      200      205
     414      2      204      200      205
     415      2      205      206      209
     416      2      205      206      210
     417      1      205      206      211
     418      2      206      205      207
     419      2      206      205      208
     420      1      206      211      212
     421      2      206      211      213
     422      2      206      211      214
     423      3      207      205      208
     424      3      209      206      210
     425      2      209      206      211
     426      2      210      206      211
     427      2      211      212      215
     428      2      211      212      216
     429      1      211      212      217
     430      2      212      211      213
     431      2      212      211      214
     432      1      212      217      218
     433      2      212      217      219
     434      2      212      217      220
     435      3      213      211      214
     436      3      215      212      216
     437      2      215      212      217
     438      2      216      212      217
     439      2      217      218      221
     440      2      217      218      222
     441      1      217      218      223
     442      2      218      217      219
     443      2      218      217      220
     444      1      218      223      224
     445      2      218      223      225
     446      2      218      223      226
     447      3      219      217      220
     448      3      221      218      222
     449      2      221      218      223
     450      2      222      218      223
     451      2      223      224      227
     452      2      223      224      228
     453      1      223      224      229
     454      2      224      223      225
     455      2      224      223      226
     456      1      224      229      230
     457      2      224      229      231
     458      2      224      229      232
     459      3      225      223      226
     460      3      227      224      228
     461      2      227      224      229
     462      2      228      224      229
     463      2      229      230      233
     464      2      229      230      234
     465      1      229      230      235
     466      2      230      229      231
     467      2      230      229      232
     468      1      230      235      236
     469      2      230      235      237
     470      2      230      235      238
     471      3      231      229      232
     472      3      233      230      234
     473      2      233      230      235
     474      2      234      230      235
     475      2      235      236      239
     476      2      235      236      240
     477      1      235      236      241
     478      2      236      235      237
     479      2      236      235      238
     480      1      236      241      242
     481      2      236      241      243
     482      2      236      241      244
     483      3      237      235      238
     484      3      239      236      240
     485      2      239      236      241
     486      2      240      236      241
     487      2      241      242      245
     488      2      241      242      246
     489      1      241      242      247
     490      2      242      241      243
     491      2      242      241      244
     492      1      242      247      248
     493      2      242      247      249
     494      2      242      247      250
     495      3      243      241      244
     496      3      245      242      246
     497      2      245      242      247
     498      2      246      242      247
     499      2      247      248      251
     500      2      247      248      252
     501      1      247      248      253
     502      2      248      247      249
     503      2      248      247      250
     504      1      248      253      254
     505      2      248      253      255
     506      2      248      253      256
     507      3      249      247      250
     508      3      251      248      252
     509      2      251      248      253
     510      2      252      248      253
     511      2      253      254      257
     512      2      253      254      258
     513      1      253      254      259
     514      2      254      253      255
     515      2      254      253      256
     516      1      254      259      260
     517      2      254      259      261
     518      2      254      259      262
     519      3      255      253      256
     520      3      257      254      258
     521      2      257      254      259
     522      2      258      254      259
     523      2      259      260      263
     524      2      259      260      264
     525      1      259      260      265
     526      2      260      259      261
     527      2      260      259      262
     528      1      260      265      266
     529      2      260      265      267
     530      2      260      265      268
     531      3      261      259      262
     532      3      263      260      264
     533      2      263      260      265
     534      2      264      260      265
     535      2      265      266      269
     536      2      265      266      270
     537      1      265      266      272
     538      2      266      265      267
     539      2      266      265      268
     540      1      266      272      271
     541      2      266      272      275
     542      2      266      272      276
     543      3      267      265      268
     544      3      269      266      270
     545      2      269      266      272
     546      2      270      266      272
     547      2      271      272      275
     548      2      271      272      276
     549      2      272      271      273
     550      2      272      271      274
     551      3      273      271      274
     552      3      275      272      276

Dihedrals

       1      1        1        2      271      272
       2      2        1        2      271      273
       3      2        1        2      271      274
       4      2        1        7        8       11
       5      2        1        7        8       12
       6      1        1        7        8       13
       7      1        2        1        7        8
       8      2        2        1        7        9
       9      2        2        1        7       10
      10      1        2      271      272      266
      11      2        2      271      272      275
      12      2        2      271      272      276
      13      3        3        1        2        5
      14      3        3        1        2        6
      15      2        3        1        2      271
      16      2        3        1        7        8
      17      3        3        1        7        9
      18      3        3        1        7       10
      19      3        4        1        2        5
      20      3        4        1        2        6
      21      2        4        1        2      271
      22      2        4        1        7        8
      23      3        4        1        7        9
      24      3        4        1        7       10
      25      2        5        2        1        7
      26      2        5        2      271      272
      27      3        5        2      271      273
      28      3        5        2      271      274
      29      2        6        2        1        7
      30      2        6        2      271      272
      31      3        6        2      271      273
      32      3        6        2      271      274
      33      1        7        1        2      271
      34      1        7        8       13       14
      35      2        7        8       13       15
      36      2        7        8       13       16
      37      2        8       13       14       17
      38      2        8       13       14       18
      39      1        8       13       14       19
      40      3        9        7        8       11
      41      3        9        7        8       12
      42      2        9        7        8       13
      43      3       10        7        8       11
      44      3       10        7        8       12
      45      2       10        7        8       13
      46      2       11        8       13       14
      47      3       11        8       13       15
      48      3       11        8       13       16
      49      2       12        8       13       14
      50      3       12        8       13       15
      51      3       12        8       13       16
      52      1       13       14       19       20
      53      2       13       14       19       21
      54      2       13       14       19       22
      55      2       14       19       20       23
      56      2       14       19       20       24
      57      1       14       19       20       25
      58      3       15       13       14       17
      59      3       15       13       14       18
      60      2       15       13       14       19
      61      3       16       13       14       17
      62      3       16       13       14       18
      63      2       16       13       14       19
      64      2       17       14       19       20
      65      3       17       14       19       21
      66      3       17       14       19       22
      67      2       18       14       19       20
      68      3       18       14       19       21
      69      3       18       14       19       22
      70      1       19       20       25       26
      71      2       19       20       25       27
      72      2       19       20       25       28
      73      2       20       25       26       29
      74      2       20       25       26       30
      75      1       20       25       26       31
      76      3       21       19       20       23
      77      3       21       19       20       24
      78      2       21       19       20       25
      79      3       22       19       20       23
      80      3       22       19       20       24
      81      2       22       19       20       25
      82      2       23       20       25       26
      83      3       23       20       25       27
      84      3       23       20       25       28
      85      2       24       20       25       26
      86      3       24       20       25       27
      87      3       24       20       25       28
      88      1       25       26       31       32
      89      2       25       26       31       33
      90      2       25       26       31       34
      91      2       26       31       32       35
      92      2       26       31       32       36
      93      1       26       31       32       37
      94      3       27       25       26       29
      95      3       27       25       26       30
      96      2       27       25       26       31
      97      3       28       25       26       29
      98      3       28       25       26       30
      99      2       28       25       26       31
     100      2       29       26       31       32
     101      3       29       26       31       33
     102      3       29       26       31       34
     103      2       30       26       31       32
     104      3       30       26       31       33
     105      3       30       26       31       34
     106      1       31       32       37       38
     107      2       31       32       37       39
     108      2       31       32       37       40
     109      2       32       37       38       41
     110      2       32       37       38       42
     111      1       32       37       38       43
     112      3       33       31       32       35
     113      3       33       31       32       36
     114      2       33       31       32       37
     115      3       34       31       32       35
     116      3       34       31       32       36
     117      2       34       31       32       37
     118      2       35       32       37       38
     119      3       35       32       37       39
     120      3       35       32       37       40
     121      2       36       32       37       38
     122      3       36       32       37       39
     123      3       36       32       37       40
     124      1       37       38       43       44
     125      2       37       38       43       45
     126      2       37       38       43       46
     127      2       38       43       44       47
     128      2       38       43       44       48
     129      1       38       43       44       49
     130      3       39       37       38       41
     131      3       39       37       38       42
     132      2       39       37       38       43
     133      3       40       37       38       41
     134      3       40       37       38       42
     135      2       40       37       38       43
     136      2       41       38       43       44
     137      3       41       38       43       45
     138      3       41       38       43       46
     139      2       42       38       43       44
     140      3       42       38       43       45
     141      3       42       38       43       46
     142      1       43       44       49       50
     143      2       43       44       49       51
     144      2       43       44       49       52
     145      2       44       49       50       53
     146      2       44       49       50       54
     147      1       44       49       50       55
     148      3       45       43       44       47
     149      3       45       43       44       48
     150      2       45       43       44       49
     151      3       46       43       44       47
     152      3       46       43       44       48
     153      2       46       43       44       49
     154      2       47       44       49       50
     155      3       47       44       49       51
     156      3       47       44       49       52
     157      2       48       44       49       50
     158      3       48       44       49       51
     159      3       48       44       49       52
     160      1       49       50       55       56
     161      2       49       50       55       57
     162      2       49       50       55       58
     163      2       50       55       56       59
     164      2       50       55       56       60
     165      1       50       55       56       61
     166      3       51       49       50       53
     167      3       51       49       50       54
     168      2       51       49       50       55
     169      3       52       49       50       53
     170      3       52       49       50       54
     171      2       52       49       50       55
     172      2       53       50       55       56
     173      3       53       50       55       57
     174      3       53       50       55       58
     175      2       54       50       55       56
     176      3       54       50       55       57
     177      3       54       50       55       58
     178      1       55       56       61       62
     179      2       55       56       61       63
     180      2       55       56       61       64
     181      2       56       61       62       65
     182      2       56       61       62       66
     183      1       56       61       62       67
     184      3       57       55       56       59
     185      3       57       55       56       60
     186      2       57       55       56       61
     187      3       58       55       56       59
     188      3       58       55       56       60
     189      2       58       55       56       61
     190      2       59       56       61       62
     191      3       59       56       61       63
     192      3       59       56       61       64
     193      2       60       56       61       62
     194      3       60       56       61       63
     195      3       60       56       61       64
     196      1       61       62       67       68
     197      2       61       62       67       69
     198      2       61       62       67       70
     199      2       62       67       68       71
     200      2       62       67       68       72
     201      1       62       67       68       73
     202      3       63       61       62       65
     203      3       63       61       62       66
     204      2       63       61       62       67
     205      3       64       61       62       65
     206      3       64       61       62       66
     207      2       64       61       62       67
     208      2       65       62       67       68
     209      3       65       62       67       69
     210      3       65       62       67       70
     211      2       66       62       67       68
     212      3       66       62       67       69
     213      3       66       62       67       70
     214      1       67       68       73       74
     215      2       67       68       73       75
     216      2       67       68       73       76
     217      2       68       73       74       77
     218      2       68       73       74       78
     219      1       68       73       74       79
     220      3       69       67       68       71
     221      3       69       67       68       72
     222      2       69       67       68       73
     223      3       70       67       68       71
     224      3       70       67       68       72
     225      2       70       67       68       73
     226      2       71       68       73       74
     227      3       71       68       73       75
     228      3       71       68       73       76
     229      2       72       68       73       74
     230      3       72       68       73       75
     231      3       72       68       73       76
     232      1       73       74       79       80
     233      2       73       74       79       81
     234      2       73       74       79       82
     235      2       74       79       80       83
     236      2       74       79       80       84
     237      1       74       79       80       85
     238      3       75       73       74       77
     239      3       75       73       74       78
     240      2       75       73       74       79
     241      3       76       73       74       77
     242      3       76       73       74       78
     243      2       76       73       74       79
     244      2       77       74       79       80
     245      3       77       74       79       81
     246      3       77       74       79       82
     247      2       78       74       79       80
     248      3       78       74       79       81
     249      3       78       74       79       82
     250      1       79       80       85       86
     251      2       79       80       85       87
     252      2       79       80       85       88
     253      2       80       85       86       89
     254      2       80       85       86       90
     255      1       80       85       86       91
     256      3       81       79       80       83
     257      3       81       79       80       84
     258      2       81       79       80       85
     259      3       82       79       80       83
     260      3       82       79       80       84
     261      2       82       79       80       85
     262      2       83       80       85       86
     263      3       83       80       85       87
     264      3       83       80       85       88
     265      2       84       80       85       86
     266      3       84       80       85       87
     267      3       84       80       85       88
     268      1       85       86       91       92
     269      2       85       86       91       93
     270      2       85       86       91       94
     271      2       86       91       92       95
     272      2       86       91       92       96
     273      1       86       91       92       97
     274      3       87       85       86       89
     275      3       87       85       86       90
     276      2       87       85       86       91
     277      3       88       85       86       89
     278      3       88       85       86       90
     279      2       88       85       86       91
     280      2       89       86       91       92
     281      3       89       86       91       93
     282      3       89       86       91       94
     283      2       90       86       91       92
     284      3       90       86       91       93
     285      3       90       86       91       94
     286      1       91       92       97       98
     287      2       91       92       97       99
     288      2       91       92       97      100
     289      2       92       97       98      101
     290      2       92       97       98      102
     291      1       92       97       98      103
     292      3       93       91       92       95
     293      3       93       91       92       96
     294      2       93       91       92       97
     295      3       94       91       92       95
     296      3       94       91       92       96
     297      2       94       91       92       97
     298      2       95       92       97       98
     299      3       95       92       97       99
     300      3       95       92       97      100
     301      2       96       92       97       98
     302      3       96       92       97       99
     303      3       96       92       97      100
     304      1       97       98      103      104
     305      2       97       98      103      105
     306      2       97       98      103      106
     307      2       98      103      104      107
     308      2       98      103      104      108
     309      1       98      103      104      109
     310      3       99       97       98      101
     311      3       99       97       98      102
     312      2       99       97       98      103
     313      3      100       97       98      101
     314      3      100       97       98      102
     315      2      100       97       98      103
     316      2      101       98      103      104
     317      3      101       98      103      105
     318      3      101       98      103      106
     319      2      102       98      103      104
     320      3      102       98      103      105
     321      3      102       98      103      106
     322      1      103      104      109      110
     323      2      103      104      109      111
     324      2      103      104      109      112
     325      2      104      109      110      113
     326      2      104      109      110      114
     327      1      104      109      110      115
     328      3      105      103      104      107
     329      3      105      103      104      108
     330      2      105      103      104      109
     331      3      106      103      104      107
     332      3      106      103      104      108
     333      2      106      103      104      109
     334      2      107      104      109      110
     335      3      107      104      109      111
     336      3      107      104      109      112
     337      2      108      104      109      110
     338      3      108      104      109      111
     339      3      108      104      109      112
     340      1      109      110      115      116
     341      2      109      110      115      117
     342      2      109      110      115      118
     343      2      110      115      116      119
     344      2      110      115      116      120
     345      1      110      115      116      121
     346      3      111      109      110      113
     347      3      111      109      110      114
     348      2      111      109      110      115
     349      3      112      109      110      113
     350      3      112      109      110      114
     351      2      112      109      110      115
     352      2      113      110      115      116
     353      3      113      110      115      117
     354      3      113      110      115      118
     355      2      114      110      115      116
     356      3      114      110      115      117
     357      3      114      110      115      118
     358      1      115      116      121      122
     359      2      115      116      121      123
     360      2      115      116      121      124
     361      2      116      121      122      125
     362      2      116      121      122      126
     363      1      116      121      122      127
     364      3      117      115      116      119
     365      3      117      115      116      120
     366      2      117      115      116      121
     367      3      118      115      116      119
     368      3      118      115      116      120
     369      2      118      115      116      121
     370      2      119      116      121      122
     371      3      119      116      121      123
     372      3      119      116      121      124
     373      2      120      116      121      122
     374      3      120      116      121      123
     375      3      120      116      121      124
     376      1      121      122      127      128
     377      2      121      122      127      129
     378      2      121      122      127      130
     379      2      122      127      128      131
     380      2      122      127      128      132
     381      1      122      127      128      133
     382      3      123      121      122      125
     383      3      123      121      122      126
     384      2      123      121      122      127
     385      3      124      121      122      125
     386      3      124      121      122      126
     387      2      124      121      122      127
     388      2      125      122      127      128
     389      3      125      122      127      129
     390      3      125      122      127      130
     391      2      126      122      127      128
     392      3      126      122      127      129
     393      3      126      122      127      130
     394      1      127      128      133      134
     395      2      127      128      133      135
     396      2      127      128      133      136
     397      2      128      133      134      137
     398      2      128      133      134      138
     399      1      128      133      134      139
     400      3      129      127      128      131
     401      3      129      127      128      132
     402      2      129      127      128      133
     403      3      130      127      128      131
     404      3      130      127      128      132
     405      2      130      127      128      133
     406      2      131      128      133      134
     407      3      131      128      133      135
     408      3      131      128      133      136
     409      2      132      128      133      134
     410      3      132      128      133      135
     411      3      132      128      133      136
     412      1      133      134      139      140
     413      2      133      134      139      141
     414      2      133      134      139      142
     415      2      134      139      140      143
     416      2      134      139      140      144
     417      1      134      139      140      145
     418      3      135      133      134      137
     419      3      135      133      134      138
     420      2      135      133      134      139
     421      3      136      133      134      137
     422      3      136      133      134      138
     423      2      136      133      134      139
     424      2      137      134      139      140
     425      3      137      134      139      141
     426      3      137      134      139      142
     427      2      138      134      139      140
     428      3      138      134      139      141
     429      3      138      134      139      142
     430      1      139      140      145      146
     431      2      139      140      145      147
     432      2      139      140      145      148
     433      2      140      145      146      149
     434      2      140      145      146      150
     435      1      140      145      146      151
     436      3      141      139      140      143
     437      3      141      139      140      144
     438      2      141      139      140      145
     439      3      142      139      140      143
     440      3      142      139      140      144
     441      2      142      139      140      145
     442      2      143      140      145      146
     443      3      143      140      145      147
     444      3      143      140      145      148
     445      2      144      140      145      146
     446      3      144      140      145      147
     447      3      144      140      145      148
     448      1      145      146      151      152
     449      2      145      146      151      153
     450      2      145      146      151      154
     451      2      146      151      152      155
     452      2      146      151      152      156
     453      1      146      151      152      157
     454      3      147      145      146      149
     455      3      147      145      146      150
     456      2      147      145      146      151
     457      3      148      145      146      149
     458      3      148      145      146      150
     459      2      148      145      146      151
     460      2      149      146      151      152
     461      3      149      146      151      153
     462      3      149      146      151      154
     463      2      150      146      151      152
     464      3      150      146      151      153
     465      3      150      146      151      154
     466      1      151      152      157      158
     467      2      151      152      157      159
     468      2      151      152      157      160
     469      2      152      157      158      161
     470      2      152      157      158      162
     471      1      152      157      158      163
     472      3      153      151      152      155
     473      3      153      151      152      156
     474      2      153      151      152      157
     475      3      154      151      152      155
     476      3      154      151      152      156
     477      2      154      151      152      157
     478      2      155      152      157      158
     479      3      155      152      157      159
     480      3      155      152      157      160
     481      2      156      152      157      158
     482      3      156      152      157      159
     483      3      156      152      157      160
     484      1      157      158      163      164
     485      2      157      158      163      165
     486      2      157      158      163      166
     487      2      158      163      164      167
     488      2      158      163      164      168
     489      1      158      163      164      169
     490      3      159      157      158      161
     491      3      159      157      158      162
     492      2      159      157      158      163
     493      3      160      157      158      161
     494      3      160      157      158      162
     495      2      160      157      158      163
     496      2      161      158      163      164
     497      3      161      158      163      165
     498      3      161      158      163      166
     499      2      162      158      163      164
     500      3      162      158      163      165
     501      3      162      158      163      166
     502      1      163      164      169      170
     503      2      163      164      169      171
     504      2      163      164      169      172
     505      2      164      169      170      173
     506      2      164      169      170      174
     507      1      164      169      170      175
     508      3      165      163      164      167
     509      3      165      163      164      168
     510      2      165      163      164      169
     511      3      166      163      164      167
     512      3      166      163      164      168
     513      2      166      163      164      169
     514      2      167      164      169      170
     515      3      167      164      169      171
     516      3      167      164      169      172
     517      2      168      164      169      170
     518      3      168      164      169      171
     519      3      168      164      169      172
     520      1      169      170      175      176
     521      2      169      170      175      177
     522      2      169      170      175      178
     523      2      170      175      176      179
     524      2      170      175      176      180
     525      1      170      175      176      181
     526      3      171      169      170      173
     527      3      171      169      170      174
     528      2      171      169      170      175
     529      3      172      169      170      173
     530      3      172      169      170      174
     531      2      172      169      170      175
     532      2      173      170      175      176
     533      3      173      170      175      177
     534      3      173      170      175      178
     535      2      174      170      175      176
     536      3      174      170      175      177
     537      3      174      170      175      178
     538      1      175      176      181      182
     539      2      175      176      181      183
     540      2      175      176      181      184
     541      2      176      181      182      185
     542      2      176      181      182      186
     543      1      176      181      182      187
     544      3      177      175      176      179
     545      3      177      175      176      180
     546      2      177      175      176      181
     547      3      178      175      176      179
     548      3      178      175      176      180
     549      2      178      175      176      181
     550      2      179      176      181      182
     551      3      179      176      181      183
     552      3      179      176      181      184
     553      2      180      176      181      182
     554      3      180      176      181      183
     555      3      180      176      181      184
     556      1      181      182      187      188
     557      2      181      182      187      189
     558      2      181      182      187      190
     559      2      182      187      188      191
     560      2      182      187      188      192
     561      1      182      187      188      193
     562      3      183      181      182      185
     563      3      183      181      182      186
     564      2      183      181      182      187
     565      3      184      181      182      185
     566      3      184      181      182      186
     567      2      184      181      182      187
     568      2      185      182      187      188
     569      3      185      182      187      189
     570      3      185      182      187      190
     571      2      186      182      187      188
     572      3      186      182      187      189
     573      3      186      182      187      190
     574      1      187      188      193      194
     575      2      187      188      193      195
     576      2      187      188      193      196
     577      2      188      193      194      197
     578      2      188      193      194      198
     579      1      188      193      194      199
     580      3      189      187      188      191
     581      3      189      187      188      192
     582      2      189      187      188      193
     583      3      190      187      188      191
     584      3      190      187      188      192
     585      2      190      187      188      193
     586      2      191      188      193      194
     587      3      191      188      193      195
     588      3      191      188      193      196
     589      2      192      188      193      194
     590      3      192      188      193      195
     591      3      192      188      193      196
     592      1      193      194      199      200
     593      2      193      194      199      201
     594      2      193      194      199      202
     595      2      194      199      200      203
     596      2      194      199      200      204
     597      1      194      199      200      205
     598      3      195      193      194      197
     599      3      195      193      194      198
     600      2      195      193      194      199
     601      3      196      193      194      197
     602      3      196      193      194      198
     603      2      196      193      194      199
     604      2      197      194      199      200
     605      3      197      194      199      201
     606      3      197      194      199      202
     607      2      198      194      199      200
     608      3      198      194      199      201
     609      3      198      194      199      202
     610      1      199      200      205      206
     611      2      199      200      205      207
     612      2      199      200      205      208
     613      2      200      205      206      209
     614      2      200      205      206      210
     615      1      200      205      206      211
     616      3      201      199      200      203
     617      3      201      199      200      204
     618      2      201      199      200      205
     619      3      202      199      200      203
     620      3      202      199      200      204
     621      2      202      199      200      205
     622      2      203      200      205      206
     623      3      203      200      205      207
     624      3      203      200      205      208
     625      2      204      200      205      206
     626      3      204      200      205      207
     627      3      204      200      205      208
     628      1      205      206      211      212
     629      2      205      206      211      213
     630      2      205      206      211      214
     631      2      206      211      212      215
     632      2      206      211      212      216
     633      1      206      211      212      217
     634      3      207      205      206      209
     635      3      207      205      206      210
     636      2      207      205      206      211
     637      3      208      205      206      209
     638      3      208      205      206      210
     639      2      208      205      206      211
     640      2      209      206      211      212
     641      3      209      206      211      213
     642      3      209      206      211      214
     643      2      210      206      211      212
     644      3      210      206      211      213
     645      3      210      206      211      214
     646      1      211      212      217      218
     647      2      211      212      217      219
     648      2      211      212      217      220
     649      2      212      217      218      221
     650      2      212      217      218      222
     651      1      212      217      218      223
     652      3      213      211      212      215
     653      3      213      211      212      216
     654      2      213      211      212      217
     655      3      214      211      212      215
     656      3      214      211      212      216
     657      2      214      211      212      217
     658      2      215      212      217      218
     659      3      215      212      217      219
     660      3      215      212      217      220
     661      2      216      212      217      218
     662      3      216      212      217      219
     663      3      216      212      217      220
     664      1      217      218      223      224
     665      2      217      218      223      225
     666      2      217      218      223      226
     667      2      218      223      224      227
     668      2      218      223      224      228
     669      1      218      223      224      229
     670      3      219      217      218      221
     671      3      219      217      218      222
     672      2      219      217      218      223
     673      3      220      217      218      221
     674      3      220      217      218      222
     675      2      220      217      218      223
     676      2      221      218      223      224
     677      3      221      218      223      225
     678      3      221      218      223      226
     679      2      222      218      223      224
     680      3      222      218      223      225
     681      3      222      218      223      226
     682      1      223      224      229      230
     683      2      223      224      229      231
     684      2      223      224      229      232
     685      2      224      229      230      233
     686      2      224      229      230      234
     687      1      224      229      230      235
     688      3      225      223      224      227
     689      3      225      223      224      228
     690      2      225      223      224      229
     691      3      226      223      224      227
     692      3      226      223      224      228
     693      2      226      223      224      229
     694      2      227      224      229      230
     695      3      227      224      229      231
     696      3      227      224      229      232
     697      2      228      224      229      230
     698      3      228      224      229      231
     699      3      228      224      229      232
     700      1      229      230      235      236
     701      2      229      230      235      237
     702      2      229      230      235      238
     703      2      230      235      236      239
     704      2      230      235      236      240
     705      1      230      235      236      241
     706      3      231      229      230      233
     707      3      231      229      230      234
     708      2      231      229      230      235
     709      3      232      229      230      233
     710      3      232      229      230      234
     711      2      232      229      230      235
     712      2      233      230      235      236
     713      3      233      230      235      237
     714      3      233      230      235      238
     715      2      234      230      235      236
     716      3      234      230      235      237
     717      3      234      230      235      238
     718      1      235      236      241      242
     719      2      235      236      241      243
     720      2      235      236      241      244
     721      2      236      241      242      245
     722      2      236      241      242      246
     723      1      236      241      242      247
     724      3      237      235      236      239
     725      3      237      235      236      240
     726      2      237      235      236      241
     727      3      238      235      236      239
     728      3      238      235      236      240
     729      2      238      235      236      241
     730      2      239      236      241      242
     731      3      239      236      241      243
     732      3      239      236      241      244
     733      2      240      236      241      242
     734      3      240      236      241      243
     735      3      240      236      241      244
     736      1      241      242      247      248
     737      2      241      242      247      249
     738      2      241      242      247      250
     739      2      242      247      248      251
     740      2      242      247      248      252
     741      1      242      247      248      253
     742      3      243      241      242      245
     743      3      243      241      242      246
     744      2      243      241      242      247
     745      3      244      241      242      245
     746      3      244      241      242      246
     747      2      244      241      242      247
     748      2      245      242      247      248
     749      3      245      242      247      249
     750      3      245      242      247      250
     751      2      246      242      247      248
     752      3      246      242      247      249
     753      3      246      242      247      250
     754      1      247      248      253      254
     755      2      247      248      253      255
     756      2      247      248      253      256
     757      2      248      253      254      257
     758      2      248      253      254      258
     759      1      248      253      254      259
     760      3      249      247      248      251
     761      3      249      247      248      252
     762      2      249      247      248      253
     763      3      250      247      248      251
     764      3      250      247      248      252
     765      2      250      247      248      253
     766      2      251      248      253      254
     767      3      251      248      253      255
     768      3      251      248      253      256
     769      2      252      248      253      254
     770      3      252      248      253      255
     771      3      252      248      253      256
     772      1      253      254      259      260
     773      2      253      254      259      261
     774      2      253      254      259      262
     775      2      254      259      260      263
     776      2      254      259      260      264
     777      1      254      259      260      265
     778      3      255      253      254      257
     779      3      255      253      254      258
     780      2      255      253      254      259
     781      3      256      253      254      257
     782      3      256      253      254      258
     783      2      256      253      254      259
     784      2      257      254      259      260
     785      3      257      254      259      261
     786      3      257      254      259      262
     787      2      258      254      259      260
     788      3      258      254      259      261
     789      3      258      254      259      262
     790      1      259      260      265      266
     791      2      259      260      265      267
     792      2      259      260      265      268
     793      2      260      265      266      269
     794      2      260      265      266      270
     795      1      260      265      266      272
     796      3      261      259      260      263
     797      3      261      259      260      264
     798      2      261      259      260      265
     799      3      262      259      260      263
     800      3      262      259      260      264
     801      2      262      259      260      265
     802      2      263      260      265      266
     803      3      263      260      265      267
     804      3      263      260      265      268
     805      2      264      260      265      266
     806      3      264      260      265      267
     807      3      264      260      265      268
     808      1      265      266      272      271
     809      2      265      266      272      275
     810      2      265      266      272      276
     811      2      266      272      271      273
     812      2      266      272      271      274
     813      3      267      265      266      269
     814      3      267      265      266      270
     815      2      267      265      266      272
     816      3      268      265      266      269
     817      3      268      265      266      270
     818      2      268      265      266      272
     819      2      269      266      272      271
     820      3      269      266      272      275
     821      3      269      266      272      276
     822      2      270      266      272      271
     823      3      270      266      272      275
     824      3      270      266      272      276
     825      3      273      271      272      275
     826      3      273      271      272      276
     827      3      274      271      272      275
     828      3      274      271      272      276

Impropers


