LAMMPS data file generated by clean-room 1-hop pipeline

     236 atoms
     244 bonds
     456 angles
     684 dihedrals
      48 impropers

       6 atom types
       9 bond types
      16 angle types
      23 dihedral types
       2 improper types

  -34.616300    31.937500 xlo xhi
  -32.443400    29.902200 ylo yhi
  -36.446900    32.539000 zlo zhi

Masses

       1    12.011000
       2    12.011000
       3    12.011000
       4    12.011000
       5     1.008000
       6     1.008000

Pair Coeffs

       1     0.070000     3.550000
       2     0.070000     3.550000
       3     0.066000     3.500000
       4     0.066000     3.500000
       5     0.030000     2.420000
       6     0.030000     2.500000

Bond Coeffs

       1   469.000000     1.400000
       2   317.000000     1.510000
       3   469.000000     1.400000
       4   367.000000     1.080000
       5   268.000000     1.529000
       6   268.000000     1.529000
       7   340.000000     1.090000
       8   268.000000     1.529000
       9   340.000000     1.090000

Angle Coeffs

       1    63.000000   120.000000
       2    35.000000   120.000000
       3    63.000000   114.000000
       4    63.000000   114.000000
       5    35.000000   109.500000
       6    63.000000   120.000000
       7    70.000000   120.000000
       8    35.000000   120.000000
       9    37.500000   110.700000
      10    58.350000   112.700000
      11    37.500000   110.700000
      12    37.500000   110.700000
      13    58.350000   112.700000
      14    37.500000   110.700000
      15    33.000000   107.800000
      16    33.000000   107.800000

Dihedral Coeffs

       1     0.000000     7.250000     0.000000     0.000000
       2     0.000000     7.250000     0.000000     0.000000
       3     0.000000     0.000000     0.000000     0.000000
       4     0.000000     0.000000     0.462000     0.000000
       5     0.000000     0.000000     0.000000     0.000000
       6     0.000000     0.000000     0.462000     0.000000
       7     0.000000     7.250000     0.000000     0.000000
       8     0.000000     7.250000     0.000000     0.000000
       9    -0.250000     0.000000     0.000000     0.000000
      10    -0.250000     0.000000     0.000000     0.000000
      11     0.000000     0.000000     0.000000     0.000000
      12     0.000000     7.250000     0.000000     0.000000
      13     0.000000     7.250000     0.000000     0.000000
      14     0.850000    -0.200000     0.200000     0.000000
      15     0.850000    -0.200000     0.200000     0.000000
      16     0.000000     0.000000     0.300000     0.000000
      17     0.000000     0.000000     0.300000     0.000000
      18     0.850000    -0.200000     0.200000     0.000000
      19     0.000000     0.000000     0.300000     0.000000
      20     0.000000     7.250000     0.000000     0.000000
      21     0.000000     0.000000     0.300000     0.000000
      22     0.000000     0.000000     0.300000     0.000000
      23     0.000000     0.000000     0.300000     0.000000

Improper Coeffs

       1     2.500000   -1    2
       2     2.500000   -1    2

Atoms

       1    1      4  -0.19230048     7.662200     9.151100     2.478000
       2    1      3  -0.14390306     8.558000     8.895800     3.706000
       3    1      6   0.09890911     6.704000     9.669800     2.813100
       4    1      6   0.09890911     8.216400     9.821500     1.741000
       5    1      6   0.09890911     8.975400     9.902200     4.041100
       6    1      6   0.09890911     9.422500     8.203200     3.436000
       7    1      4  -0.19230048     7.368400     7.833100     1.742700
       8    1      4  -0.19230048     8.723800     7.369300     1.182800
       9    1      6   0.09890911     6.660100     8.031900     0.872100
      10    1      6   0.09890911     6.918700     7.052200     2.438800
      11    1      6   0.09890911     9.130400     8.198100     0.513900
      12    1      6   0.09890911     9.458700     7.180600     2.033600
      13    1      4  -0.19230048     8.560400     6.099000     0.333000
      14    1      4  -0.19230048     9.918500     5.803700    -0.327100
      15    1      6   0.09890911     7.788600     6.291100    -0.483600
      16    1      6   0.09890911     8.223000     5.224200     0.981700
      17    1      6   0.09890911    10.227300     6.706900    -0.950600
      18    1      6   0.09890911    10.709000     5.601600     0.468800
      19    1      4  -0.19230048     9.772700     4.584400    -1.250700
      20    1      3  -0.14390306    11.094700     4.334100    -1.998300
      21    1      6   0.09890911     8.953200     4.791000    -2.015900
      22    1      6   0.09890911     9.495000     3.665600    -0.635600
      23    1      6   0.09890911    11.355200     5.247700    -2.628100
      24    1      6   0.09890911    11.937500     4.115300    -1.262500
      25    1      3  -0.14390306     9.435300    -0.280600    -5.659100
      26    1      4  -0.19230048    10.246000    -1.587400    -5.614900
      27    1      6   0.09890911     9.368900     0.097100    -6.732600
      28    1      6   0.09890911     8.384400    -0.506000    -5.278900
      29    1      6   0.09890911    11.285500    -1.436200    -6.057100
      30    1      6   0.09890911    10.327900    -1.962600    -4.541400
      31    1      4  -0.19230048     9.418000    -2.577800    -6.449600
      32    1      4  -0.19230048    10.025700    -3.988500    -6.527100
      33    1      6   0.09890911     9.299500    -2.169900    -7.507500
      34    1      6   0.09890911     8.388700    -2.661100    -5.967000
      35    1      6   0.09890911    11.018900    -3.970100    -7.086700
      36    1      6   0.09890911    10.172500    -4.414600    -5.480100
      37    1      4  -0.19230048     8.972400    -4.818800    -7.281400
      38    1      4  -0.19230048     9.384100    -6.289900    -7.456300
      39    1      6   0.09890911     8.792200    -4.359200    -8.308800
      40    1      6   0.09890911     8.002400    -4.784400    -6.683300
      41    1      6   0.09890911    10.314300    -6.366700    -8.110600
      42    1      6   0.09890911     9.586800    -6.759800    -6.437600
      43    1      4  -0.19230048     8.187700    -6.997200    -8.117700
      44    1      3  -0.14390306     8.481900    -8.492100    -8.323500
      45    1      6   0.09890911     7.956900    -6.513400    -9.123700
      46    1      6   0.09890911     7.281800    -6.891800    -7.433600
      47    1      6   0.09890911     9.344900    -8.625300    -9.056400
      48    1      6   0.09890911     8.754600    -8.963700    -7.322300
      49    1      3  -0.14390306     3.371900   -11.350600   -10.206600
      50    1      3  -0.14390306     2.869200   -11.162500   -11.652700
      51    1      6   0.09890911     3.678200   -12.443400   -10.100200
      52    1      6   0.09890911     2.530700   -11.133500    -9.468300
      53    1      6   0.09890911     3.742500   -11.240600   -12.381500
      54    1      6   0.09890911     2.136100   -12.007800   -11.870300
      55    1      3  -0.14390306    -1.056900    -6.490300   -12.113000
      56    1      4  -0.19230048    -0.947700    -5.487500   -13.275500
      57    1      6   0.09890911    -2.035100    -7.063500   -12.232900
      58    1      6   0.09890911    -1.079200    -5.923500   -11.124200
      59    1      6   0.09890911    -0.018400    -4.837800   -13.158800
      60    1      6   0.09890911    -0.904300    -6.051400   -14.265700
      61    1      4  -0.19230048    -2.228100    -4.631600   -13.232300
      62    1      3  -0.14390306    -2.264600    -3.612500   -14.384500
      63    1      6   0.09890911    -3.125300    -5.327300   -13.334900
      64    1      6   0.09890911    -2.292200    -4.080800   -12.236100
      65    1      6   0.09890911    -1.410100    -2.865800   -14.275400
      66    1      6   0.09890911    -2.171400    -4.162400   -15.378800
      67    1      3  -0.14390306    -7.701600    -0.723700   -14.219700
      68    1      4  -0.19230048    -7.601300     0.445300   -13.222700
      69    1      6   0.09890911    -7.891700    -0.308800   -15.264500
      70    1      6   0.09890911    -8.560600    -1.411100   -13.921200
      71    1      6   0.09890911    -6.707000     1.095900   -13.499400
      72    1      6   0.09890911    -7.467200     0.043000   -12.164500
      73    1      4  -0.19230048    -8.881600     1.294400   -13.319800
      74    1      4  -0.19230048   -10.127700     0.460100   -12.970700
      75    1      6   0.09890911    -8.981000     1.676300   -14.389400
      76    1      6   0.09890911    -8.809800     2.181900   -12.608100
      77    1      6   0.09890911   -11.051800     1.111700   -13.115000
      78    1      6   0.09890911   -10.191100    -0.445200   -13.661000
      79    1      4  -0.19230048   -10.084200    -0.001100   -11.501600
      80    1      4  -0.19230048   -11.398300    -0.745700   -11.200900
      81    1      6   0.09890911   -10.009300     0.914300   -10.826400
      82    1      6   0.09890911    -9.187200    -0.682300   -11.324900
      83    1      6   0.09890911   -12.270100    -0.048800   -11.432000
      84    1      6   0.09890911   -11.472400    -1.672100   -11.861300
      85    1      4  -0.19230048   -11.486600    -1.155400    -9.718600
      86    1      3  -0.14390306   -12.850900    -1.834800    -9.496200
      87    1      6   0.09890911   -11.417000    -0.224400    -9.064300
      88    1      6   0.09890911   -10.641200    -1.873300    -9.454900
      89    1      6   0.09890911   -13.676600    -1.109400    -9.798700
      90    1      6   0.09890911   -12.918900    -2.772100   -10.141500
      91    1      3  -0.14390306   -13.841500    -3.351200    -3.610600
      92    1      4  -0.19230048   -12.516400    -3.828300    -2.991300
      93    1      6   0.09890911   -14.616300    -4.185700    -3.558800
      94    1      6   0.09890911   -14.221800    -2.436800    -3.045700
      95    1      6   0.09890911   -11.745500    -2.993000    -3.078400
      96    1      6   0.09890911   -12.144300    -4.744600    -3.558600
      97    1      4  -0.19230048   -12.696800    -4.184200    -1.504100
      98    1      3  -0.14390306   -11.319200    -4.626900    -0.982000
      99    1      6   0.09890911   -13.454000    -5.028000    -1.384600
     100    1      6   0.09890911   -13.049900    -3.264300    -0.931000
     101    1      6   0.09890911   -10.576000    -3.781000    -1.158900
     102    1      6   0.09890911   -10.976100    -5.550800    -1.555300
     103    1      3  -0.14390306   -10.546000    -5.770600     4.980700
     104    1      4  -0.19230048    -9.236000    -4.980700     5.153000
     105    1      6   0.09890911   -10.354600    -6.882800     5.142500
     106    1      6   0.09890911   -11.342600    -5.396300     5.705100
     107    1      6   0.09890911    -9.447700    -3.873300     4.984900
     108    1      6   0.09890911    -8.494800    -5.340700     4.365100
     109    1      4  -0.19230048    -8.590200    -5.170800     6.537200
     110    1      3  -0.14390306    -7.289700    -4.345300     6.529700
     111    1      6   0.09890911    -8.347600    -6.273400     6.696500
     112    1      6   0.09890911    -9.287700    -4.805200     7.361300
     113    1      6   0.09890911    -7.539800    -3.242600     6.384100
     114    1      6   0.09890911    -6.640200    -4.698200     5.662000
     115    1      3  -0.14390306    -3.913400    -5.015200    11.633700
     116    1      4  -0.19230048    -2.508400    -4.417000    11.434900
     117    1      6   0.09890911    -3.805900    -6.137600    11.800900
     118    1      6   0.09890911    -4.422100    -4.544600    12.539000
     119    1      6   0.09890911    -2.075600    -4.810600    10.456400
     120    1      6   0.09890911    -1.838500    -4.741400    12.298300
     121    1      4  -0.19230048    -2.538300    -2.877200    11.429800
     122    1      4  -0.19230048    -1.105200    -2.394800    11.134700
     123    1      6   0.09890911    -3.249900    -2.480300    10.632300
     124    1      6   0.09890911    -2.873300    -2.516000    12.457900
     125    1      6   0.09890911    -0.847800    -2.674100    10.059800
     126    1      6   0.09890911    -0.375900    -2.911900    11.842000
     127    1      4  -0.19230048    -0.955500    -0.875000    11.334100
     128    1      4  -0.19230048     0.451000    -0.478700    10.847700
     129    1      6   0.09890911    -1.731800    -0.311700    10.718000
     130    1      6   0.09890911    -1.088100    -0.626600    12.438800
     131    1      6   0.09890911     0.494300    -0.666100     9.724100
     132    1      6   0.09890911     1.246300    -1.110600    11.365200
     133    1      4  -0.19230048     0.737600     1.006600    11.131700
     134    1      4  -0.19230048     2.016700     1.413400    10.376100
     135    1      6   0.09890911    -0.120600     1.644900    10.737400
     136    1      6   0.09890911     0.849200     1.168300    12.254700
     137    1      6   0.09890911     1.802400     1.302700     9.261900
     138    1      6   0.09890911     2.900900     0.752500    10.660200
     139    1      4  -0.19230048     2.347600     2.883400    10.686300
     140    1      4  -0.19230048     3.365700     3.424000     9.665200
     141    1      6   0.09890911     1.399000     3.504700    10.570100
     142    1      6   0.09890911     2.732400     2.979000    11.755200
     143    1      6   0.09890911     2.874100     3.367000     8.638300
     144    1      6   0.09890911     4.339700     2.831400     9.658500
     145    1      4  -0.19230048     3.630200     4.897200    10.020200
     146    1      4  -0.19230048     4.235000     5.665000     8.830800
     147    1      6   0.09890911     2.626300     5.391500    10.238200
     148    1      6   0.09890911     4.288600     4.964200    10.948300
     149    1      6   0.09890911     3.480400     5.613300     7.977900
     150    1      6   0.09890911     5.236600     5.244600     8.485200
     151    1      4  -0.19230048     4.377200     7.124800     9.293800
     152    1      3  -0.14390306     4.487500     8.103600     8.110300
     153    1      6   0.09890911     3.420000     7.407300     9.845000
     154    1      6   0.09890911     5.259400     7.223200    10.009000
     155    1      6   0.09890911     4.528600     9.159300     8.538200
     156    1      6   0.09890911     3.535600     8.006100     7.490600
     157    1      1  -0.09142598    10.846300     3.126600    -2.914800
     158    1      2  -0.15141362    10.397500     1.786400    -2.306400
     159    1      2  -0.15141362     9.988700     0.626100    -3.228400
     160    1      1  -0.09142598    10.030000     0.809000    -4.754900
     161    1      2  -0.15141362    10.543700     2.126800    -5.364800
     162    1      2  -0.15141362    10.952900     3.287800    -4.441300
     163    1      5   0.16396156    10.337100     1.664500    -1.174600
     164    1      5   0.16396156     9.623700    -0.357200    -2.781100
     165    1      5   0.16396156    10.587800     2.254400    -6.497000
     166    1      5   0.16396156    11.301900     4.277100    -4.887700
     167    1      1  -0.09142598     7.203200    -9.160500    -8.860700
     168    1      2  -0.15141362     7.299700   -10.419300    -9.739700
     169    1      2  -0.15141362     6.016100   -11.108400   -10.236700
     170    1      1  -0.09142598     4.634600   -10.530900    -9.873200
     171    1      2  -0.15141362     4.541000    -9.235200    -9.044300
     172    1      2  -0.15141362     5.826900    -8.540100    -8.555000
     173    1      5   0.16396156     8.319900   -10.852600   -10.006400
     174    1      5   0.16396156     6.087700   -12.062300   -10.856500
     175    1      5   0.16396156     3.522400    -8.802000    -8.773500
     176    1      5   0.16396156     5.759100    -7.578400    -7.946300
     177    1      1  -0.09142598     2.078300    -9.857100   -11.861000
     178    1      2  -0.15141362     1.254300    -9.670600   -13.148900
     179    1      2  -0.15141362     0.258900    -8.502100   -13.264900
     180    1      1  -0.09142598     0.089200    -7.519300   -12.092100
     181    1      2  -0.15141362     0.995800    -7.638500   -10.852900
     182    1      2  -0.15141362     1.984300    -8.814100   -10.732800
     183    1      5   0.16396156     1.351400   -10.422000   -14.000500
     184    1      5   0.16396156    -0.377400    -8.385700   -14.203800
     185    1      5   0.16396156     0.904800    -6.881200   -10.005800
     186    1      5   0.16396156     2.612200    -8.935800    -9.791100
     187    1      1  -0.09142598    -3.623800    -2.889000   -14.337400
     188    1      2  -0.15141362    -4.593600    -3.005200   -15.527700
     189    1      2  -0.15141362    -5.963900    -2.305400   -15.476200
     190    1      1  -0.09142598    -6.369900    -1.496300   -14.230400
     191    1      2  -0.15141362    -5.397100    -1.372400   -13.043200
     192    1      2  -0.15141362    -4.026200    -2.074000   -13.093600
     193    1      5   0.16396156    -4.297200    -3.610700   -16.446900
     194    1      5   0.16396156    -6.676800    -2.383400   -16.362300
     195    1      5   0.16396156    -5.690000    -0.757500   -12.128900
     196    1      5   0.16396156    -3.309900    -1.990100   -12.210600
     197    1      1  -0.09142598   -13.045900    -2.213800    -8.016300
     198    1      2  -0.15141362   -13.077900    -3.695200    -7.597900
     199    1      2  -0.15141362   -13.342000    -4.075400    -6.129200
     200    1      1  -0.09142598   -13.567700    -2.973100    -5.077800
     201    1      2  -0.15141362   -13.548600    -1.492300    -5.497800
     202    1      2  -0.15141362   -13.286000    -1.112200    -6.967000
     203    1      5   0.16396156   -12.912800    -4.511100    -8.376500
     204    1      5   0.16396156   -13.369200    -5.172500    -5.820700
     205    1      5   0.16396156   -13.728900    -0.677500    -4.721200
     206    1      5   0.16396156   -13.274700    -0.015600    -7.279000
     207    1      1  -0.09142598   -11.345600    -4.939900     0.524900
     208    1      2  -0.15141362   -11.178200    -6.390900     1.013100
     209    1      2  -0.15141362   -10.988800    -6.680300     2.514000
     210    1      1  -0.09142598   -10.956100    -5.515400     3.520500
     211    1      2  -0.15141362   -11.230500    -4.077500     3.044700
     212    1      2  -0.15141362   -11.420500    -3.789100     1.544400
     213    1      5   0.16396156   -11.161900    -7.247000     0.260700
     214    1      5   0.16396156   -10.833700    -7.750800     2.874100
     215    1      5   0.16396156   -11.254100    -3.222000     3.798200
     216    1      5   0.16396156   -11.585400    -2.720100     1.185200
     217    1      1  -0.09142598    -6.498000    -4.531900     7.836400
     218    1      2  -0.15141362    -5.590000    -5.761900     8.004700
     219    1      2  -0.15141362    -4.724200    -5.911200     9.267800
     220    1      1  -0.09142598    -4.748000    -4.820900    10.354200
     221    1      2  -0.15141362    -5.664700    -3.593700    10.192800
     222    1      2  -0.15141362    -6.532400    -3.443900     8.927200
     223    1      5   0.16396156    -5.555500    -6.560400     7.191800
     224    1      5   0.16396156    -4.061500    -6.829500     9.398400
     225    1      5   0.16396156    -5.698400    -2.795500    11.006200
     226    1      5   0.16396156    -7.196400    -2.526500     8.795800
     227    1      1  -0.09142598     7.726500     8.365200     4.891100
     228    1      2  -0.15141362     6.495300     7.468600     4.654100
     229    1      2  -0.15141362     5.477800     7.247000     5.790900
     230    1      1  -0.09142598     5.680000     7.943700     7.150100
     231    1      2  -0.15141362     6.988300     8.702000     7.432100
     232    1      2  -0.15141362     8.013700     8.907500     6.303300
     233    1      5   0.16396156     6.308900     7.010600     3.628300
     234    1      5   0.16396156     4.541200     6.624200     5.603800
     235    1      5   0.16396156     7.170500     9.164100     8.458000
     236    1      5   0.16396156     8.958200     9.515400     6.498100

Bonds

       1      6        1        2
       2      9        1        3
       3      9        1        4
       4      8        1        7
       5      7        2        5
       6      7        2        6
       7      2        2      227
       8      8        7        8
       9      9        7        9
      10      9        7       10
      11      9        8       11
      12      9        8       12
      13      8        8       13
      14      8       13       14
      15      9       13       15
      16      9       13       16
      17      9       14       17
      18      9       14       18
      19      8       14       19
      20      6       19       20
      21      9       19       21
      22      9       19       22
      23      7       20       23
      24      7       20       24
      25      2       20      157
      26      6       25       26
      27      7       25       27
      28      7       25       28
      29      2       25      160
      30      9       26       29
      31      9       26       30
      32      8       26       31
      33      8       31       32
      34      9       31       33
      35      9       31       34
      36      9       32       35
      37      9       32       36
      38      8       32       37
      39      8       37       38
      40      9       37       39
      41      9       37       40
      42      9       38       41
      43      9       38       42
      44      8       38       43
      45      6       43       44
      46      9       43       45
      47      9       43       46
      48      7       44       47
      49      7       44       48
      50      2       44      167
      51      5       49       50
      52      7       49       51
      53      7       49       52
      54      2       49      170
      55      7       50       53
      56      7       50       54
      57      2       50      177
      58      6       55       56
      59      7       55       57
      60      7       55       58
      61      2       55      180
      62      9       56       59
      63      9       56       60
      64      8       56       61
      65      6       61       62
      66      9       61       63
      67      9       61       64
      68      7       62       65
      69      7       62       66
      70      2       62      187
      71      6       67       68
      72      7       67       69
      73      7       67       70
      74      2       67      190
      75      9       68       71
      76      9       68       72
      77      8       68       73
      78      8       73       74
      79      9       73       75
      80      9       73       76
      81      9       74       77
      82      9       74       78
      83      8       74       79
      84      8       79       80
      85      9       79       81
      86      9       79       82
      87      9       80       83
      88      9       80       84
      89      8       80       85
      90      6       85       86
      91      9       85       87
      92      9       85       88
      93      7       86       89
      94      7       86       90
      95      2       86      197
      96      6       91       92
      97      7       91       93
      98      7       91       94
      99      2       91      200
     100      9       92       95
     101      9       92       96
     102      8       92       97
     103      6       97       98
     104      9       97       99
     105      9       97      100
     106      7       98      101
     107      7       98      102
     108      2       98      207
     109      6      103      104
     110      7      103      105
     111      7      103      106
     112      2      103      210
     113      9      104      107
     114      9      104      108
     115      8      104      109
     116      6      109      110
     117      9      109      111
     118      9      109      112
     119      7      110      113
     120      7      110      114
     121      2      110      217
     122      6      115      116
     123      7      115      117
     124      7      115      118
     125      2      115      220
     126      9      116      119
     127      9      116      120
     128      8      116      121
     129      8      121      122
     130      9      121      123
     131      9      121      124
     132      9      122      125
     133      9      122      126
     134      8      122      127
     135      8      127      128
     136      9      127      129
     137      9      127      130
     138      9      128      131
     139      9      128      132
     140      8      128      133
     141      8      133      134
     142      9      133      135
     143      9      133      136
     144      9      134      137
     145      9      134      138
     146      8      134      139
     147      8      139      140
     148      9      139      141
     149      9      139      142
     150      9      140      143
     151      9      140      144
     152      8      140      145
     153      8      145      146
     154      9      145      147
     155      9      145      148
     156      9      146      149
     157      9      146      150
     158      8      146      151
     159      6      151      152
     160      9      151      153
     161      9      151      154
     162      7      152      155
     163      7      152      156
     164      2      152      230
     165      1      157      158
     166      3      158      159
     167      4      158      163
     168      1      159      160
     169      4      159      164
     170      1      160      161
     171      3      161      162
     172      4      161      165
     173      1      162      157
     174      4      162      166
     175      1      167      168
     176      3      168      169
     177      4      168      173
     178      1      169      170
     179      4      169      174
     180      1      170      171
     181      3      171      172
     182      4      171      175
     183      1      172      167
     184      4      172      176
     185      1      177      178
     186      3      178      179
     187      4      178      183
     188      1      179      180
     189      4      179      184
     190      1      180      181
     191      3      181      182
     192      4      181      185
     193      1      182      177
     194      4      182      186
     195      1      187      188
     196      3      188      189
     197      4      188      193
     198      1      189      190
     199      4      189      194
     200      1      190      191
     201      3      191      192
     202      4      191      195
     203      1      192      187
     204      4      192      196
     205      1      197      198
     206      3      198      199
     207      4      198      203
     208      1      199      200
     209      4      199      204
     210      1      200      201
     211      3      201      202
     212      4      201      205
     213      1      202      197
     214      4      202      206
     215      1      207      208
     216      3      208      209
     217      4      208      213
     218      1      209      210
     219      4      209      214
     220      1      210      211
     221      3      211      212
     222      4      211      215
     223      1      212      207
     224      4      212      216
     225      1      217      218
     226      3      218      219
     227      4      218      223
     228      1      219      220
     229      4      219      224
     230      1      220      221
     231      3      221      222
     232      4      221      225
     233      1      222      217
     234      4      222      226
     235      1      227      228
     236      3      228      229
     237      4      228      233
     238      1      229      230
     239      4      229      234
     240      1      230      231
     241      3      231      232
     242      4      231      235
     243      1      232      227
     244      4      232      236

Angles

       1     12        1        2        5
       2     12        1        2        6
       3      4        1        2      227
       4     13        1        7        8
       5     14        1        7        9
       6     14        1        7       10
       7     11        2        1        3
       8     11        2        1        4
       9     10        2        1        7
      10      7        2      227      228
      11      7        2      227      232
      12     16        3        1        4
      13     14        3        1        7
      14     14        4        1        7
      15     15        5        2        6
      16      5        5        2      227
      17      5        6        2      227
      18     14        7        8       11
      19     14        7        8       12
      20     13        7        8       13
      21     14        8        7        9
      22     14        8        7       10
      23     13        8       13       14
      24     14        8       13       15
      25     14        8       13       16
      26     16        9        7       10
      27     16       11        8       12
      28     14       11        8       13
      29     14       12        8       13
      30     14       13       14       17
      31     14       13       14       18
      32     13       13       14       19
      33     14       14       13       15
      34     14       14       13       16
      35     10       14       19       20
      36     14       14       19       21
      37     14       14       19       22
      38     16       15       13       16
      39     16       17       14       18
      40     14       17       14       19
      41     14       18       14       19
      42     12       19       20       23
      43     12       19       20       24
      44      4       19       20      157
      45     11       20       19       21
      46     11       20       19       22
      47      7       20      157      158
      48      7       20      157      162
      49     16       21       19       22
      50     15       23       20       24
      51      5       23       20      157
      52      5       24       20      157
      53     11       25       26       29
      54     11       25       26       30
      55     10       25       26       31
      56      7       25      160      159
      57      7       25      160      161
      58     12       26       25       27
      59     12       26       25       28
      60      4       26       25      160
      61     13       26       31       32
      62     14       26       31       33
      63     14       26       31       34
      64     15       27       25       28
      65      5       27       25      160
      66      5       28       25      160
      67     16       29       26       30
      68     14       29       26       31
      69     14       30       26       31
      70     14       31       32       35
      71     14       31       32       36
      72     13       31       32       37
      73     14       32       31       33
      74     14       32       31       34
      75     13       32       37       38
      76     14       32       37       39
      77     14       32       37       40
      78     16       33       31       34
      79     16       35       32       36
      80     14       35       32       37
      81     14       36       32       37
      82     14       37       38       41
      83     14       37       38       42
      84     13       37       38       43
      85     14       38       37       39
      86     14       38       37       40
      87     10       38       43       44
      88     14       38       43       45
      89     14       38       43       46
      90     16       39       37       40
      91     16       41       38       42
      92     14       41       38       43
      93     14       42       38       43
      94     12       43       44       47
      95     12       43       44       48
      96      4       43       44      167
      97     11       44       43       45
      98     11       44       43       46
      99      7       44      167      168
     100      7       44      167      172
     101     16       45       43       46
     102     15       47       44       48
     103      5       47       44      167
     104      5       48       44      167
     105      9       49       50       53
     106      9       49       50       54
     107      3       49       50      177
     108      7       49      170      169
     109      7       49      170      171
     110      9       50       49       51
     111      9       50       49       52
     112      3       50       49      170
     113      7       50      177      178
     114      7       50      177      182
     115     15       51       49       52
     116      5       51       49      170
     117      5       52       49      170
     118     15       53       50       54
     119      5       53       50      177
     120      5       54       50      177
     121     11       55       56       59
     122     11       55       56       60
     123     10       55       56       61
     124      7       55      180      179
     125      7       55      180      181
     126     12       56       55       57
     127     12       56       55       58
     128      4       56       55      180
     129     10       56       61       62
     130     14       56       61       63
     131     14       56       61       64
     132     15       57       55       58
     133      5       57       55      180
     134      5       58       55      180
     135     16       59       56       60
     136     14       59       56       61
     137     14       60       56       61
     138     12       61       62       65
     139     12       61       62       66
     140      4       61       62      187
     141     11       62       61       63
     142     11       62       61       64
     143      7       62      187      188
     144      7       62      187      192
     145     16       63       61       64
     146     15       65       62       66
     147      5       65       62      187
     148      5       66       62      187
     149     11       67       68       71
     150     11       67       68       72
     151     10       67       68       73
     152      7       67      190      189
     153      7       67      190      191
     154     12       68       67       69
     155     12       68       67       70
     156      4       68       67      190
     157     13       68       73       74
     158     14       68       73       75
     159     14       68       73       76
     160     15       69       67       70
     161      5       69       67      190
     162      5       70       67      190
     163     16       71       68       72
     164     14       71       68       73
     165     14       72       68       73
     166     14       73       74       77
     167     14       73       74       78
     168     13       73       74       79
     169     14       74       73       75
     170     14       74       73       76
     171     13       74       79       80
     172     14       74       79       81
     173     14       74       79       82
     174     16       75       73       76
     175     16       77       74       78
     176     14       77       74       79
     177     14       78       74       79
     178     14       79       80       83
     179     14       79       80       84
     180     13       79       80       85
     181     14       80       79       81
     182     14       80       79       82
     183     10       80       85       86
     184     14       80       85       87
     185     14       80       85       88
     186     16       81       79       82
     187     16       83       80       84
     188     14       83       80       85
     189     14       84       80       85
     190     12       85       86       89
     191     12       85       86       90
     192      4       85       86      197
     193     11       86       85       87
     194     11       86       85       88
     195      7       86      197      198
     196      7       86      197      202
     197     16       87       85       88
     198     15       89       86       90
     199      5       89       86      197
     200      5       90       86      197
     201     11       91       92       95
     202     11       91       92       96
     203     10       91       92       97
     204      7       91      200      199
     205      7       91      200      201
     206     12       92       91       93
     207     12       92       91       94
     208      4       92       91      200
     209     10       92       97       98
     210     14       92       97       99
     211     14       92       97      100
     212     15       93       91       94
     213      5       93       91      200
     214      5       94       91      200
     215     16       95       92       96
     216     14       95       92       97
     217     14       96       92       97
     218     12       97       98      101
     219     12       97       98      102
     220      4       97       98      207
     221     11       98       97       99
     222     11       98       97      100
     223      7       98      207      208
     224      7       98      207      212
     225     16       99       97      100
     226     15      101       98      102
     227      5      101       98      207
     228      5      102       98      207
     229     11      103      104      107
     230     11      103      104      108
     231     10      103      104      109
     232      7      103      210      209
     233      7      103      210      211
     234     12      104      103      105
     235     12      104      103      106
     236      4      104      103      210
     237     10      104      109      110
     238     14      104      109      111
     239     14      104      109      112
     240     15      105      103      106
     241      5      105      103      210
     242      5      106      103      210
     243     16      107      104      108
     244     14      107      104      109
     245     14      108      104      109
     246     12      109      110      113
     247     12      109      110      114
     248      4      109      110      217
     249     11      110      109      111
     250     11      110      109      112
     251      7      110      217      218
     252      7      110      217      222
     253     16      111      109      112
     254     15      113      110      114
     255      5      113      110      217
     256      5      114      110      217
     257     11      115      116      119
     258     11      115      116      120
     259     10      115      116      121
     260      7      115      220      219
     261      7      115      220      221
     262     12      116      115      117
     263     12      116      115      118
     264      4      116      115      220
     265     13      116      121      122
     266     14      116      121      123
     267     14      116      121      124
     268     15      117      115      118
     269      5      117      115      220
     270      5      118      115      220
     271     16      119      116      120
     272     14      119      116      121
     273     14      120      116      121
     274     14      121      122      125
     275     14      121      122      126
     276     13      121      122      127
     277     14      122      121      123
     278     14      122      121      124
     279     13      122      127      128
     280     14      122      127      129
     281     14      122      127      130
     282     16      123      121      124
     283     16      125      122      126
     284     14      125      122      127
     285     14      126      122      127
     286     14      127      128      131
     287     14      127      128      132
     288     13      127      128      133
     289     14      128      127      129
     290     14      128      127      130
     291     13      128      133      134
     292     14      128      133      135
     293     14      128      133      136
     294     16      129      127      130
     295     16      131      128      132
     296     14      131      128      133
     297     14      132      128      133
     298     14      133      134      137
     299     14      133      134      138
     300     13      133      134      139
     301     14      134      133      135
     302     14      134      133      136
     303     13      134      139      140
     304     14      134      139      141
     305     14      134      139      142
     306     16      135      133      136
     307     16      137      134      138
     308     14      137      134      139
     309     14      138      134      139
     310     14      139      140      143
     311     14      139      140      144
     312     13      139      140      145
     313     14      140      139      141
     314     14      140      139      142
     315     13      140      145      146
     316     14      140      145      147
     317     14      140      145      148
     318     16      141      139      142
     319     16      143      140      144
     320     14      143      140      145
     321     14      144      140      145
     322     14      145      146      149
     323     14      145      146      150
     324     13      145      146      151
     325     14      146      145      147
     326     14      146      145      148
     327     10      146      151      152
     328     14      146      151      153
     329     14      146      151      154
     330     16      147      145      148
     331     16      149      146      150
     332     14      149      146      151
     333     14      150      146      151
     334     12      151      152      155
     335     12      151      152      156
     336      4      151      152      230
     337     11      152      151      153
     338     11      152      151      154
     339      7      152      230      229
     340      7      152      230      231
     341     16      153      151      154
     342     15      155      152      156
     343      5      155      152      230
     344      5      156      152      230
     345      1      157      158      159
     346      2      157      158      163
     347      1      157      162      161
     348      2      157      162      166
     349      6      158      157      162
     350      1      158      159      160
     351      8      158      159      164
     352      8      159      158      163
     353      6      159      160      161
     354      2      160      159      164
     355      1      160      161      162
     356      2      160      161      165
     357      8      161      162      166
     358      8      162      161      165
     359      1      167      168      169
     360      2      167      168      173
     361      1      167      172      171
     362      2      167      172      176
     363      6      168      167      172
     364      1      168      169      170
     365      8      168      169      174
     366      8      169      168      173
     367      6      169      170      171
     368      2      170      169      174
     369      1      170      171      172
     370      2      170      171      175
     371      8      171      172      176
     372      8      172      171      175
     373      1      177      178      179
     374      2      177      178      183
     375      1      177      182      181
     376      2      177      182      186
     377      6      178      177      182
     378      1      178      179      180
     379      8      178      179      184
     380      8      179      178      183
     381      6      179      180      181
     382      2      180      179      184
     383      1      180      181      182
     384      2      180      181      185
     385      8      181      182      186
     386      8      182      181      185
     387      1      187      188      189
     388      2      187      188      193
     389      1      187      192      191
     390      2      187      192      196
     391      6      188      187      192
     392      1      188      189      190
     393      8      188      189      194
     394      8      189      188      193
     395      6      189      190      191
     396      2      190      189      194
     397      1      190      191      192
     398      2      190      191      195
     399      8      191      192      196
     400      8      192      191      195
     401      1      197      198      199
     402      2      197      198      203
     403      1      197      202      201
     404      2      197      202      206
     405      6      198      197      202
     406      1      198      199      200
     407      8      198      199      204
     408      8      199      198      203
     409      6      199      200      201
     410      2      200      199      204
     411      1      200      201      202
     412      2      200      201      205
     413      8      201      202      206
     414      8      202      201      205
     415      1      207      208      209
     416      2      207      208      213
     417      1      207      212      211
     418      2      207      212      216
     419      6      208      207      212
     420      1      208      209      210
     421      8      208      209      214
     422      8      209      208      213
     423      6      209      210      211
     424      2      210      209      214
     425      1      210      211      212
     426      2      210      211      215
     427      8      211      212      216
     428      8      212      211      215
     429      1      217      218      219
     430      2      217      218      223
     431      1      217      222      221
     432      2      217      222      226
     433      6      218      217      222
     434      1      218      219      220
     435      8      218      219      224
     436      8      219      218      223
     437      6      219      220      221
     438      2      220      219      224
     439      1      220      221      222
     440      2      220      221      225
     441      8      221      222      226
     442      8      222      221      225
     443      1      227      228      229
     444      2      227      228      233
     445      1      227      232      231
     446      2      227      232      236
     447      6      228      227      232
     448      1      228      229      230
     449      8      228      229      234
     450      8      229      228      233
     451      6      229      230      231
     452      2      230      229      234
     453      1      230      231      232
     454      2      230      231      235
     455      8      231      232      236
     456      8      232      231      235

Dihedrals

       1     10        1        2      227      228
       2     10        1        2      227      232
       3     19        1        7        8       11
       4     19        1        7        8       12
       5     18        1        7        8       13
       6     15        2        1        7        8
       7     16        2        1        7        9
       8     16        2        1        7       10
       9     12        2      227      228      229
      10     13        2      227      228      233
      11     12        2      227      232      231
      12     13        2      227      232      236
      13     22        3        1        2        5
      14     22        3        1        2        6
      15      6        3        1        2      227
      16     19        3        1        7        8
      17     23        3        1        7        9
      18     23        3        1        7       10
      19     22        4        1        2        5
      20     22        4        1        2        6
      21      6        4        1        2      227
      22     19        4        1        7        8
      23     23        4        1        7        9
      24     23        4        1        7       10
      25     17        5        2        1        7
      26     11        5        2      227      228
      27     11        5        2      227      232
      28     17        6        2        1        7
      29     11        6        2      227      228
      30     11        6        2      227      232
      31      5        7        1        2      227
      32     18        7        8       13       14
      33     19        7        8       13       15
      34     19        7        8       13       16
      35     19        8       13       14       17
      36     19        8       13       14       18
      37     18        8       13       14       19
      38     23        9        7        8       11
      39     23        9        7        8       12
      40     19        9        7        8       13
      41     23       10        7        8       11
      42     23       10        7        8       12
      43     19       10        7        8       13
      44     19       11        8       13       14
      45     23       11        8       13       15
      46     23       11        8       13       16
      47     19       12        8       13       14
      48     23       12        8       13       15
      49     23       12        8       13       16
      50     15       13       14       19       20
      51     19       13       14       19       21
      52     19       13       14       19       22
      53     17       14       19       20       23
      54     17       14       19       20       24
      55      5       14       19       20      157
      56     23       15       13       14       17
      57     23       15       13       14       18
      58     19       15       13       14       19
      59     23       16       13       14       17
      60     23       16       13       14       18
      61     19       16       13       14       19
      62     16       17       14       19       20
      63     23       17       14       19       21
      64     23       17       14       19       22
      65     16       18       14       19       20
      66     23       18       14       19       21
      67     23       18       14       19       22
      68     10       19       20      157      158
      69     10       19       20      157      162
      70     12       20      157      158      159
      71     13       20      157      158      163
      72     12       20      157      162      161
      73     13       20      157      162      166
      74     22       21       19       20       23
      75     22       21       19       20       24
      76      6       21       19       20      157
      77     22       22       19       20       23
      78     22       22       19       20       24
      79      6       22       19       20      157
      80     11       23       20      157      158
      81     11       23       20      157      162
      82     11       24       20      157      158
      83     11       24       20      157      162
      84     15       25       26       31       32
      85     16       25       26       31       33
      86     16       25       26       31       34
      87     12       25      160      159      158
      88     13       25      160      159      164
      89     12       25      160      161      162
      90     13       25      160      161      165
      91     10       26       25      160      159
      92     10       26       25      160      161
      93     19       26       31       32       35
      94     19       26       31       32       36
      95     18       26       31       32       37
      96     22       27       25       26       29
      97     22       27       25       26       30
      98     17       27       25       26       31
      99     11       27       25      160      159
     100     11       27       25      160      161
     101     22       28       25       26       29
     102     22       28       25       26       30
     103     17       28       25       26       31
     104     11       28       25      160      159
     105     11       28       25      160      161
     106      6       29       26       25      160
     107     19       29       26       31       32
     108     23       29       26       31       33
     109     23       29       26       31       34
     110      6       30       26       25      160
     111     19       30       26       31       32
     112     23       30       26       31       33
     113     23       30       26       31       34
     114      5       31       26       25      160
     115     18       31       32       37       38
     116     19       31       32       37       39
     117     19       31       32       37       40
     118     19       32       37       38       41
     119     19       32       37       38       42
     120     18       32       37       38       43
     121     23       33       31       32       35
     122     23       33       31       32       36
     123     19       33       31       32       37
     124     23       34       31       32       35
     125     23       34       31       32       36
     126     19       34       31       32       37
     127     19       35       32       37       38
     128     23       35       32       37       39
     129     23       35       32       37       40
     130     19       36       32       37       38
     131     23       36       32       37       39
     132     23       36       32       37       40
     133     15       37       38       43       44
     134     19       37       38       43       45
     135     19       37       38       43       46
     136     17       38       43       44       47
     137     17       38       43       44       48
     138      5       38       43       44      167
     139     23       39       37       38       41
     140     23       39       37       38       42
     141     19       39       37       38       43
     142     23       40       37       38       41
     143     23       40       37       38       42
     144     19       40       37       38       43
     145     16       41       38       43       44
     146     23       41       38       43       45
     147     23       41       38       43       46
     148     16       42       38       43       44
     149     23       42       38       43       45
     150     23       42       38       43       46
     151     10       43       44      167      168
     152     10       43       44      167      172
     153     12       44      167      168      169
     154     13       44      167      168      173
     155     12       44      167      172      171
     156     13       44      167      172      176
     157     22       45       43       44       47
     158     22       45       43       44       48
     159      6       45       43       44      167
     160     22       46       43       44       47
     161     22       46       43       44       48
     162      6       46       43       44      167
     163     11       47       44      167      168
     164     11       47       44      167      172
     165     11       48       44      167      168
     166     11       48       44      167      172
     167      9       49       50      177      178
     168      9       49       50      177      182
     169     12       49      170      169      168
     170     13       49      170      169      174
     171     12       49      170      171      172
     172     13       49      170      171      175
     173      9       50       49      170      169
     174      9       50       49      170      171
     175     12       50      177      178      179
     176     13       50      177      178      183
     177     12       50      177      182      181
     178     13       50      177      182      186
     179     21       51       49       50       53
     180     21       51       49       50       54
     181      4       51       49       50      177
     182     11       51       49      170      169
     183     11       51       49      170      171
     184     21       52       49       50       53
     185     21       52       49       50       54
     186      4       52       49       50      177
     187     11       52       49      170      169
     188     11       52       49      170      171
     189      4       53       50       49      170
     190     11       53       50      177      178
     191     11       53       50      177      182
     192      4       54       50       49      170
     193     11       54       50      177      178
     194     11       54       50      177      182
     195     14       55       56       61       62
     196     16       55       56       61       63
     197     16       55       56       61       64
     198     12       55      180      179      178
     199     13       55      180      179      184
     200     12       55      180      181      182
     201     13       55      180      181      185
     202     10       56       55      180      179
     203     10       56       55      180      181
     204     17       56       61       62       65
     205     17       56       61       62       66
     206      5       56       61       62      187
     207     22       57       55       56       59
     208     22       57       55       56       60
     209     17       57       55       56       61
     210     11       57       55      180      179
     211     11       57       55      180      181
     212     22       58       55       56       59
     213     22       58       55       56       60
     214     17       58       55       56       61
     215     11       58       55      180      179
     216     11       58       55      180      181
     217      6       59       56       55      180
     218     16       59       56       61       62
     219     23       59       56       61       63
     220     23       59       56       61       64
     221      6       60       56       55      180
     222     16       60       56       61       62
     223     23       60       56       61       63
     224     23       60       56       61       64
     225      5       61       56       55      180
     226     10       61       62      187      188
     227     10       61       62      187      192
     228     12       62      187      188      189
     229     13       62      187      188      193
     230     12       62      187      192      191
     231     13       62      187      192      196
     232     22       63       61       62       65
     233     22       63       61       62       66
     234      6       63       61       62      187
     235     22       64       61       62       65
     236     22       64       61       62       66
     237      6       64       61       62      187
     238     11       65       62      187      188
     239     11       65       62      187      192
     240     11       66       62      187      188
     241     11       66       62      187      192
     242     15       67       68       73       74
     243     16       67       68       73       75
     244     16       67       68       73       76
     245     12       67      190      189      188
     246     13       67      190      189      194
     247     12       67      190      191      192
     248     13       67      190      191      195
     249     10       68       67      190      189
     250     10       68       67      190      191
     251     19       68       73       74       77
     252     19       68       73       74       78
     253     18       68       73       74       79
     254     22       69       67       68       71
     255     22       69       67       68       72
     256     17       69       67       68       73
     257     11       69       67      190      189
     258     11       69       67      190      191
     259     22       70       67       68       71
     260     22       70       67       68       72
     261     17       70       67       68       73
     262     11       70       67      190      189
     263     11       70       67      190      191
     264      6       71       68       67      190
     265     19       71       68       73       74
     266     23       71       68       73       75
     267     23       71       68       73       76
     268      6       72       68       67      190
     269     19       72       68       73       74
     270     23       72       68       73       75
     271     23       72       68       73       76
     272      5       73       68       67      190
     273     18       73       74       79       80
     274     19       73       74       79       81
     275     19       73       74       79       82
     276     19       74       79       80       83
     277     19       74       79       80       84
     278     18       74       79       80       85
     279     23       75       73       74       77
     280     23       75       73       74       78
     281     19       75       73       74       79
     282     23       76       73       74       77
     283     23       76       73       74       78
     284     19       76       73       74       79
     285     19       77       74       79       80
     286     23       77       74       79       81
     287     23       77       74       79       82
     288     19       78       74       79       80
     289     23       78       74       79       81
     290     23       78       74       79       82
     291     15       79       80       85       86
     292     19       79       80       85       87
     293     19       79       80       85       88
     294     17       80       85       86       89
     295     17       80       85       86       90
     296      5       80       85       86      197
     297     23       81       79       80       83
     298     23       81       79       80       84
     299     19       81       79       80       85
     300     23       82       79       80       83
     301     23       82       79       80       84
     302     19       82       79       80       85
     303     16       83       80       85       86
     304     23       83       80       85       87
     305     23       83       80       85       88
     306     16       84       80       85       86
     307     23       84       80       85       87
     308     23       84       80       85       88
     309     10       85       86      197      198
     310     10       85       86      197      202
     311     12       86      197      198      199
     312     13       86      197      198      203
     313     12       86      197      202      201
     314     13       86      197      202      206
     315     22       87       85       86       89
     316     22       87       85       86       90
     317      6       87       85       86      197
     318     22       88       85       86       89
     319     22       88       85       86       90
     320      6       88       85       86      197
     321     11       89       86      197      198
     322     11       89       86      197      202
     323     11       90       86      197      198
     324     11       90       86      197      202
     325     14       91       92       97       98
     326     16       91       92       97       99
     327     16       91       92       97      100
     328     12       91      200      199      198
     329     13       91      200      199      204
     330     12       91      200      201      202
     331     13       91      200      201      205
     332     10       92       91      200      199
     333     10       92       91      200      201
     334     17       92       97       98      101
     335     17       92       97       98      102
     336      5       92       97       98      207
     337     22       93       91       92       95
     338     22       93       91       92       96
     339     17       93       91       92       97
     340     11       93       91      200      199
     341     11       93       91      200      201
     342     22       94       91       92       95
     343     22       94       91       92       96
     344     17       94       91       92       97
     345     11       94       91      200      199
     346     11       94       91      200      201
     347      6       95       92       91      200
     348     16       95       92       97       98
     349     23       95       92       97       99
     350     23       95       92       97      100
     351      6       96       92       91      200
     352     16       96       92       97       98
     353     23       96       92       97       99
     354     23       96       92       97      100
     355      5       97       92       91      200
     356     10       97       98      207      208
     357     10       97       98      207      212
     358     12       98      207      208      209
     359     13       98      207      208      213
     360     12       98      207      212      211
     361     13       98      207      212      216
     362     22       99       97       98      101
     363     22       99       97       98      102
     364      6       99       97       98      207
     365     22      100       97       98      101
     366     22      100       97       98      102
     367      6      100       97       98      207
     368     11      101       98      207      208
     369     11      101       98      207      212
     370     11      102       98      207      208
     371     11      102       98      207      212
     372     14      103      104      109      110
     373     16      103      104      109      111
     374     16      103      104      109      112
     375     12      103      210      209      208
     376     13      103      210      209      214
     377     12      103      210      211      212
     378     13      103      210      211      215
     379     10      104      103      210      209
     380     10      104      103      210      211
     381     17      104      109      110      113
     382     17      104      109      110      114
     383      5      104      109      110      217
     384     22      105      103      104      107
     385     22      105      103      104      108
     386     17      105      103      104      109
     387     11      105      103      210      209
     388     11      105      103      210      211
     389     22      106      103      104      107
     390     22      106      103      104      108
     391     17      106      103      104      109
     392     11      106      103      210      209
     393     11      106      103      210      211
     394      6      107      104      103      210
     395     16      107      104      109      110
     396     23      107      104      109      111
     397     23      107      104      109      112
     398      6      108      104      103      210
     399     16      108      104      109      110
     400     23      108      104      109      111
     401     23      108      104      109      112
     402      5      109      104      103      210
     403     10      109      110      217      218
     404     10      109      110      217      222
     405     12      110      217      218      219
     406     13      110      217      218      223
     407     12      110      217      222      221
     408     13      110      217      222      226
     409     22      111      109      110      113
     410     22      111      109      110      114
     411      6      111      109      110      217
     412     22      112      109      110      113
     413     22      112      109      110      114
     414      6      112      109      110      217
     415     11      113      110      217      218
     416     11      113      110      217      222
     417     11      114      110      217      218
     418     11      114      110      217      222
     419     15      115      116      121      122
     420     16      115      116      121      123
     421     16      115      116      121      124
     422     12      115      220      219      218
     423     13      115      220      219      224
     424     12      115      220      221      222
     425     13      115      220      221      225
     426     10      116      115      220      219
     427     10      116      115      220      221
     428     19      116      121      122      125
     429     19      116      121      122      126
     430     18      116      121      122      127
     431     22      117      115      116      119
     432     22      117      115      116      120
     433     17      117      115      116      121
     434     11      117      115      220      219
     435     11      117      115      220      221
     436     22      118      115      116      119
     437     22      118      115      116      120
     438     17      118      115      116      121
     439     11      118      115      220      219
     440     11      118      115      220      221
     441      6      119      116      115      220
     442     19      119      116      121      122
     443     23      119      116      121      123
     444     23      119      116      121      124
     445      6      120      116      115      220
     446     19      120      116      121      122
     447     23      120      116      121      123
     448     23      120      116      121      124
     449      5      121      116      115      220
     450     18      121      122      127      128
     451     19      121      122      127      129
     452     19      121      122      127      130
     453     19      122      127      128      131
     454     19      122      127      128      132
     455     18      122      127      128      133
     456     23      123      121      122      125
     457     23      123      121      122      126
     458     19      123      121      122      127
     459     23      124      121      122      125
     460     23      124      121      122      126
     461     19      124      121      122      127
     462     19      125      122      127      128
     463     23      125      122      127      129
     464     23      125      122      127      130
     465     19      126      122      127      128
     466     23      126      122      127      129
     467     23      126      122      127      130
     468     18      127      128      133      134
     469     19      127      128      133      135
     470     19      127      128      133      136
     471     19      128      133      134      137
     472     19      128      133      134      138
     473     18      128      133      134      139
     474     23      129      127      128      131
     475     23      129      127      128      132
     476     19      129      127      128      133
     477     23      130      127      128      131
     478     23      130      127      128      132
     479     19      130      127      128      133
     480     19      131      128      133      134
     481     23      131      128      133      135
     482     23      131      128      133      136
     483     19      132      128      133      134
     484     23      132      128      133      135
     485     23      132      128      133      136
     486     18      133      134      139      140
     487     19      133      134      139      141
     488     19      133      134      139      142
     489     19      134      139      140      143
     490     19      134      139      140      144
     491     18      134      139      140      145
     492     23      135      133      134      137
     493     23      135      133      134      138
     494     19      135      133      134      139
     495     23      136      133      134      137
     496     23      136      133      134      138
     497     19      136      133      134      139
     498     19      137      134      139      140
     499     23      137      134      139      141
     500     23      137      134      139      142
     501     19      138      134      139      140
     502     23      138      134      139      141
     503     23      138      134      139      142
     504     18      139      140      145      146
     505     19      139      140      145      147
     506     19      139      140      145      148
     507     19      140      145      146      149
     508     19      140      145      146      150
     509     18      140      145      146      151
     510     23      141      139      140      143
     511     23      141      139      140      144
     512     19      141      139      140      145
     513     23      142      139      140      143
     514     23      142      139      140      144
     515     19      142      139      140      145
     516     19      143      140      145      146
     517     23      143      140      145      147
     518     23      143      140      145      148
     519     19      144      140      145      146
     520     23      144      140      145      147
     521     23      144      140      145      148
     522     15      145      146      151      152
     523     19      145      146      151      153
     524     19      145      146      151      154
     525     17      146      151      152      155
     526     17      146      151      152      156
     527      5      146      151      152      230
     528     23      147      145      146      149
     529     23      147      145      146      150
     530     19      147      145      146      151
     531     23      148      145      146      149
     532     23      148      145      146      150
     533     19      148      145      146      151
     534     16      149      146      151      152
     535     23      149      146      151      153
     536     23      149      146      151      154
     537     16      150      146      151      152
     538     23      150      146      151      153
     539     23      150      146      151      154
     540     10      151      152      230      229
     541     10      151      152      230      231
     542     12      152      230      229      228
     543     13      152      230      229      234
     544     12      152      230      231      232
     545     13      152      230      231      235
     546     22      153      151      152      155
     547     22      153      151      152      156
     548      6      153      151      152      230
     549     22      154      151      152      155
     550     22      154      151      152      156
     551      6      154      151      152      230
     552     11      155      152      230      229
     553     11      155      152      230      231
     554     11      156      152      230      229
     555     11      156      152      230      231
     556      1      157      158      159      160
     557      2      157      158      159      164
     558      1      157      162      161      160
     559      2      157      162      161      165
     560      7      158      157      162      161
     561      8      158      157      162      166
     562      7      158      159      160      161
     563      7      159      158      157      162
     564      7      159      160      161      162
     565      8      159      160      161      165
     566      2      160      159      158      163
     567      2      160      161      162      166
     568      8      161      160      159      164
     569      8      162      157      158      163
     570     20      163      158      159      164
     571     20      165      161      162      166
     572      1      167      168      169      170
     573      2      167      168      169      174
     574      1      167      172      171      170
     575      2      167      172      171      175
     576      7      168      167      172      171
     577      8      168      167      172      176
     578      7      168      169      170      171
     579      7      169      168      167      172
     580      7      169      170      171      172
     581      8      169      170      171      175
     582      3      170       49       50      177
     583      2      170      169      168      173
     584      2      170      171      172      176
     585      8      171      170      169      174
     586      8      172      167      168      173
     587     20      173      168      169      174
     588     20      175      171      172      176
     589      1      177      178      179      180
     590      2      177      178      179      184
     591      1      177      182      181      180
     592      2      177      182      181      185
     593      7      178      177      182      181
     594      8      178      177      182      186
     595      7      178      179      180      181
     596      7      179      178      177      182
     597      7      179      180      181      182
     598      8      179      180      181      185
     599      2      180      179      178      183
     600      2      180      181      182      186
     601      8      181      180      179      184
     602      8      182      177      178      183
     603     20      183      178      179      184
     604     20      185      181      182      186
     605      1      187      188      189      190
     606      2      187      188      189      194
     607      1      187      192      191      190
     608      2      187      192      191      195
     609      7      188      187      192      191
     610      8      188      187      192      196
     611      7      188      189      190      191
     612      7      189      188      187      192
     613      7      189      190      191      192
     614      8      189      190      191      195
     615      2      190      189      188      193
     616      2      190      191      192      196
     617      8      191      190      189      194
     618      8      192      187      188      193
     619     20      193      188      189      194
     620     20      195      191      192      196
     621      1      197      198      199      200
     622      2      197      198      199      204
     623      1      197      202      201      200
     624      2      197      202      201      205
     625      7      198      197      202      201
     626      8      198      197      202      206
     627      7      198      199      200      201
     628      7      199      198      197      202
     629      7      199      200      201      202
     630      8      199      200      201      205
     631      2      200      199      198      203
     632      2      200      201      202      206
     633      8      201      200      199      204
     634      8      202      197      198      203
     635     20      203      198      199      204
     636     20      205      201      202      206
     637      1      207      208      209      210
     638      2      207      208      209      214
     639      1      207      212      211      210
     640      2      207      212      211      215
     641      7      208      207      212      211
     642      8      208      207      212      216
     643      7      208      209      210      211
     644      7      209      208      207      212
     645      7      209      210      211      212
     646      8      209      210      211      215
     647      2      210      209      208      213
     648      2      210      211      212      216
     649      8      211      210      209      214
     650      8      212      207      208      213
     651     20      213      208      209      214
     652     20      215      211      212      216
     653      1      217      218      219      220
     654      2      217      218      219      224
     655      1      217      222      221      220
     656      2      217      222      221      225
     657      7      218      217      222      221
     658      8      218      217      222      226
     659      7      218      219      220      221
     660      7      219      218      217      222
     661      7      219      220      221      222
     662      8      219      220      221      225
     663      2      220      219      218      223
     664      2      220      221      222      226
     665      8      221      220      219      224
     666      8      222      217      218      223
     667     20      223      218      219      224
     668     20      225      221      222      226
     669      1      227      228      229      230
     670      2      227      228      229      234
     671      1      227      232      231      230
     672      2      227      232      231      235
     673      7      228      227      232      231
     674      8      228      227      232      236
     675      7      228      229      230      231
     676      7      229      228      227      232
     677      7      229      230      231      232
     678      8      229      230      231      235
     679      2      230      229      228      233
     680      2      230      231      232      236
     681      8      231      230      229      234
     682      8      232      227      228      233
     683     20      233      228      229      234
     684     20      235      231      232      236

Impropers

       1      1       20      157      158      162
       2      2      157      158      159      163
       3      2      158      159      160      164
       4      1       25      160      159      161
       5      2      160      161      162      165
       6      2      157      162      161      166
       7      1       44      167      168      172
       8      2      167      168      169      173
       9      2      168      169      170      174
      10      1       49      170      169      171
      11      2      170      171      172      175
      12      2      167      172      171      176
      13      1       50      177      178      182
      14      2      177      178      179      183
      15      2      178      179      180      184
      16      1       55      180      179      181
      17      2      180      181      182      185
      18      2      177      182      181      186
      19      1       62      187      188      192
      20      2      187      188      189      193
      21      2      188      189      190      194
      22      1       67      190      189      191
      23      2      190      191      192      195
      24      2      187      192      191      196
      25      1       86      197      198      202
      26      2      197      198      199      203
      27      2      198      199      200      204
      28      1       91      200      199      201
      29      2      200      201      202      205
      30      2      197      202      201      206
      31      1       98      207      208      212
      32      2      207      208      209      213
      33      2      208      209      210      214
      34      1      103      210      209      211
      35      2      210      211      212      215
      36      2      207      212      211      216
      37      1      110      217      218      222
      38      2      217      218      219      223
      39      2      218      219      220      224
      40      1      115      220      219      221
      41      2      220      221      222      225
      42      2      217      222      221      226
      43      1        2      227      228      232
      44      2      227      228      229      233
      45      2      228      229      230      234
      46      1      152      230      229      231
      47      2      230      231      232      235
      48      2      227      232      231      236

