LAMMPS data file generated by clean-room 1-hop pipeline

     146 atoms
     151 bonds
     282 angles
     424 dihedrals
      30 impropers

       7 atom types
      10 bond types
      18 angle types
      26 dihedral types
       4 improper types

  -26.952200    28.506600 xlo xhi
  -30.319200    29.804900 ylo yhi
  -30.910300    30.690700 zlo zhi

Masses

       1    12.011000
       2    12.011000
       3    12.011000
       4    12.011000
       5    12.011000
       6     1.008000
       7     1.008000

Pair Coeffs

       1     0.070000     3.550000
       2     0.070000     3.550000
       3     0.070000     3.550000
       4     0.066000     3.500000
       5     0.066000     3.500000
       6     0.030000     2.420000
       7     0.030000     2.500000

Bond Coeffs

       1   469.000000     1.400000
       2   317.000000     1.510000
       3   469.000000     1.400000
       4   469.000000     1.400000
       5   367.000000     1.080000
       6   385.000000     1.460000
       7   268.000000     1.529000
       8   340.000000     1.090000
       9   268.000000     1.529000
      10   340.000000     1.090000

Angle Coeffs

       1    63.000000   120.000000
       2    35.000000   120.000000
       3    63.000000   114.000000
       4    35.000000   109.500000
       5    63.000000   120.000000
       6    70.000000   120.000000
       7    63.000000   120.000000
       8    35.000000   120.000000
       9    63.000000   120.000000
      10    63.000000   120.000000
      11    35.000000   120.000000
      12    58.350000   112.700000
      13    37.500000   110.700000
      14    37.500000   110.700000
      15    58.350000   112.700000
      16    37.500000   110.700000
      17    33.000000   107.800000
      18    33.000000   107.800000

Dihedral Coeffs

       1     0.000000     7.250000     0.000000     0.000000
       2     0.000000     7.250000     0.000000     0.000000
       3     0.000000     7.250000     0.000000     0.000000
       4     0.000000     0.000000     0.000000     0.000000
       5     0.000000     0.000000     0.462000     0.000000
       6     0.000000     7.250000     0.000000     0.000000
       7     0.000000     7.250000     0.000000     0.000000
       8    -0.250000     0.000000     0.000000     0.000000
       9     0.000000     0.000000     0.000000     0.000000
      10     0.000000     7.250000     0.000000     0.000000
      11     0.000000     7.250000     0.000000     0.000000
      12     0.000000     7.250000     0.000000     0.000000
      13     0.000000     7.250000     0.000000     0.000000
      14     0.000000     1.650000     0.000000    -0.050000
      15     0.000000     7.250000     0.000000     0.000000
      16     0.000000     7.250000     0.000000     0.000000
      17     0.000000     7.250000     0.000000     0.000000
      18     0.850000    -0.200000     0.200000     0.000000
      19     0.850000    -0.200000     0.200000     0.000000
      20     0.000000     0.000000     0.300000     0.000000
      21     0.000000     0.000000     0.300000     0.000000
      22     0.850000    -0.200000     0.200000     0.000000
      23     0.000000     0.000000     0.300000     0.000000
      24     0.000000     7.250000     0.000000     0.000000
      25     0.000000     0.000000     0.300000     0.000000
      26     0.000000     0.000000     0.300000     0.000000

Improper Coeffs

       1     2.500000   -1    2
       2     2.500000   -1    2
       3     2.500000   -1    2
       4     2.500000   -1    2

Atoms

       1    1      5  -0.19227990     1.130200     8.691600     3.802800
       2    1      5  -0.19227990     2.619200     8.708400     3.395100
       3    1      7   0.09892969     0.520300     8.913100     2.866400
       4    1      7   0.09892969     0.975100     9.546600     4.539900
       5    1      7   0.09892969     2.856700     9.804900     3.191100
       6    1      7   0.09892969     3.290100     8.346000     4.243200
       7    1      5  -0.19227990     0.554200     7.448000     4.510900
       8    1      4  -0.14388248     1.151200     7.336800     5.929500
       9    1      7   0.09892969     0.702600     6.491200     3.908500
      10    1      7   0.09892969    -0.562400     7.640700     4.638400
      11    1      7   0.09892969     1.096600     8.366900     6.414400
      12    1      7   0.09892969     2.238700     6.999800     5.885300
      13    1      4  -0.14388248    -2.731800     3.742100     9.073000
      14    1      5  -0.19227990    -2.113600     2.352100     9.308700
      15    1      7   0.09892969    -3.597100     3.628800     8.339800
      16    1      7   0.09892969    -3.112800     4.198400    10.046400
      17    1      7   0.09892969    -1.564000     2.054700     8.355400
      18    1      7   0.09892969    -1.370800     2.384600    10.173500
      19    1      5  -0.19227990    -3.208100     1.288900     9.519800
      20    1      4  -0.14388248    -2.508000    -0.079900     9.607400
      21    1      7   0.09892969    -3.863300     1.300100     8.587200
      22    1      7   0.09892969    -3.850700     1.484400    10.440400
      23    1      7   0.09892969    -1.717100    -0.109700     8.787100
      24    1      7   0.09892969    -1.999900    -0.215100    10.619200
      25    1      4  -0.14388248    -5.862100    -4.771600     7.555100
      26    1      5  -0.19227990    -5.110100    -4.969800     6.224400
      27    1      7   0.09892969    -6.952200    -4.506900     7.348500
      28    1      7   0.09892969    -5.799800    -5.711000     8.196800
      29    1      7   0.09892969    -5.119400    -3.973500     5.671400
      30    1      7   0.09892969    -4.029000    -5.250200     6.455800
      31    1      5  -0.19227990    -5.711800    -6.024800     5.274100
      32    1      5  -0.19227990    -4.804900    -5.982100     4.028000
      33    1      7   0.09892969    -6.776000    -5.725000     4.996800
      34    1      7   0.09892969    -5.707100    -7.061500     5.746200
      35    1      7   0.09892969    -4.770400    -4.901700     3.665300
      36    1      7   0.09892969    -3.752900    -6.295600     4.339300
      37    1      5  -0.19227990    -5.245900    -6.847900     2.830300
      38    1      4  -0.14388248    -4.179500    -6.568700     1.751000
      39    1      7   0.09892969    -6.272700    -6.512600     2.467400
      40    1      7   0.09892969    -5.268000    -7.952900     3.104800
      41    1      7   0.09892969    -4.140300    -5.441200     1.586700
      42    1      7   0.09892969    -3.167600    -6.909400     2.154700
      43    1      4  -0.14388248    -4.413200    -8.966100    -3.916800
      44    1      5  -0.19227990    -3.879300    -8.033300    -5.026300
      45    1      7   0.09892969    -5.483100    -9.256500    -4.184500
      46    1      7   0.09892969    -3.774200    -9.910500    -3.906900
      47    1      7   0.09892969    -4.526600    -7.097400    -5.095500
      48    1      7   0.09892969    -3.954400    -8.607700    -6.008200
      49    1      5  -0.19227990    -2.404600    -7.620700    -4.837400
      50    1      5  -0.19227990    -1.932200    -6.913600    -6.126800
      51    1      7   0.09892969    -1.764200    -8.550700    -4.683700
      52    1      7   0.09892969    -2.307400    -6.935100    -3.931300
      53    1      7   0.09892969    -2.599900    -6.014800    -6.337400
      54    1      7   0.09892969    -2.021600    -7.654300    -6.988500
      55    1      5  -0.19227990    -0.468600    -6.433800    -6.030500
      56    1      5  -0.19227990    -0.018300    -5.861700    -7.392400
      57    1      7   0.09892969     0.211400    -7.305200    -5.754800
      58    1      7   0.09892969    -0.398700    -5.628400    -5.226500
      59    1      7   0.09892969    -0.744400    -5.044300    -7.715500
      60    1      7   0.09892969    -0.024200    -6.698300    -8.168200
      61    1      5  -0.19227990     1.392900    -5.245100    -7.295300
      62    1      5  -0.19227990     1.845500    -4.710000    -8.671000
      63    1      7   0.09892969     2.143700    -6.019300    -6.925000
      64    1      7   0.09892969     1.347500    -4.378700    -6.554600
      65    1      7   0.09892969     1.039600    -4.015800    -9.079100
      66    1      7   0.09892969     2.000100    -5.577000    -9.394000
      67    1      5  -0.19227990     3.141500    -3.887900    -8.511500
      68    1      4  -0.14388248     3.600000    -3.290400    -9.858900
      69    1      7   0.09892969     2.907300    -3.028000    -7.800600
      70    1      7   0.09892969     3.977300    -4.523400    -8.066700
      71    1      7   0.09892969     2.713200    -2.757300   -10.337400
      72    1      7   0.09892969     3.980000    -4.105300   -10.559600
      73    1      4  -0.14388248     6.635800     3.739000    -3.704800
      74    1      5  -0.19227990     6.239200     5.224900    -3.632900
      75    1      7   0.09892969     5.761100     3.155200    -3.265800
      76    1      7   0.09892969     7.538200     3.579600    -3.027400
      77    1      7   0.09892969     5.347400     5.443300    -4.310100
      78    1      7   0.09892969     7.120900     5.891800    -3.911200
      79    1      5  -0.19227990     5.828300     5.394500    -2.154000
      80    1      5  -0.19227990     5.419700     6.822600    -1.747800
      81    1      7   0.09892969     4.948900     4.696200    -1.953900
      82    1      7   0.09892969     6.704800     5.078900    -1.497100
      83    1      7   0.09892969     4.556600     7.189400    -2.394900
      84    1      7   0.09892969     6.316800     7.513300    -1.882000
      85    1      5  -0.19227990     4.986500     6.815100    -0.264000
      86    1      5  -0.19227990     4.724000     8.269300     0.168900
      87    1      7   0.09892969     4.048900     6.179600    -0.131900
      88    1      7   0.09892969     5.830100     6.389400     0.372300
      89    1      7   0.09892969     3.909400     8.717600    -0.490900
      90    1      7   0.09892969     5.693800     8.841300    -0.011000
      91    1      5  -0.19227990     2.927700     7.999100     2.057800
      92    1      5  -0.19227990     4.335600     8.485400     1.649300
      93    1      7   0.09892969     2.189200     8.395900     1.285700
      94    1      7   0.09892969     2.847200     6.863500     2.119800
      95    1      7   0.09892969     4.321700     9.616400     1.791300
      96    1      7   0.09892969     5.124100     8.043900     2.344200
      97    1      1  -0.09140540     0.288800     6.392600     6.793800
      98    1      2  -0.15139304     0.031300     4.943900     6.343200
      99    1      2  -0.15139304    -0.938700     4.052700     7.140700
     100    1      1  -0.09140540    -1.669400     4.612500     8.374800
     101    1      2  -0.15139304    -1.355900     6.035400     8.873000
     102    1      2  -0.15139304    -0.376500     6.925500     8.079900
     103    1      6   0.16398214     0.544200     4.537400     5.409100
     104    1      6   0.16398214    -1.136800     2.982000     6.801000
     105    1      6   0.16398214    -1.863800     6.438300     9.810400
     106    1      6   0.16398214    -0.162800     7.987700     8.433000
     107    1      1  -0.09140540    -3.494100    -1.218200     9.284500
     108    1      2  -0.15139304    -3.298600    -2.621800     9.888600
     109    1      2  -0.15139304    -4.133500    -3.806900     9.359900
     110    1      1  -0.09140540    -5.161800    -3.577700     8.234900
     111    1      2  -0.15139304    -5.478200    -2.144600     7.768000
     112    1      2  -0.15139304    -4.647000    -0.963100     8.297400
     113    1      6   0.16398214    -2.506100    -2.794900    10.690700
     114    1      6   0.16398214    -3.960700    -4.855200     9.771800
     115    1      6   0.16398214    -6.300700    -1.964800     6.998800
     116    1      6   0.16398214    -4.851200     0.094400     7.921900
     117    1      1  -0.09140540    -4.398500    -7.223900     0.372000
     118    1      2  -0.15139304    -3.940100    -8.672600     0.121600
     119    1      2  -0.15139304    -3.951500    -9.249100    -1.307200
     120    1      1  -0.09140540    -4.427900    -8.382200    -2.489200
     121    1      2  -0.15139304    -4.910100    -6.942300    -2.236400
     122    1      2  -0.15139304    -4.904700    -6.367400    -0.805900
     123    1      6   0.16398214    -3.568900    -9.311000     0.990000
     124    1      6   0.16398214    -3.602000   -10.319200    -1.492900
     125    1      6   0.16398214    -5.269500    -6.298800    -3.108200
     126    1      6   0.16398214    -5.249700    -5.295700    -0.621400
     127    1      1  -0.09140540     4.678700    -2.227600    -9.570100
     128    1      2  -0.15139304     5.832500    -2.537200    -8.598000
     129    1      2  -0.15139304     6.680800    -1.384800    -8.029500
     130    1      3  -0.04313040     6.330000     0.071500    -8.389000
     131    1      2  -0.15139304     5.327500     0.358200    -9.519700
     132    1      2  -0.15139304     4.501900    -0.797300   -10.115800
     133    1      6   0.16398214     6.019600    -3.611100    -8.256000
     134    1      6   0.16398214     7.509000    -1.603300    -7.272500
     135    1      6   0.16398214     5.146100     1.432300    -9.867200
     136    1      6   0.16398214     3.712800    -0.582500   -10.910300
     137    1      3  -0.04313040     6.819000     1.213300    -7.479600
     138    1      2  -0.15139304     7.781800     0.899700    -6.324700
     139    1      2  -0.15139304     7.850100     1.848300    -5.117400
     140    1      1  -0.09140540     6.928900     3.081200    -5.068700
     141    1      2  -0.15139304     6.220600     3.552200    -6.354500
     142    1      2  -0.15139304     6.178200     2.612200    -7.576600
     143    1      6   0.16398214     8.379400    -0.080400    -6.320500
     144    1      6   0.16398214     8.506600     1.590700    -4.222600
     145    1      6   0.16398214     5.665600     4.545600    -6.373800
     146    1      6   0.16398214     5.585200     2.910000    -8.513400

Bonds

       1      9        1        2
       2     10        1        3
       3     10        1        4
       4      9        1        7
       5     10        2        5
       6     10        2        6
       7      9        2       91
       8      7        7        8
       9     10        7        9
      10     10        7       10
      11      8        8       11
      12      8        8       12
      13      2        8       97
      14      7       13       14
      15      8       13       15
      16      8       13       16
      17      2       13      100
      18     10       14       17
      19     10       14       18
      20      9       14       19
      21      7       19       20
      22     10       19       21
      23     10       19       22
      24      8       20       23
      25      8       20       24
      26      2       20      107
      27      7       25       26
      28      8       25       27
      29      8       25       28
      30      2       25      110
      31     10       26       29
      32     10       26       30
      33      9       26       31
      34      9       31       32
      35     10       31       33
      36     10       31       34
      37     10       32       35
      38     10       32       36
      39      9       32       37
      40      7       37       38
      41     10       37       39
      42     10       37       40
      43      8       38       41
      44      8       38       42
      45      2       38      117
      46      7       43       44
      47      8       43       45
      48      8       43       46
      49      2       43      120
      50     10       44       47
      51     10       44       48
      52      9       44       49
      53      9       49       50
      54     10       49       51
      55     10       49       52
      56     10       50       53
      57     10       50       54
      58      9       50       55
      59      9       55       56
      60     10       55       57
      61     10       55       58
      62     10       56       59
      63     10       56       60
      64      9       56       61
      65      9       61       62
      66     10       61       63
      67     10       61       64
      68     10       62       65
      69     10       62       66
      70      9       62       67
      71      7       67       68
      72     10       67       69
      73     10       67       70
      74      8       68       71
      75      8       68       72
      76      2       68      127
      77      7       73       74
      78      8       73       75
      79      8       73       76
      80      2       73      140
      81     10       74       77
      82     10       74       78
      83      9       74       79
      84      9       79       80
      85     10       79       81
      86     10       79       82
      87     10       80       83
      88     10       80       84
      89      9       80       85
      90      9       85       86
      91     10       85       87
      92     10       85       88
      93     10       86       89
      94     10       86       90
      95      9       86       92
      96      9       91       92
      97     10       91       93
      98     10       91       94
      99     10       92       95
     100     10       92       96
     101      1       97       98
     102      3       98       99
     103      5       98      103
     104      1       99      100
     105      5       99      104
     106      1      100      101
     107      3      101      102
     108      5      101      105
     109      1      102       97
     110      5      102      106
     111      1      107      108
     112      3      108      109
     113      5      108      113
     114      1      109      110
     115      5      109      114
     116      1      110      111
     117      3      111      112
     118      5      111      115
     119      1      112      107
     120      5      112      116
     121      1      117      118
     122      3      118      119
     123      5      118      123
     124      1      119      120
     125      5      119      124
     126      1      120      121
     127      3      121      122
     128      5      121      125
     129      1      122      117
     130      5      122      126
     131      1      127      128
     132      3      128      129
     133      5      128      133
     134      4      129      130
     135      5      129      134
     136      4      130      131
     137      6      130      137
     138      3      131      132
     139      5      131      135
     140      1      132      127
     141      5      132      136
     142      4      137      138
     143      3      138      139
     144      5      138      143
     145      1      139      140
     146      5      139      144
     147      1      140      141
     148      3      141      142
     149      5      141      145
     150      4      142      137
     151      5      142      146

Angles

       1     16        1        2        5
       2     16        1        2        6
       3     15        1        2       91
       4     12        1        7        8
       5     16        1        7        9
       6     16        1        7       10
       7     16        2        1        3
       8     16        2        1        4
       9     15        2        1        7
      10     15        2       91       92
      11     16        2       91       93
      12     16        2       91       94
      13     18        3        1        4
      14     16        3        1        7
      15     16        4        1        7
      16     18        5        2        6
      17     16        5        2       91
      18     16        6        2       91
      19     14        7        8       11
      20     14        7        8       12
      21      3        7        8       97
      22     13        8        7        9
      23     13        8        7       10
      24      6        8       97       98
      25      6        8       97      102
      26     18        9        7       10
      27     17       11        8       12
      28      4       11        8       97
      29      4       12        8       97
      30     13       13       14       17
      31     13       13       14       18
      32     12       13       14       19
      33      6       13      100       99
      34      6       13      100      101
      35     14       14       13       15
      36     14       14       13       16
      37      3       14       13      100
      38     12       14       19       20
      39     16       14       19       21
      40     16       14       19       22
      41     17       15       13       16
      42      4       15       13      100
      43      4       16       13      100
      44     18       17       14       18
      45     16       17       14       19
      46     16       18       14       19
      47     14       19       20       23
      48     14       19       20       24
      49      3       19       20      107
      50     13       20       19       21
      51     13       20       19       22
      52      6       20      107      108
      53      6       20      107      112
      54     18       21       19       22
      55     17       23       20       24
      56      4       23       20      107
      57      4       24       20      107
      58     13       25       26       29
      59     13       25       26       30
      60     12       25       26       31
      61      6       25      110      109
      62      6       25      110      111
      63     14       26       25       27
      64     14       26       25       28
      65      3       26       25      110
      66     15       26       31       32
      67     16       26       31       33
      68     16       26       31       34
      69     17       27       25       28
      70      4       27       25      110
      71      4       28       25      110
      72     18       29       26       30
      73     16       29       26       31
      74     16       30       26       31
      75     16       31       32       35
      76     16       31       32       36
      77     15       31       32       37
      78     16       32       31       33
      79     16       32       31       34
      80     12       32       37       38
      81     16       32       37       39
      82     16       32       37       40
      83     18       33       31       34
      84     18       35       32       36
      85     16       35       32       37
      86     16       36       32       37
      87     14       37       38       41
      88     14       37       38       42
      89      3       37       38      117
      90     13       38       37       39
      91     13       38       37       40
      92      6       38      117      118
      93      6       38      117      122
      94     18       39       37       40
      95     17       41       38       42
      96      4       41       38      117
      97      4       42       38      117
      98     13       43       44       47
      99     13       43       44       48
     100     12       43       44       49
     101      6       43      120      119
     102      6       43      120      121
     103     14       44       43       45
     104     14       44       43       46
     105      3       44       43      120
     106     15       44       49       50
     107     16       44       49       51
     108     16       44       49       52
     109     17       45       43       46
     110      4       45       43      120
     111      4       46       43      120
     112     18       47       44       48
     113     16       47       44       49
     114     16       48       44       49
     115     16       49       50       53
     116     16       49       50       54
     117     15       49       50       55
     118     16       50       49       51
     119     16       50       49       52
     120     15       50       55       56
     121     16       50       55       57
     122     16       50       55       58
     123     18       51       49       52
     124     18       53       50       54
     125     16       53       50       55
     126     16       54       50       55
     127     16       55       56       59
     128     16       55       56       60
     129     15       55       56       61
     130     16       56       55       57
     131     16       56       55       58
     132     15       56       61       62
     133     16       56       61       63
     134     16       56       61       64
     135     18       57       55       58
     136     18       59       56       60
     137     16       59       56       61
     138     16       60       56       61
     139     16       61       62       65
     140     16       61       62       66
     141     15       61       62       67
     142     16       62       61       63
     143     16       62       61       64
     144     12       62       67       68
     145     16       62       67       69
     146     16       62       67       70
     147     18       63       61       64
     148     18       65       62       66
     149     16       65       62       67
     150     16       66       62       67
     151     14       67       68       71
     152     14       67       68       72
     153      3       67       68      127
     154     13       68       67       69
     155     13       68       67       70
     156      6       68      127      128
     157      6       68      127      132
     158     18       69       67       70
     159     17       71       68       72
     160      4       71       68      127
     161      4       72       68      127
     162     13       73       74       77
     163     13       73       74       78
     164     12       73       74       79
     165      6       73      140      139
     166      6       73      140      141
     167     14       74       73       75
     168     14       74       73       76
     169      3       74       73      140
     170     15       74       79       80
     171     16       74       79       81
     172     16       74       79       82
     173     17       75       73       76
     174      4       75       73      140
     175      4       76       73      140
     176     18       77       74       78
     177     16       77       74       79
     178     16       78       74       79
     179     16       79       80       83
     180     16       79       80       84
     181     15       79       80       85
     182     16       80       79       81
     183     16       80       79       82
     184     15       80       85       86
     185     16       80       85       87
     186     16       80       85       88
     187     18       81       79       82
     188     18       83       80       84
     189     16       83       80       85
     190     16       84       80       85
     191     16       85       86       89
     192     16       85       86       90
     193     15       85       86       92
     194     16       86       85       87
     195     16       86       85       88
     196     15       86       92       91
     197     16       86       92       95
     198     16       86       92       96
     199     18       87       85       88
     200     18       89       86       90
     201     16       89       86       92
     202     16       90       86       92
     203     16       91       92       95
     204     16       91       92       96
     205     16       92       91       93
     206     16       92       91       94
     207     18       93       91       94
     208     18       95       92       96
     209      1       97       98       99
     210      2       97       98      103
     211      1       97      102      101
     212      2       97      102      106
     213      5       98       97      102
     214      1       98       99      100
     215      8       98       99      104
     216      8       99       98      103
     217      5       99      100      101
     218      2      100       99      104
     219      1      100      101      102
     220      2      100      101      105
     221      8      101      102      106
     222      8      102      101      105
     223      1      107      108      109
     224      2      107      108      113
     225      1      107      112      111
     226      2      107      112      116
     227      5      108      107      112
     228      1      108      109      110
     229      8      108      109      114
     230      8      109      108      113
     231      5      109      110      111
     232      2      110      109      114
     233      1      110      111      112
     234      2      110      111      115
     235      8      111      112      116
     236      8      112      111      115
     237      1      117      118      119
     238      2      117      118      123
     239      1      117      122      121
     240      2      117      122      126
     241      5      118      117      122
     242      1      118      119      120
     243      8      118      119      124
     244      8      119      118      123
     245      5      119      120      121
     246      2      120      119      124
     247      1      120      121      122
     248      2      120      121      125
     249      8      121      122      126
     250      8      122      121      125
     251      1      127      128      129
     252      2      127      128      133
     253      1      127      132      131
     254      2      127      132      136
     255      5      128      127      132
     256      7      128      129      130
     257      8      128      129      134
     258      8      129      128      133
     259      9      129      130      131
     260     10      129      130      137
     261     11      130      129      134
     262      7      130      131      132
     263     11      130      131      135
     264     10      130      137      138
     265     10      130      137      142
     266     10      131      130      137
     267      8      131      132      136
     268      8      132      131      135
     269      7      137      138      139
     270     11      137      138      143
     271      7      137      142      141
     272     11      137      142      146
     273      9      138      137      142
     274      1      138      139      140
     275      8      138      139      144
     276      8      139      138      143
     277      5      139      140      141
     278      2      140      139      144
     279      1      140      141      142
     280      2      140      141      145
     281      8      141      142      146
     282      8      142      141      145

Dihedrals

       1     22        1        2       91       92
       2     23        1        2       91       93
       3     23        1        2       91       94
       4     21        1        7        8       11
       5     21        1        7        8       12
       6      4        1        7        8       97
       7     19        2        1        7        8
       8     23        2        1        7        9
       9     23        2        1        7       10
      10     22        2       91       92       86
      11     23        2       91       92       95
      12     23        2       91       92       96
      13     26        3        1        2        5
      14     26        3        1        2        6
      15     23        3        1        2       91
      16     20        3        1        7        8
      17     26        3        1        7        9
      18     26        3        1        7       10
      19     26        4        1        2        5
      20     26        4        1        2        6
      21     23        4        1        2       91
      22     20        4        1        7        8
      23     26        4        1        7        9
      24     26        4        1        7       10
      25     23        5        2        1        7
      26     23        5        2       91       92
      27     26        5        2       91       93
      28     26        5        2       91       94
      29     23        6        2        1        7
      30     23        6        2       91       92
      31     26        6        2       91       93
      32     26        6        2       91       94
      33     22        7        1        2       91
      34      8        7        8       97       98
      35      8        7        8       97      102
      36     10        8       97       98       99
      37     17        8       97       98      103
      38     10        8       97      102      101
      39     17        8       97      102      106
      40     25        9        7        8       11
      41     25        9        7        8       12
      42      5        9        7        8       97
      43     25       10        7        8       11
      44     25       10        7        8       12
      45      5       10        7        8       97
      46      9       11        8       97       98
      47      9       11        8       97      102
      48      9       12        8       97       98
      49      9       12        8       97      102
      50     18       13       14       19       20
      51     20       13       14       19       21
      52     20       13       14       19       22
      53     10       13      100       99       98
      54     17       13      100       99      104
      55     10       13      100      101      102
      56     17       13      100      101      105
      57      8       14       13      100       99
      58      8       14       13      100      101
      59     21       14       19       20       23
      60     21       14       19       20       24
      61      4       14       19       20      107
      62     25       15       13       14       17
      63     25       15       13       14       18
      64     21       15       13       14       19
      65      9       15       13      100       99
      66      9       15       13      100      101
      67     25       16       13       14       17
      68     25       16       13       14       18
      69     21       16       13       14       19
      70      9       16       13      100       99
      71      9       16       13      100      101
      72      5       17       14       13      100
      73     20       17       14       19       20
      74     26       17       14       19       21
      75     26       17       14       19       22
      76      5       18       14       13      100
      77     20       18       14       19       20
      78     26       18       14       19       21
      79     26       18       14       19       22
      80      4       19       14       13      100
      81      8       19       20      107      108
      82      8       19       20      107      112
      83     10       20      107      108      109
      84     17       20      107      108      113
      85     10       20      107      112      111
      86     17       20      107      112      116
      87     25       21       19       20       23
      88     25       21       19       20       24
      89      5       21       19       20      107
      90     25       22       19       20       23
      91     25       22       19       20       24
      92      5       22       19       20      107
      93      9       23       20      107      108
      94      9       23       20      107      112
      95      9       24       20      107      108
      96      9       24       20      107      112
      97     19       25       26       31       32
      98     20       25       26       31       33
      99     20       25       26       31       34
     100     10       25      110      109      108
     101     17       25      110      109      114
     102     10       25      110      111      112
     103     17       25      110      111      115
     104      8       26       25      110      109
     105      8       26       25      110      111
     106     23       26       31       32       35
     107     23       26       31       32       36
     108     22       26       31       32       37
     109     25       27       25       26       29
     110     25       27       25       26       30
     111     21       27       25       26       31
     112      9       27       25      110      109
     113      9       27       25      110      111
     114     25       28       25       26       29
     115     25       28       25       26       30
     116     21       28       25       26       31
     117      9       28       25      110      109
     118      9       28       25      110      111
     119      5       29       26       25      110
     120     23       29       26       31       32
     121     26       29       26       31       33
     122     26       29       26       31       34
     123      5       30       26       25      110
     124     23       30       26       31       32
     125     26       30       26       31       33
     126     26       30       26       31       34
     127      4       31       26       25      110
     128     19       31       32       37       38
     129     23       31       32       37       39
     130     23       31       32       37       40
     131     21       32       37       38       41
     132     21       32       37       38       42
     133      4       32       37       38      117
     134     26       33       31       32       35
     135     26       33       31       32       36
     136     23       33       31       32       37
     137     26       34       31       32       35
     138     26       34       31       32       36
     139     23       34       31       32       37
     140     20       35       32       37       38
     141     26       35       32       37       39
     142     26       35       32       37       40
     143     20       36       32       37       38
     144     26       36       32       37       39
     145     26       36       32       37       40
     146      8       37       38      117      118
     147      8       37       38      117      122
     148     10       38      117      118      119
     149     17       38      117      118      123
     150     10       38      117      122      121
     151     17       38      117      122      126
     152     25       39       37       38       41
     153     25       39       37       38       42
     154      5       39       37       38      117
     155     25       40       37       38       41
     156     25       40       37       38       42
     157      5       40       37       38      117
     158      9       41       38      117      118
     159      9       41       38      117      122
     160      9       42       38      117      118
     161      9       42       38      117      122
     162     19       43       44       49       50
     163     20       43       44       49       51
     164     20       43       44       49       52
     165     10       43      120      119      118
     166     17       43      120      119      124
     167     10       43      120      121      122
     168     17       43      120      121      125
     169      8       44       43      120      119
     170      8       44       43      120      121
     171     23       44       49       50       53
     172     23       44       49       50       54
     173     22       44       49       50       55
     174     25       45       43       44       47
     175     25       45       43       44       48
     176     21       45       43       44       49
     177      9       45       43      120      119
     178      9       45       43      120      121
     179     25       46       43       44       47
     180     25       46       43       44       48
     181     21       46       43       44       49
     182      9       46       43      120      119
     183      9       46       43      120      121
     184      5       47       44       43      120
     185     23       47       44       49       50
     186     26       47       44       49       51
     187     26       47       44       49       52
     188      5       48       44       43      120
     189     23       48       44       49       50
     190     26       48       44       49       51
     191     26       48       44       49       52
     192      4       49       44       43      120
     193     22       49       50       55       56
     194     23       49       50       55       57
     195     23       49       50       55       58
     196     23       50       55       56       59
     197     23       50       55       56       60
     198     22       50       55       56       61
     199     26       51       49       50       53
     200     26       51       49       50       54
     201     23       51       49       50       55
     202     26       52       49       50       53
     203     26       52       49       50       54
     204     23       52       49       50       55
     205     23       53       50       55       56
     206     26       53       50       55       57
     207     26       53       50       55       58
     208     23       54       50       55       56
     209     26       54       50       55       57
     210     26       54       50       55       58
     211     22       55       56       61       62
     212     23       55       56       61       63
     213     23       55       56       61       64
     214     23       56       61       62       65
     215     23       56       61       62       66
     216     22       56       61       62       67
     217     26       57       55       56       59
     218     26       57       55       56       60
     219     23       57       55       56       61
     220     26       58       55       56       59
     221     26       58       55       56       60
     222     23       58       55       56       61
     223     23       59       56       61       62
     224     26       59       56       61       63
     225     26       59       56       61       64
     226     23       60       56       61       62
     227     26       60       56       61       63
     228     26       60       56       61       64
     229     19       61       62       67       68
     230     23       61       62       67       69
     231     23       61       62       67       70
     232     21       62       67       68       71
     233     21       62       67       68       72
     234      4       62       67       68      127
     235     26       63       61       62       65
     236     26       63       61       62       66
     237     23       63       61       62       67
     238     26       64       61       62       65
     239     26       64       61       62       66
     240     23       64       61       62       67
     241     20       65       62       67       68
     242     26       65       62       67       69
     243     26       65       62       67       70
     244     20       66       62       67       68
     245     26       66       62       67       69
     246     26       66       62       67       70
     247      8       67       68      127      128
     248      8       67       68      127      132
     249     10       68      127      128      129
     250     17       68      127      128      133
     251     10       68      127      132      131
     252     17       68      127      132      136
     253     25       69       67       68       71
     254     25       69       67       68       72
     255      5       69       67       68      127
     256     25       70       67       68       71
     257     25       70       67       68       72
     258      5       70       67       68      127
     259      9       71       68      127      128
     260      9       71       68      127      132
     261      9       72       68      127      128
     262      9       72       68      127      132
     263     19       73       74       79       80
     264     20       73       74       79       81
     265     20       73       74       79       82
     266     10       73      140      139      138
     267     17       73      140      139      144
     268     10       73      140      141      142
     269     17       73      140      141      145
     270      8       74       73      140      139
     271      8       74       73      140      141
     272     23       74       79       80       83
     273     23       74       79       80       84
     274     22       74       79       80       85
     275     25       75       73       74       77
     276     25       75       73       74       78
     277     21       75       73       74       79
     278      9       75       73      140      139
     279      9       75       73      140      141
     280     25       76       73       74       77
     281     25       76       73       74       78
     282     21       76       73       74       79
     283      9       76       73      140      139
     284      9       76       73      140      141
     285      5       77       74       73      140
     286     23       77       74       79       80
     287     26       77       74       79       81
     288     26       77       74       79       82
     289      5       78       74       73      140
     290     23       78       74       79       80
     291     26       78       74       79       81
     292     26       78       74       79       82
     293      4       79       74       73      140
     294     22       79       80       85       86
     295     23       79       80       85       87
     296     23       79       80       85       88
     297     23       80       85       86       89
     298     23       80       85       86       90
     299     22       80       85       86       92
     300     26       81       79       80       83
     301     26       81       79       80       84
     302     23       81       79       80       85
     303     26       82       79       80       83
     304     26       82       79       80       84
     305     23       82       79       80       85
     306     23       83       80       85       86
     307     26       83       80       85       87
     308     26       83       80       85       88
     309     23       84       80       85       86
     310     26       84       80       85       87
     311     26       84       80       85       88
     312     22       85       86       92       91
     313     23       85       86       92       95
     314     23       85       86       92       96
     315     23       86       92       91       93
     316     23       86       92       91       94
     317     26       87       85       86       89
     318     26       87       85       86       90
     319     23       87       85       86       92
     320     26       88       85       86       89
     321     26       88       85       86       90
     322     23       88       85       86       92
     323     23       89       86       92       91
     324     26       89       86       92       95
     325     26       89       86       92       96
     326     23       90       86       92       91
     327     26       90       86       92       95
     328     26       90       86       92       96
     329     26       93       91       92       95
     330     26       93       91       92       96
     331     26       94       91       92       95
     332     26       94       91       92       96
     333      1       97       98       99      100
     334      3       97       98       99      104
     335      1       97      102      101      100
     336      3       97      102      101      105
     337      6       98       97      102      101
     338      7       98       97      102      106
     339      6       98       99      100      101
     340      6       99       98       97      102
     341      6       99      100      101      102
     342      7       99      100      101      105
     343      3      100       99       98      103
     344      3      100      101      102      106
     345      7      101      100       99      104
     346      7      102       97       98      103
     347     24      103       98       99      104
     348     24      105      101      102      106
     349      1      107      108      109      110
     350      3      107      108      109      114
     351      1      107      112      111      110
     352      3      107      112      111      115
     353      6      108      107      112      111
     354      7      108      107      112      116
     355      6      108      109      110      111
     356      6      109      108      107      112
     357      6      109      110      111      112
     358      7      109      110      111      115
     359      3      110      109      108      113
     360      3      110      111      112      116
     361      7      111      110      109      114
     362      7      112      107      108      113
     363     24      113      108      109      114
     364     24      115      111      112      116
     365      1      117      118      119      120
     366      3      117      118      119      124
     367      1      117      122      121      120
     368      3      117      122      121      125
     369      6      118      117      122      121
     370      7      118      117      122      126
     371      6      118      119      120      121
     372      6      119      118      117      122
     373      6      119      120      121      122
     374      7      119      120      121      125
     375      3      120      119      118      123
     376      3      120      121      122      126
     377      7      121      120      119      124
     378      7      122      117      118      123
     379     24      123      118      119      124
     380     24      125      121      122      126
     381      2      127      128      129      130
     382      3      127      128      129      134
     383      2      127      132      131      130
     384      3      127      132      131      135
     385      6      128      127      132      131
     386      7      128      127      132      136
     387     11      128      129      130      131
     388     12      128      129      130      137
     389      6      129      128      127      132
     390     11      129      130      131      132
     391     13      129      130      131      135
     392     14      129      130      137      138
     393     14      129      130      137      142
     394     15      130      129      128      133
     395     15      130      131      132      136
     396     12      130      137      138      139
     397     16      130      137      138      143
     398     12      130      137      142      141
     399     16      130      137      142      146
     400     13      131      130      129      134
     401     14      131      130      137      138
     402     14      131      130      137      142
     403      7      132      127      128      133
     404     12      132      131      130      137
     405     24      133      128      129      134
     406     16      134      129      130      137
     407     16      135      131      130      137
     408     24      135      131      132      136
     409      2      137      138      139      140
     410     15      137      138      139      144
     411      2      137      142      141      140
     412     15      137      142      141      145
     413     11      138      137      142      141
     414     13      138      137      142      146
     415      6      138      139      140      141
     416     11      139      138      137      142
     417      6      139      140      141      142
     418      7      139      140      141      145
     419      3      140      139      138      143
     420      3      140      141      142      146
     421      7      141      140      139      144
     422     13      142      137      138      143
     423     24      143      138      139      144
     424     24      145      141      142      146

Impropers

       1      1        8       97       98      102
       2      2       97       98       99      103
       3      2       98       99      100      104
       4      1       13      100       99      101
       5      2      100      101      102      105
       6      2       97      102      101      106
       7      1       20      107      108      112
       8      2      107      108      109      113
       9      2      108      109      110      114
      10      1       25      110      109      111
      11      2      110      111      112      115
      12      2      107      112      111      116
      13      1       38      117      118      122
      14      2      117      118      119      123
      15      2      118      119      120      124
      16      1       43      120      119      121
      17      2      120      121      122      125
      18      2      117      122      121      126
      19      1       68      127      128      132
      20      2      127      128      129      133
      21      3      128      129      130      134
      22      4      129      130      131      137
      23      3      130      131      132      135
      24      2      127      132      131      136
      25      4      130      137      138      142
      26      3      137      138      139      143
      27      2      138      139      140      144
      28      1       73      140      139      141
      29      2      140      141      142      145
      30      3      137      142      141      146

