LAMMPS data file generated by clean-room 1-hop pipeline

     228 atoms
     228 bonds
     456 angles
     684 dihedrals
       0 impropers

       2 atom types
       2 bond types
       3 angle types
       3 dihedral types
       0 improper types

  -26.833400    24.915700 xlo xhi
  -34.434100    33.172800 ylo yhi
  -39.391200    36.904100 zlo zhi

Masses

       1    12.011000
       2     1.008000

Pair Coeffs

       1     0.066000     3.500000
       2     0.030000     2.500000

Bond Coeffs

       1   268.000000     1.529000
       2   340.000000     1.090000

Angle Coeffs

       1    58.350000   112.700000
       2    37.500000   110.700000
       3    33.000000   107.800000

Dihedral Coeffs

       1     0.850000    -0.200000     0.200000     0.000000
       2     0.000000     0.000000     0.300000     0.000000
       3     0.000000     0.000000     0.300000     0.000000

Improper Coeffs


Atoms

       1    1      1  -0.19413973     1.583200   -12.294200    -0.517700
       2    1      1  -0.19413973     0.956300   -12.444200     0.883000
       3    1      2   0.09706986     1.275500   -11.296000    -0.974400
       4    1      2   0.09706986     2.719200   -12.343300    -0.435400
       5    1      2   0.09706986     1.215500   -13.471700     1.303300
       6    1      2   0.09706986    -0.176200   -12.348100     0.794500
       7    1      1  -0.19413973     1.088700   -13.460000    -1.396100
       8    1      1  -0.19413973     1.655700   -13.384800    -2.828300
       9    1      2   0.09706986     1.433500   -14.434100    -0.915100
      10    1      2   0.09706986    -0.050100   -13.450200    -1.445600
      11    1      2   0.09706986     2.794100   -13.343100    -2.791400
      12    1      2   0.09706986     1.332200   -14.320300    -3.393400
      13    1      1  -0.19413973     1.101700   -12.160500    -3.582900
      14    1      1  -0.19413973     1.627000   -12.179900    -5.033600
      15    1      2   0.09706986    -0.035700   -12.230100    -3.601500
      16    1      2   0.09706986     1.415100   -11.197100    -3.060000
      17    1      2   0.09706986     2.760800   -12.067900    -5.034000
      18    1      2   0.09706986     1.345500   -13.174500    -5.514200
      19    1      1  -0.19413973     0.985900   -11.043700    -5.854200
      20    1      1  -0.19413973     1.483600   -11.091300    -7.313800
      21    1      2   0.09706986    -0.146200   -11.176400    -5.842900
      22    1      2   0.09706986     1.252900   -10.037600    -5.391800
      23    1      2   0.09706986     2.609600   -10.920800    -7.341600
      24    1      2   0.09706986     1.241200   -12.109000    -7.766700
      25    1      1  -0.19413973     0.763000    -9.996200    -8.124400
      26    1      1  -0.19413973     1.217000    -9.989100    -9.598700
      27    1      2   0.09706986    -0.359300   -10.190600    -8.082700
      28    1      2   0.09706986     0.984600    -8.978500    -7.661100
      29    1      2   0.09706986     2.332000    -9.759500    -9.656800
      30    1      2   0.09706986     1.009500   -11.004400   -10.073500
      31    1      1  -0.19413973     0.414300    -8.900200   -10.337900
      32    1      1  -0.19413973     0.794400    -8.782500   -11.828300
      33    1      2   0.09706986    -0.694100    -9.154800   -10.261600
      34    1      2   0.09706986     0.600800    -7.895600    -9.832600
      35    1      2   0.09706986     1.888600    -8.480600   -11.931300
      36    1      2   0.09706986     0.617100    -9.777100   -12.356400
      37    1      1  -0.19413973    -0.119300    -7.701600   -12.438700
      38    1      1  -0.19413973     0.138600    -7.457100   -13.939300
      39    1      2   0.09706986    -1.200400    -8.038000   -12.307500
      40    1      2   0.09706986     0.034900    -6.722400   -11.876100
      41    1      2   0.09706986     1.193800    -7.058900   -14.104000
      42    1      2   0.09706986    -0.003700    -8.428000   -14.519400
      43    1      1  -0.19413973    -0.909200    -6.423000   -14.396400
      44    1      1  -0.19413973    -0.829100    -6.077500   -15.896500
      45    1      2   0.09706986    -0.782600    -5.465700   -13.790300
      46    1      2   0.09706986    -1.941100    -6.859800   -14.187300
      47    1      2   0.09706986    -1.691500    -5.375700   -16.142800
      48    1      2   0.09706986    -0.932400    -7.027500   -16.519400
      49    1      1  -0.19413973     0.485400    -5.357200   -16.253700
      50    1      1  -0.19413973     0.396100    -4.960800   -17.740600
      51    1      2   0.09706986     1.373500    -6.043600   -16.069600
      52    1      2   0.09706986     0.576300    -4.418900   -15.613300
      53    1      2   0.09706986    -0.514400    -4.290500   -17.875800
      54    1      2   0.09706986     0.247600    -5.910600   -18.354500
      55    1      1  -0.19413973     1.630600    -4.218200   -18.294100
      56    1      1  -0.19413973     1.920000    -2.879600   -17.582300
      57    1      2   0.09706986     1.419400    -3.992100   -19.391200
      58    1      2   0.09706986     2.551400    -4.886700   -18.226400
      59    1      2   0.09706986     0.988200    -2.224700   -17.590600
      60    1      2   0.09706986     2.755400    -2.349600   -18.149900
      61    1      1  -0.19413973     2.409200    -3.102200   -16.139000
      62    1      1  -0.19413973     2.783300    -1.759000   -15.483100
      63    1      2   0.09706986     3.333600    -3.763200   -16.169100
      64    1      2   0.09706986     1.602000    -3.610400   -15.515100
      65    1      2   0.09706986     3.576500    -1.230800   -16.109700
      66    1      2   0.09706986     3.202000    -1.965800   -14.443700
      67    1      1  -0.19413973     1.545100    -0.855500   -15.335100
      68    1      1  -0.19413973     1.979600     0.425300   -14.596700
      69    1      2   0.09706986     1.105500    -0.602900   -16.356200
      70    1      2   0.09706986     0.766200    -1.402600   -14.707600
      71    1      2   0.09706986     2.732300     1.004500   -15.227100
      72    1      2   0.09706986     2.469700     0.119600   -13.613900
      73    1      1  -0.19413973     0.765100     1.313100   -14.265900
      74    1      1  -0.19413973     1.246000     2.508400   -13.420500
      75    1      2   0.09706986     0.252700     1.674500   -15.217900
      76    1      2   0.09706986     0.029800     0.700700   -13.646500
      77    1      2   0.09706986     1.943400     3.172900   -14.030200
      78    1      2   0.09706986     1.807200     2.103300   -12.514800
      79    1      1  -0.19413973     0.036400     3.313300   -12.909800
      80    1      1  -0.19413973     0.526400     4.417400   -11.953200
      81    1      2   0.09706986    -0.547700     3.764900   -13.778400
      82    1      2   0.09706986    -0.639700     2.605400   -12.326000
      83    1      2   0.09706986     1.155400     5.184700   -12.514400
      84    1      2   0.09706986     1.157600     3.934000   -11.136400
      85    1      1  -0.19413973    -0.692600     5.083800   -11.288000
      86    1      1  -0.19413973    -0.233400     6.100400   -10.225500
      87    1      2   0.09706986    -1.346300     5.595300   -12.068800
      88    1      2   0.09706986    -1.296400     4.270500   -10.765300
      89    1      2   0.09706986     0.317100     6.970500   -10.714200
      90    1      2   0.09706986     0.461100     5.574600    -9.490300
      91    1      1  -0.19413973    -1.473500     6.592600    -9.455800
      92    1      1  -0.19413973    -1.059000     7.529000    -8.305700
      93    1      2   0.09706986    -2.190400     7.131500   -10.159100
      94    1      2   0.09706986    -1.996900     5.684500    -9.007900
      95    1      2   0.09706986    -0.587000     8.480800    -8.719000
      96    1      2   0.09706986    -0.309200     6.989600    -7.637700
      97    1      1  -0.19413973    -2.315700     7.854600    -7.476500
      98    1      1  -0.19413973    -1.948700     8.723200    -6.259000
      99    1      2   0.09706986    -3.083300     8.395200    -8.122700
     100    1      2   0.09706986    -2.762000     6.875100    -7.101600
     101    1      2   0.09706986    -1.544800     9.731900    -6.603200
     102    1      2   0.09706986    -1.154800     8.184900    -5.643500
     103    1      1  -0.19413973    -3.207200     8.912200    -5.390500
     104    1      1  -0.19413973    -2.860900     9.719300    -4.125600
     105    1      2   0.09706986    -4.016600     9.450900    -5.985300
     106    1      2   0.09706986    -3.589600     7.885400    -5.076200
     107    1      2   0.09706986    -2.511200    10.765500    -4.412900
     108    1      2   0.09706986    -2.029100     9.183200    -3.559900
     109    1      1  -0.19413973    -4.102100     9.803000    -3.217000
     110    1      1  -0.19413973    -3.724600    10.550000    -1.925000
     111    1      2   0.09706986    -4.436100     8.746200    -2.950300
     112    1      2   0.09706986    -4.949300    10.346300    -3.751900
     113    1      2   0.09706986    -3.412500    11.618400    -2.170600
     114    1      2   0.09706986    -2.853100    10.006500    -1.430700
     115    1      1  -0.19413973    -4.915400    10.557300    -0.947900
     116    1      1  -0.19413973    -4.454400    11.236200     0.354700
     117    1      2   0.09706986    -5.215100     9.481000    -0.722000
     118    1      2   0.09706986    -5.801700    11.115200    -1.398000
     119    1      2   0.09706986    -4.169900    12.320400     0.147700
     120    1      2   0.09706986    -3.539900    10.676400     0.741400
     121    1      1  -0.19413973    -5.546100    11.176300     1.439700
     122    1      1  -0.19413973    -4.936700    11.763600     2.725700
     123    1      2   0.09706986    -6.472700    11.760200     1.123700
     124    1      2   0.09706986    -5.822700    10.086100     1.625100
     125    1      2   0.09706986    -4.674100    12.862100     2.571500
     126    1      2   0.09706986    -3.983900    11.181000     2.954200
     127    1      1  -0.19413973    -5.879800    11.607100     3.932800
     128    1      1  -0.19413973    -5.078700    12.063200     5.165500
     129    1      2   0.09706986    -6.833400    12.218300     3.803800
     130    1      2   0.09706986    -6.140800    10.503700     4.051400
     131    1      2   0.09706986    -4.828100    13.172800     5.091000
     132    1      2   0.09706986    -4.109400    11.463300     5.177700
     133    1      1  -0.19413973    -5.816200    11.763800     6.483200
     134    1      1  -0.19413973    -4.807100    12.046600     7.610900
     135    1      2   0.09706986    -6.764300    12.387000     6.593500
     136    1      2   0.09706986    -6.078000    10.654500     6.503900
     137    1      2   0.09706986    -4.544900    13.155100     7.654700
     138    1      2   0.09706986    -3.865500    11.451500     7.368700
     139    1      1  -0.19413973    -5.312600    11.549000     8.976800
     140    1      1  -0.19413973    -4.108600    11.628900     9.932800
     141    1      2   0.09706986    -5.606700    10.452900     8.868100
     142    1      2   0.09706986    -6.203800    12.152100     9.353200
     143    1      2   0.09706986    -3.797900    12.709900    10.118200
     144    1      2   0.09706986    -3.250200    11.077000     9.424700
     145    1      1  -0.19413973    -4.388600    10.894800    11.256100
     146    1      1  -0.19413973    -3.037500    10.753800    11.980700
     147    1      2   0.09706986    -4.757200     9.846400    11.002000
     148    1      2   0.09706986    -5.167700    11.432000    11.891800
     149    1      2   0.09706986    -2.632800    11.765500    12.315500
     150    1      2   0.09706986    -2.311700    10.289500    11.234200
     151    1      1  -0.19413973    -3.150900     9.773900    13.161900
     152    1      1  -0.19413973    -1.720300     9.420800    13.608500
     153    1      2   0.09706986    -3.633400     8.817300    12.772400
     154    1      2   0.09706986    -3.778100    10.198300    14.014000
     155    1      2   0.09706986    -1.186500    10.317100    14.068200
     156    1      2   0.09706986    -1.155600     9.084500    12.677000
     157    1      1  -0.19413973    -1.754400     8.223200    14.574400
     158    1      1  -0.19413973    -0.321800     7.679900    14.727400
     159    1      2   0.09706986    -2.376400     7.404100    14.082700
     160    1      2   0.09706986    -2.217400     8.500500    15.578500
     161    1      2   0.09706986     0.356900     8.418000    15.269700
     162    1      2   0.09706986     0.082400     7.496000    13.677500
     163    1      1  -0.19413973    -0.371200     6.319300    15.445300
     164    1      1  -0.19413973     0.996900     5.626400    15.306900
     165    1      2   0.09706986    -1.134200     5.671800    14.899400
     166    1      2   0.09706986    -0.681700     6.431000    16.536400
     167    1      2   0.09706986     1.812600     6.180100    15.879400
     168    1      2   0.09706986     1.258900     5.606400    14.197600
     169    1      1  -0.19413973     0.859200     4.167900    15.780500
     170    1      1  -0.19413973     2.109200     3.367000    15.371100
     171    1      2   0.09706986    -0.029200     3.712500    15.230100
     172    1      2   0.09706986     0.675100     4.112800    16.904100
     173    1      2   0.09706986     3.038900     3.724300    15.925700
     174    1      2   0.09706986     2.257500     3.509700    14.249900
     175    1      1  -0.19413973     1.841400     1.871500    15.622700
     176    1      1  -0.19413973     2.945800     1.025800    14.962500
     177    1      2   0.09706986     0.858100     1.606300    15.110600
     178    1      2   0.09706986     1.758000     1.649400    16.737700
     179    1      2   0.09706986     3.006200     1.329300    13.865300
     180    1      2   0.09706986     3.957500     1.195800    15.459800
     181    1      1  -0.19413973     2.533400    -0.456800    15.021000
     182    1      1  -0.19413973     3.482600    -1.285900    14.136700
     183    1      2   0.09706986     1.486000    -0.544500    14.579500
     184    1      2   0.09706986     2.524900    -0.839500    16.094800
     185    1      2   0.09706986     3.478900    -0.821300    13.095700
     186    1      2   0.09706986     4.544900    -1.278500    14.550400
     187    1      1  -0.19413973     2.945300    -2.724100    14.012800
     188    1      1  -0.19413973     3.753900    -3.464800    12.931700
     189    1      2   0.09706986     1.862300    -2.667500    13.661300
     190    1      2   0.09706986     2.992300    -3.268800    15.013100
     191    1      2   0.09706986     3.704800    -2.842500    11.977800
     192    1      2   0.09706986     4.842800    -3.584700    13.247100
     193    1      1  -0.19413973     3.116400    -4.834900    12.631700
     194    1      1  -0.19413973     3.815500    -5.423400    11.391900
     195    1      2   0.09706986     2.017300    -4.671700    12.376600
     196    1      2   0.09706986     3.201000    -5.533400    13.528600
     197    1      2   0.09706986     3.736300    -4.653100    10.555300
     198    1      2   0.09706986     4.915700    -5.625000    11.612100
     199    1      1  -0.19413973     3.120000    -6.710800    10.909400
     200    1      1  -0.19413973     3.754800    -7.100000     9.561100
     201    1      2   0.09706986     2.015000    -6.489000    10.738200
     202    1      2   0.09706986     3.229700    -7.547800    11.675500
     203    1      2   0.09706986     3.652600    -6.207900     8.858800
     204    1      2   0.09706986     4.860500    -7.339100     9.702300
     205    1      1  -0.19413973     3.036800    -8.297100     8.909400
     206    1      1  -0.19413973     3.652900    -8.476300     7.508900
     207    1      2   0.09706986     1.928200    -8.055400     8.798800
     208    1      2   0.09706986     3.165400    -9.238800     9.538900
     209    1      2   0.09706986     3.529000    -7.495100     6.941900
     210    1      2   0.09706986     4.763700    -8.712800     7.606900
     211    1      1  -0.19413973     2.957100    -9.588900     6.701300
     212    1      1  -0.19413973     3.582100    -9.595200     5.292200
     213    1      2   0.09706986     1.843700    -9.359100     6.617900
     214    1      2   0.09706986     3.104900   -10.598000     7.210800
     215    1      2   0.09706986     3.432700    -8.565600     4.826300
     216    1      2   0.09706986     4.698800    -9.807700     5.378200
     217    1      1  -0.19413973     2.937400   -10.649200     4.370900
     218    1      1  -0.19413973     3.597300   -10.536900     2.982300
     219    1      2   0.09706986     1.818700   -10.451300     4.276200
     220    1      2   0.09706986     3.107000   -11.691700     4.800000
     221    1      2   0.09706986     3.417000    -9.491100     2.566000
     222    1      2   0.09706986     4.718800   -10.712900     3.086000
     223    1      1  -0.19413973     1.496100   -11.370200     1.846900
     224    1      1  -0.19413973     3.012600   -11.579200     2.010000
     225    1      2   0.09706986     1.283800   -10.330600     1.430100
     226    1      2   0.09706986     0.994400   -11.483400     2.864500
     227    1      2   0.09706986     3.516800   -11.476300     0.992600
     228    1      2   0.09706986     3.203800   -12.624800     2.422000

Bonds

       1      1        1        2
       2      2        1        3
       3      2        1        4
       4      1        1        7
       5      2        2        5
       6      2        2        6
       7      1        2      223
       8      1        7        8
       9      2        7        9
      10      2        7       10
      11      2        8       11
      12      2        8       12
      13      1        8       13
      14      1       13       14
      15      2       13       15
      16      2       13       16
      17      2       14       17
      18      2       14       18
      19      1       14       19
      20      1       19       20
      21      2       19       21
      22      2       19       22
      23      2       20       23
      24      2       20       24
      25      1       20       25
      26      1       25       26
      27      2       25       27
      28      2       25       28
      29      2       26       29
      30      2       26       30
      31      1       26       31
      32      1       31       32
      33      2       31       33
      34      2       31       34
      35      2       32       35
      36      2       32       36
      37      1       32       37
      38      1       37       38
      39      2       37       39
      40      2       37       40
      41      2       38       41
      42      2       38       42
      43      1       38       43
      44      1       43       44
      45      2       43       45
      46      2       43       46
      47      2       44       47
      48      2       44       48
      49      1       44       49
      50      1       49       50
      51      2       49       51
      52      2       49       52
      53      2       50       53
      54      2       50       54
      55      1       50       55
      56      1       55       56
      57      2       55       57
      58      2       55       58
      59      2       56       59
      60      2       56       60
      61      1       56       61
      62      1       61       62
      63      2       61       63
      64      2       61       64
      65      2       62       65
      66      2       62       66
      67      1       62       67
      68      1       67       68
      69      2       67       69
      70      2       67       70
      71      2       68       71
      72      2       68       72
      73      1       68       73
      74      1       73       74
      75      2       73       75
      76      2       73       76
      77      2       74       77
      78      2       74       78
      79      1       74       79
      80      1       79       80
      81      2       79       81
      82      2       79       82
      83      2       80       83
      84      2       80       84
      85      1       80       85
      86      1       85       86
      87      2       85       87
      88      2       85       88
      89      2       86       89
      90      2       86       90
      91      1       86       91
      92      1       91       92
      93      2       91       93
      94      2       91       94
      95      2       92       95
      96      2       92       96
      97      1       92       97
      98      1       97       98
      99      2       97       99
     100      2       97      100
     101      2       98      101
     102      2       98      102
     103      1       98      103
     104      1      103      104
     105      2      103      105
     106      2      103      106
     107      2      104      107
     108      2      104      108
     109      1      104      109
     110      1      109      110
     111      2      109      111
     112      2      109      112
     113      2      110      113
     114      2      110      114
     115      1      110      115
     116      1      115      116
     117      2      115      117
     118      2      115      118
     119      2      116      119
     120      2      116      120
     121      1      116      121
     122      1      121      122
     123      2      121      123
     124      2      121      124
     125      2      122      125
     126      2      122      126
     127      1      122      127
     128      1      127      128
     129      2      127      129
     130      2      127      130
     131      2      128      131
     132      2      128      132
     133      1      128      133
     134      1      133      134
     135      2      133      135
     136      2      133      136
     137      2      134      137
     138      2      134      138
     139      1      134      139
     140      1      139      140
     141      2      139      141
     142      2      139      142
     143      2      140      143
     144      2      140      144
     145      1      140      145
     146      1      145      146
     147      2      145      147
     148      2      145      148
     149      2      146      149
     150      2      146      150
     151      1      146      151
     152      1      151      152
     153      2      151      153
     154      2      151      154
     155      2      152      155
     156      2      152      156
     157      1      152      157
     158      1      157      158
     159      2      157      159
     160      2      157      160
     161      2      158      161
     162      2      158      162
     163      1      158      163
     164      1      163      164
     165      2      163      165
     166      2      163      166
     167      2      164      167
     168      2      164      168
     169      1      164      169
     170      1      169      170
     171      2      169      171
     172      2      169      172
     173      2      170      173
     174      2      170      174
     175      1      170      175
     176      1      175      176
     177      2      175      177
     178      2      175      178
     179      2      176      179
     180      2      176      180
     181      1      176      181
     182      1      181      182
     183      2      181      183
     184      2      181      184
     185      2      182      185
     186      2      182      186
     187      1      182      187
     188      1      187      188
     189      2      187      189
     190      2      187      190
     191      2      188      191
     192      2      188      192
     193      1      188      193
     194      1      193      194
     195      2      193      195
     196      2      193      196
     197      2      194      197
     198      2      194      198
     199      1      194      199
     200      1      199      200
     201      2      199      201
     202      2      199      202
     203      2      200      203
     204      2      200      204
     205      1      200      205
     206      1      205      206
     207      2      205      207
     208      2      205      208
     209      2      206      209
     210      2      206      210
     211      1      206      211
     212      1      211      212
     213      2      211      213
     214      2      211      214
     215      2      212      215
     216      2      212      216
     217      1      212      217
     218      1      217      218
     219      2      217      219
     220      2      217      220
     221      2      218      221
     222      2      218      222
     223      1      218      224
     224      1      223      224
     225      2      223      225
     226      2      223      226
     227      2      224      227
     228      2      224      228

Angles

       1      2        1        2        5
       2      2        1        2        6
       3      1        1        2      223
       4      1        1        7        8
       5      2        1        7        9
       6      2        1        7       10
       7      2        2        1        3
       8      2        2        1        4
       9      1        2        1        7
      10      1        2      223      224
      11      2        2      223      225
      12      2        2      223      226
      13      3        3        1        4
      14      2        3        1        7
      15      2        4        1        7
      16      3        5        2        6
      17      2        5        2      223
      18      2        6        2      223
      19      2        7        8       11
      20      2        7        8       12
      21      1        7        8       13
      22      2        8        7        9
      23      2        8        7       10
      24      1        8       13       14
      25      2        8       13       15
      26      2        8       13       16
      27      3        9        7       10
      28      3       11        8       12
      29      2       11        8       13
      30      2       12        8       13
      31      2       13       14       17
      32      2       13       14       18
      33      1       13       14       19
      34      2       14       13       15
      35      2       14       13       16
      36      1       14       19       20
      37      2       14       19       21
      38      2       14       19       22
      39      3       15       13       16
      40      3       17       14       18
      41      2       17       14       19
      42      2       18       14       19
      43      2       19       20       23
      44      2       19       20       24
      45      1       19       20       25
      46      2       20       19       21
      47      2       20       19       22
      48      1       20       25       26
      49      2       20       25       27
      50      2       20       25       28
      51      3       21       19       22
      52      3       23       20       24
      53      2       23       20       25
      54      2       24       20       25
      55      2       25       26       29
      56      2       25       26       30
      57      1       25       26       31
      58      2       26       25       27
      59      2       26       25       28
      60      1       26       31       32
      61      2       26       31       33
      62      2       26       31       34
      63      3       27       25       28
      64      3       29       26       30
      65      2       29       26       31
      66      2       30       26       31
      67      2       31       32       35
      68      2       31       32       36
      69      1       31       32       37
      70      2       32       31       33
      71      2       32       31       34
      72      1       32       37       38
      73      2       32       37       39
      74      2       32       37       40
      75      3       33       31       34
      76      3       35       32       36
      77      2       35       32       37
      78      2       36       32       37
      79      2       37       38       41
      80      2       37       38       42
      81      1       37       38       43
      82      2       38       37       39
      83      2       38       37       40
      84      1       38       43       44
      85      2       38       43       45
      86      2       38       43       46
      87      3       39       37       40
      88      3       41       38       42
      89      2       41       38       43
      90      2       42       38       43
      91      2       43       44       47
      92      2       43       44       48
      93      1       43       44       49
      94      2       44       43       45
      95      2       44       43       46
      96      1       44       49       50
      97      2       44       49       51
      98      2       44       49       52
      99      3       45       43       46
     100      3       47       44       48
     101      2       47       44       49
     102      2       48       44       49
     103      2       49       50       53
     104      2       49       50       54
     105      1       49       50       55
     106      2       50       49       51
     107      2       50       49       52
     108      1       50       55       56
     109      2       50       55       57
     110      2       50       55       58
     111      3       51       49       52
     112      3       53       50       54
     113      2       53       50       55
     114      2       54       50       55
     115      2       55       56       59
     116      2       55       56       60
     117      1       55       56       61
     118      2       56       55       57
     119      2       56       55       58
     120      1       56       61       62
     121      2       56       61       63
     122      2       56       61       64
     123      3       57       55       58
     124      3       59       56       60
     125      2       59       56       61
     126      2       60       56       61
     127      2       61       62       65
     128      2       61       62       66
     129      1       61       62       67
     130      2       62       61       63
     131      2       62       61       64
     132      1       62       67       68
     133      2       62       67       69
     134      2       62       67       70
     135      3       63       61       64
     136      3       65       62       66
     137      2       65       62       67
     138      2       66       62       67
     139      2       67       68       71
     140      2       67       68       72
     141      1       67       68       73
     142      2       68       67       69
     143      2       68       67       70
     144      1       68       73       74
     145      2       68       73       75
     146      2       68       73       76
     147      3       69       67       70
     148      3       71       68       72
     149      2       71       68       73
     150      2       72       68       73
     151      2       73       74       77
     152      2       73       74       78
     153      1       73       74       79
     154      2       74       73       75
     155      2       74       73       76
     156      1       74       79       80
     157      2       74       79       81
     158      2       74       79       82
     159      3       75       73       76
     160      3       77       74       78
     161      2       77       74       79
     162      2       78       74       79
     163      2       79       80       83
     164      2       79       80       84
     165      1       79       80       85
     166      2       80       79       81
     167      2       80       79       82
     168      1       80       85       86
     169      2       80       85       87
     170      2       80       85       88
     171      3       81       79       82
     172      3       83       80       84
     173      2       83       80       85
     174      2       84       80       85
     175      2       85       86       89
     176      2       85       86       90
     177      1       85       86       91
     178      2       86       85       87
     179      2       86       85       88
     180      1       86       91       92
     181      2       86       91       93
     182      2       86       91       94
     183      3       87       85       88
     184      3       89       86       90
     185      2       89       86       91
     186      2       90       86       91
     187      2       91       92       95
     188      2       91       92       96
     189      1       91       92       97
     190      2       92       91       93
     191      2       92       91       94
     192      1       92       97       98
     193      2       92       97       99
     194      2       92       97      100
     195      3       93       91       94
     196      3       95       92       96
     197      2       95       92       97
     198      2       96       92       97
     199      2       97       98      101
     200      2       97       98      102
     201      1       97       98      103
     202      2       98       97       99
     203      2       98       97      100
     204      1       98      103      104
     205      2       98      103      105
     206      2       98      103      106
     207      3       99       97      100
     208      3      101       98      102
     209      2      101       98      103
     210      2      102       98      103
     211      2      103      104      107
     212      2      103      104      108
     213      1      103      104      109
     214      2      104      103      105
     215      2      104      103      106
     216      1      104      109      110
     217      2      104      109      111
     218      2      104      109      112
     219      3      105      103      106
     220      3      107      104      108
     221      2      107      104      109
     222      2      108      104      109
     223      2      109      110      113
     224      2      109      110      114
     225      1      109      110      115
     226      2      110      109      111
     227      2      110      109      112
     228      1      110      115      116
     229      2      110      115      117
     230      2      110      115      118
     231      3      111      109      112
     232      3      113      110      114
     233      2      113      110      115
     234      2      114      110      115
     235      2      115      116      119
     236      2      115      116      120
     237      1      115      116      121
     238      2      116      115      117
     239      2      116      115      118
     240      1      116      121      122
     241      2      116      121      123
     242      2      116      121      124
     243      3      117      115      118
     244      3      119      116      120
     245      2      119      116      121
     246      2      120      116      121
     247      2      121      122      125
     248      2      121      122      126
     249      1      121      122      127
     250      2      122      121      123
     251      2      122      121      124
     252      1      122      127      128
     253      2      122      127      129
     254      2      122      127      130
     255      3      123      121      124
     256      3      125      122      126
     257      2      125      122      127
     258      2      126      122      127
     259      2      127      128      131
     260      2      127      128      132
     261      1      127      128      133
     262      2      128      127      129
     263      2      128      127      130
     264      1      128      133      134
     265      2      128      133      135
     266      2      128      133      136
     267      3      129      127      130
     268      3      131      128      132
     269      2      131      128      133
     270      2      132      128      133
     271      2      133      134      137
     272      2      133      134      138
     273      1      133      134      139
     274      2      134      133      135
     275      2      134      133      136
     276      1      134      139      140
     277      2      134      139      141
     278      2      134      139      142
     279      3      135      133      136
     280      3      137      134      138
     281      2      137      134      139
     282      2      138      134      139
     283      2      139      140      143
     284      2      139      140      144
     285      1      139      140      145
     286      2      140      139      141
     287      2      140      139      142
     288      1      140      145      146
     289      2      140      145      147
     290      2      140      145      148
     291      3      141      139      142
     292      3      143      140      144
     293      2      143      140      145
     294      2      144      140      145
     295      2      145      146      149
     296      2      145      146      150
     297      1      145      146      151
     298      2      146      145      147
     299      2      146      145      148
     300      1      146      151      152
     301      2      146      151      153
     302      2      146      151      154
     303      3      147      145      148
     304      3      149      146      150
     305      2      149      146      151
     306      2      150      146      151
     307      2      151      152      155
     308      2      151      152      156
     309      1      151      152      157
     310      2      152      151      153
     311      2      152      151      154
     312      1      152      157      158
     313      2      152      157      159
     314      2      152      157      160
     315      3      153      151      154
     316      3      155      152      156
     317      2      155      152      157
     318      2      156      152      157
     319      2      157      158      161
     320      2      157      158      162
     321      1      157      158      163
     322      2      158      157      159
     323      2      158      157      160
     324      1      158      163      164
     325      2      158      163      165
     326      2      158      163      166
     327      3      159      157      160
     328      3      161      158      162
     329      2      161      158      163
     330      2      162      158      163
     331      2      163      164      167
     332      2      163      164      168
     333      1      163      164      169
     334      2      164      163      165
     335      2      164      163      166
     336      1      164      169      170
     337      2      164      169      171
     338      2      164      169      172
     339      3      165      163      166
     340      3      167      164      168
     341      2      167      164      169
     342      2      168      164      169
     343      2      169      170      173
     344      2      169      170      174
     345      1      169      170      175
     346      2      170      169      171
     347      2      170      169      172
     348      1      170      175      176
     349      2      170      175      177
     350      2      170      175      178
     351      3      171      169      172
     352      3      173      170      174
     353      2      173      170      175
     354      2      174      170      175
     355      2      175      176      179
     356      2      175      176      180
     357      1      175      176      181
     358      2      176      175      177
     359      2      176      175      178
     360      1      176      181      182
     361      2      176      181      183
     362      2      176      181      184
     363      3      177      175      178
     364      3      179      176      180
     365      2      179      176      181
     366      2      180      176      181
     367      2      181      182      185
     368      2      181      182      186
     369      1      181      182      187
     370      2      182      181      183
     371      2      182      181      184
     372      1      182      187      188
     373      2      182      187      189
     374      2      182      187      190
     375      3      183      181      184
     376      3      185      182      186
     377      2      185      182      187
     378      2      186      182      187
     379      2      187      188      191
     380      2      187      188      192
     381      1      187      188      193
     382      2      188      187      189
     383      2      188      187      190
     384      1      188      193      194
     385      2      188      193      195
     386      2      188      193      196
     387      3      189      187      190
     388      3      191      188      192
     389      2      191      188      193
     390      2      192      188      193
     391      2      193      194      197
     392      2      193      194      198
     393      1      193      194      199
     394      2      194      193      195
     395      2      194      193      196
     396      1      194      199      200
     397      2      194      199      201
     398      2      194      199      202
     399      3      195      193      196
     400      3      197      194      198
     401      2      197      194      199
     402      2      198      194      199
     403      2      199      200      203
     404      2      199      200      204
     405      1      199      200      205
     406      2      200      199      201
     407      2      200      199      202
     408      1      200      205      206
     409      2      200      205      207
     410      2      200      205      208
     411      3      201      199      202
     412      3      203      200      204
     413      2      203      200      205
     414      2      204      200      205
     415      2      205      206      209
     416      2      205      206      210
     417      1      205      206      211
     418      2      206      205      207
     419      2      206      205      208
     420      1      206      211      212
     421      2      206      211      213
     422      2      206      211      214
     423      3      207      205      208
     424      3      209      206      210
     425      2      209      206      211
     426      2      210      206      211
     427      2      211      212      215
     428      2      211      212      216
     429      1      211      212      217
     430      2      212      211      213
     431      2      212      211      214
     432      1      212      217      218
     433      2      212      217      219
     434      2      212      217      220
     435      3      213      211      214
     436      3      215      212      216
     437      2      215      212      217
     438      2      216      212      217
     439      2      217      218      221
     440      2      217      218      222
     441      1      217      218      224
     442      2      218      217      219
     443      2      218      217      220
     444      1      218      224      223
     445      2      218      224      227
     446      2      218      224      228
     447      3      219      217      220
     448      3      221      218      222
     449      2      221      218      224
     450      2      222      218      224
     451      2      223      224      227
     452      2      223      224      228
     453      2      224      223      225
     454      2      224      223      226
     455      3      225      223      226
     456      3      227      224      228

Dihedrals

       1      1        1        2      223      224
       2      2        1        2      223      225
       3      2        1        2      223      226
       4      2        1        7        8       11
       5      2        1        7        8       12
       6      1        1        7        8       13
       7      1        2        1        7        8
       8      2        2        1        7        9
       9      2        2        1        7       10
      10      1        2      223      224      218
      11      2        2      223      224      227
      12      2        2      223      224      228
      13      3        3        1        2        5
      14      3        3        1        2        6
      15      2        3        1        2      223
      16      2        3        1        7        8
      17      3        3        1        7        9
      18      3        3        1        7       10
      19      3        4        1        2        5
      20      3        4        1        2        6
      21      2        4        1        2      223
      22      2        4        1        7        8
      23      3        4        1        7        9
      24      3        4        1        7       10
      25      2        5        2        1        7
      26      2        5        2      223      224
      27      3        5        2      223      225
      28      3        5        2      223      226
      29      2        6        2        1        7
      30      2        6        2      223      224
      31      3        6        2      223      225
      32      3        6        2      223      226
      33      1        7        1        2      223
      34      1        7        8       13       14
      35      2        7        8       13       15
      36      2        7        8       13       16
      37      2        8       13       14       17
      38      2        8       13       14       18
      39      1        8       13       14       19
      40      3        9        7        8       11
      41      3        9        7        8       12
      42      2        9        7        8       13
      43      3       10        7        8       11
      44      3       10        7        8       12
      45      2       10        7        8       13
      46      2       11        8       13       14
      47      3       11        8       13       15
      48      3       11        8       13       16
      49      2       12        8       13       14
      50      3       12        8       13       15
      51      3       12        8       13       16
      52      1       13       14       19       20
      53      2       13       14       19       21
      54      2       13       14       19       22
      55      2       14       19       20       23
      56      2       14       19       20       24
      57      1       14       19       20       25
      58      3       15       13       14       17
      59      3       15       13       14       18
      60      2       15       13       14       19
      61      3       16       13       14       17
      62      3       16       13       14       18
      63      2       16       13       14       19
      64      2       17       14       19       20
      65      3       17       14       19       21
      66      3       17       14       19       22
      67      2       18       14       19       20
      68      3       18       14       19       21
      69      3       18       14       19       22
      70      1       19       20       25       26
      71      2       19       20       25       27
      72      2       19       20       25       28
      73      2       20       25       26       29
      74      2       20       25       26       30
      75      1       20       25       26       31
      76      3       21       19       20       23
      77      3       21       19       20       24
      78      2       21       19       20       25
      79      3       22       19       20       23
      80      3       22       19       20       24
      81      2       22       19       20       25
      82      2       23       20       25       26
      83      3       23       20       25       27
      84      3       23       20       25       28
      85      2       24       20       25       26
      86      3       24       20       25       27
      87      3       24       20       25       28
      88      1       25       26       31       32
      89      2       25       26       31       33
      90      2       25       26       31       34
      91      2       26       31       32       35
      92      2       26       31       32       36
      93      1       26       31       32       37
      94      3       27       25       26       29
      95      3       27       25       26       30
      96      2       27       25       26       31
      97      3       28       25       26       29
      98      3       28       25       26       30
      99      2       28       25       26       31
     100      2       29       26       31       32
     101      3       29       26       31       33
     102      3       29       26       31       34
     103      2       30       26       31       32
     104      3       30       26       31       33
     105      3       30       26       31       34
     106      1       31       32       37       38
     107      2       31       32       37       39
     108      2       31       32       37       40
     109      2       32       37       38       41
     110      2       32       37       38       42
     111      1       32       37       38       43
     112      3       33       31       32       35
     113      3       33       31       32       36
     114      2       33       31       32       37
     115      3       34       31       32       35
     116      3       34       31       32       36
     117      2       34       31       32       37
     118      2       35       32       37       38
     119      3       35       32       37       39
     120      3       35       32       37       40
     121      2       36       32       37       38
     122      3       36       32       37       39
     123      3       36       32       37       40
     124      1       37       38       43       44
     125      2       37       38       43       45
     126      2       37       38       43       46
     127      2       38       43       44       47
     128      2       38       43       44       48
     129      1       38       43       44       49
     130      3       39       37       38       41
     131      3       39       37       38       42
     132      2       39       37       38       43
     133      3       40       37       38       41
     134      3       40       37       38       42
     135      2       40       37       38       43
     136      2       41       38       43       44
     137      3       41       38       43       45
     138      3       41       38       43       46
     139      2       42       38       43       44
     140      3       42       38       43       45
     141      3       42       38       43       46
     142      1       43       44       49       50
     143      2       43       44       49       51
     144      2       43       44       49       52
     145      2       44       49       50       53
     146      2       44       49       50       54
     147      1       44       49       50       55
     148      3       45       43       44       47
     149      3       45       43       44       48
     150      2       45       43       44       49
     151      3       46       43       44       47
     152      3       46       43       44       48
     153      2       46       43       44       49
     154      2       47       44       49       50
     155      3       47       44       49       51
     156      3       47       44       49       52
     157      2       48       44       49       50
     158      3       48       44       49       51
     159      3       48       44       49       52
     160      1       49       50       55       56
     161      2       49       50       55       57
     162      2       49       50       55       58
     163      2       50       55       56       59
     164      2       50       55       56       60
     165      1       50       55       56       61
     166      3       51       49       50       53
     167      3       51       49       50       54
     168      2       51       49       50       55
     169      3       52       49       50       53
     170      3       52       49       50       54
     171      2       52       49       50       55
     172      2       53       50       55       56
     173      3       53       50       55       57
     174      3       53       50       55       58
     175      2       54       50       55       56
     176      3       54       50       55       57
     177      3       54       50       55       58
     178      1       55       56       61       62
     179      2       55       56       61       63
     180      2       55       56       61       64
     181      2       56       61       62       65
     182      2       56       61       62       66
     183      1       56       61       62       67
     184      3       57       55       56       59
     185      3       57       55       56       60
     186      2       57       55       56       61
     187      3       58       55       56       59
     188      3       58       55       56       60
     189      2       58       55       56       61
     190      2       59       56       61       62
     191      3       59       56       61       63
     192      3       59       56       61       64
     193      2       60       56       61       62
     194      3       60       56       61       63
     195      3       60       56       61       64
     196      1       61       62       67       68
     197      2       61       62       67       69
     198      2       61       62       67       70
     199      2       62       67       68       71
     200      2       62       67       68       72
     201      1       62       67       68       73
     202      3       63       61       62       65
     203      3       63       61       62       66
     204      2       63       61       62       67
     205      3       64       61       62       65
     206      3       64       61       62       66
     207      2       64       61       62       67
     208      2       65       62       67       68
     209      3       65       62       67       69
     210      3       65       62       67       70
     211      2       66       62       67       68
     212      3       66       62       67       69
     213      3       66       62       67       70
     214      1       67       68       73       74
     215      2       67       68       73       75
     216      2       67       68       73       76
     217      2       68       73       74       77
     218      2       68       73       74       78
     219      1       68       73       74       79
     220      3       69       67       68       71
     221      3       69       67       68       72
     222      2       69       67       68       73
     223      3       70       67       68       71
     224      3       70       67       68       72
     225      2       70       67       68       73
     226      2       71       68       73       74
     227      3       71       68       73       75
     228      3       71       68       73       76
     229      2       72       68       73       74
     230      3       72       68       73       75
     231      3       72       68       73       76
     232      1       73       74       79       80
     233      2       73       74       79       81
     234      2       73       74       79       82
     235      2       74       79       80       83
     236      2       74       79       80       84
     237      1       74       79       80       85
     238      3       75       73       74       77
     239      3       75       73       74       78
     240      2       75       73       74       79
     241      3       76       73       74       77
     242      3       76       73       74       78
     243      2       76       73       74       79
     244      2       77       74       79       80
     245      3       77       74       79       81
     246      3       77       74       79       82
     247      2       78       74       79       80
     248      3       78       74       79       81
     249      3       78       74       79       82
     250      1       79       80       85       86
     251      2       79       80       85       87
     252      2       79       80       85       88
     253      2       80       85       86       89
     254      2       80       85       86       90
     255      1       80       85       86       91
     256      3       81       79       80       83
     257      3       81       79       80       84
     258      2       81       79       80       85
     259      3       82       79       80       83
     260      3       82       79       80       84
     261      2       82       79       80       85
     262      2       83       80       85       86
     263      3       83       80       85       87
     264      3       83       80       85       88
     265      2       84       80       85       86
     266      3       84       80       85       87
     267      3       84       80       85       88
     268      1       85       86       91       92
     269      2       85       86       91       93
     270      2       85       86       91       94
     271      2       86       91       92       95
     272      2       86       91       92       96
     273      1       86       91       92       97
     274      3       87       85       86       89
     275      3       87       85       86       90
     276      2       87       85       86       91
     277      3       88       85       86       89
     278      3       88       85       86       90
     279      2       88       85       86       91
     280      2       89       86       91       92
     281      3       89       86       91       93
     282      3       89       86       91       94
     283      2       90       86       91       92
     284      3       90       86       91       93
     285      3       90       86       91       94
     286      1       91       92       97       98
     287      2       91       92       97       99
     288      2       91       92       97      100
     289      2       92       97       98      101
     290      2       92       97       98      102
     291      1       92       97       98      103
     292      3       93       91       92       95
     293      3       93       91       92       96
     294      2       93       91       92       97
     295      3       94       91       92       95
     296      3       94       91       92       96
     297      2       94       91       92       97
     298      2       95       92       97       98
     299      3       95       92       97       99
     300      3       95       92       97      100
     301      2       96       92       97       98
     302      3       96       92       97       99
     303      3       96       92       97      100
     304      1       97       98      103      104
     305      2       97       98      103      105
     306      2       97       98      103      106
     307      2       98      103      104      107
     308      2       98      103      104      108
     309      1       98      103      104      109
     310      3       99       97       98      101
     311      3       99       97       98      102
     312      2       99       97       98      103
     313      3      100       97       98      101
     314      3      100       97       98      102
     315      2      100       97       98      103
     316      2      101       98      103      104
     317      3      101       98      103      105
     318      3      101       98      103      106
     319      2      102       98      103      104
     320      3      102       98      103      105
     321      3      102       98      103      106
     322      1      103      104      109      110
     323      2      103      104      109      111
     324      2      103      104      109      112
     325      2      104      109      110      113
     326      2      104      109      110      114
     327      1      104      109      110      115
     328      3      105      103      104      107
     329      3      105      103      104      108
     330      2      105      103      104      109
     331      3      106      103      104      107
     332      3      106      103      104      108
     333      2      106      103      104      109
     334      2      107      104      109      110
     335      3      107      104      109      111
     336      3      107      104      109      112
     337      2      108      104      109      110
     338      3      108      104      109      111
     339      3      108      104      109      112
     340      1      109      110      115      116
     341      2      109      110      115      117
     342      2      109      110      115      118
     343      2      110      115      116      119
     344      2      110      115      116      120
     345      1      110      115      116      121
     346      3      111      109      110      113
     347      3      111      109      110      114
     348      2      111      109      110      115
     349      3      112      109      110      113
     350      3      112      109      110      114
     351      2      112      109      110      115
     352      2      113      110      115      116
     353      3      113      110      115      117
     354      3      113      110      115      118
     355      2      114      110      115      116
     356      3      114      110      115      117
     357      3      114      110      115      118
     358      1      115      116      121      122
     359      2      115      116      121      123
     360      2      115      116      121      124
     361      2      116      121      122      125
     362      2      116      121      122      126
     363      1      116      121      122      127
     364      3      117      115      116      119
     365      3      117      115      116      120
     366      2      117      115      116      121
     367      3      118      115      116      119
     368      3      118      115      116      120
     369      2      118      115      116      121
     370      2      119      116      121      122
     371      3      119      116      121      123
     372      3      119      116      121      124
     373      2      120      116      121      122
     374      3      120      116      121      123
     375      3      120      116      121      124
     376      1      121      122      127      128
     377      2      121      122      127      129
     378      2      121      122      127      130
     379      2      122      127      128      131
     380      2      122      127      128      132
     381      1      122      127      128      133
     382      3      123      121      122      125
     383      3      123      121      122      126
     384      2      123      121      122      127
     385      3      124      121      122      125
     386      3      124      121      122      126
     387      2      124      121      122      127
     388      2      125      122      127      128
     389      3      125      122      127      129
     390      3      125      122      127      130
     391      2      126      122      127      128
     392      3      126      122      127      129
     393      3      126      122      127      130
     394      1      127      128      133      134
     395      2      127      128      133      135
     396      2      127      128      133      136
     397      2      128      133      134      137
     398      2      128      133      134      138
     399      1      128      133      134      139
     400      3      129      127      128      131
     401      3      129      127      128      132
     402      2      129      127      128      133
     403      3      130      127      128      131
     404      3      130      127      128      132
     405      2      130      127      128      133
     406      2      131      128      133      134
     407      3      131      128      133      135
     408      3      131      128      133      136
     409      2      132      128      133      134
     410      3      132      128      133      135
     411      3      132      128      133      136
     412      1      133      134      139      140
     413      2      133      134      139      141
     414      2      133      134      139      142
     415      2      134      139      140      143
     416      2      134      139      140      144
     417      1      134      139      140      145
     418      3      135      133      134      137
     419      3      135      133      134      138
     420      2      135      133      134      139
     421      3      136      133      134      137
     422      3      136      133      134      138
     423      2      136      133      134      139
     424      2      137      134      139      140
     425      3      137      134      139      141
     426      3      137      134      139      142
     427      2      138      134      139      140
     428      3      138      134      139      141
     429      3      138      134      139      142
     430      1      139      140      145      146
     431      2      139      140      145      147
     432      2      139      140      145      148
     433      2      140      145      146      149
     434      2      140      145      146      150
     435      1      140      145      146      151
     436      3      141      139      140      143
     437      3      141      139      140      144
     438      2      141      139      140      145
     439      3      142      139      140      143
     440      3      142      139      140      144
     441      2      142      139      140      145
     442      2      143      140      145      146
     443      3      143      140      145      147
     444      3      143      140      145      148
     445      2      144      140      145      146
     446      3      144      140      145      147
     447      3      144      140      145      148
     448      1      145      146      151      152
     449      2      145      146      151      153
     450      2      145      146      151      154
     451      2      146      151      152      155
     452      2      146      151      152      156
     453      1      146      151      152      157
     454      3      147      145      146      149
     455      3      147      145      146      150
     456      2      147      145      146      151
     457      3      148      145      146      149
     458      3      148      145      146      150
     459      2      148      145      146      151
     460      2      149      146      151      152
     461      3      149      146      151      153
     462      3      149      146      151      154
     463      2      150      146      151      152
     464      3      150      146      151      153
     465      3      150      146      151      154
     466      1      151      152      157      158
     467      2      151      152      157      159
     468      2      151      152      157      160
     469      2      152      157      158      161
     470      2      152      157      158      162
     471      1      152      157      158      163
     472      3      153      151      152      155
     473      3      153      151      152      156
     474      2      153      151      152      157
     475      3      154      151      152      155
     476      3      154      151      152      156
     477      2      154      151      152      157
     478      2      155      152      157      158
     479      3      155      152      157      159
     480      3      155      152      157      160
     481      2      156      152      157      158
     482      3      156      152      157      159
     483      3      156      152      157      160
     484      1      157      158      163      164
     485      2      157      158      163      165
     486      2      157      158      163      166
     487      2      158      163      164      167
     488      2      158      163      164      168
     489      1      158      163      164      169
     490      3      159      157      158      161
     491      3      159      157      158      162
     492      2      159      157      158      163
     493      3      160      157      158      161
     494      3      160      157      158      162
     495      2      160      157      158      163
     496      2      161      158      163      164
     497      3      161      158      163      165
     498      3      161      158      163      166
     499      2      162      158      163      164
     500      3      162      158      163      165
     501      3      162      158      163      166
     502      1      163      164      169      170
     503      2      163      164      169      171
     504      2      163      164      169      172
     505      2      164      169      170      173
     506      2      164      169      170      174
     507      1      164      169      170      175
     508      3      165      163      164      167
     509      3      165      163      164      168
     510      2      165      163      164      169
     511      3      166      163      164      167
     512      3      166      163      164      168
     513      2      166      163      164      169
     514      2      167      164      169      170
     515      3      167      164      169      171
     516      3      167      164      169      172
     517      2      168      164      169      170
     518      3      168      164      169      171
     519      3      168      164      169      172
     520      1      169      170      175      176
     521      2      169      170      175      177
     522      2      169      170      175      178
     523      2      170      175      176      179
     524      2      170      175      176      180
     525      1      170      175      176      181
     526      3      171      169      170      173
     527      3      171      169      170      174
     528      2      171      169      170      175
     529      3      172      169      170      173
     530      3      172      169      170      174
     531      2      172      169      170      175
     532      2      173      170      175      176
     533      3      173      170      175      177
     534      3      173      170      175      178
     535      2      174      170      175      176
     536      3      174      170      175      177
     537      3      174      170      175      178
     538      1      175      176      181      182
     539      2      175      176      181      183
     540      2      175      176      181      184
     541      2      176      181      182      185
     542      2      176      181      182      186
     543      1      176      181      182      187
     544      3      177      175      176      179
     545      3      177      175      176      180
     546      2      177      175      176      181
     547      3      178      175      176      179
     548      3      178      175      176      180
     549      2      178      175      176      181
     550      2      179      176      181      182
     551      3      179      176      181      183
     552      3      179      176      181      184
     553      2      180      176      181      182
     554      3      180      176      181      183
     555      3      180      176      181      184
     556      1      181      182      187      188
     557      2      181      182      187      189
     558      2      181      182      187      190
     559      2      182      187      188      191
     560      2      182      187      188      192
     561      1      182      187      188      193
     562      3      183      181      182      185
     563      3      183      181      182      186
     564      2      183      181      182      187
     565      3      184      181      182      185
     566      3      184      181      182      186
     567      2      184      181      182      187
     568      2      185      182      187      188
     569      3      185      182      187      189
     570      3      185      182      187      190
     571      2      186      182      187      188
     572      3      186      182      187      189
     573      3      186      182      187      190
     574      1      187      188      193      194
     575      2      187      188      193      195
     576      2      187      188      193      196
     577      2      188      193      194      197
     578      2      188      193      194      198
     579      1      188      193      194      199
     580      3      189      187      188      191
     581      3      189      187      188      192
     582      2      189      187      188      193
     583      3      190      187      188      191
     584      3      190      187      188      192
     585      2      190      187      188      193
     586      2      191      188      193      194
     587      3      191      188      193      195
     588      3      191      188      193      196
     589      2      192      188      193      194
     590      3      192      188      193      195
     591      3      192      188      193      196
     592      1      193      194      199      200
     593      2      193      194      199      201
     594      2      193      194      199      202
     595      2      194      199      200      203
     596      2      194      199      200      204
     597      1      194      199      200      205
     598      3      195      193      194      197
     599      3      195      193      194      198
     600      2      195      193      194      199
     601      3      196      193      194      197
     602      3      196      193      194      198
     603      2      196      193      194      199
     604      2      197      194      199      200
     605      3      197      194      199      201
     606      3      197      194      199      202
     607      2      198      194      199      200
     608      3      198      194      199      201
     609      3      198      194      199      202
     610      1      199      200      205      206
     611      2      199      200      205      207
     612      2      199      200      205      208
     613      2      200      205      206      209
     614      2      200      205      206      210
     615      1      200      205      206      211
     616      3      201      199      200      203
     617      3      201      199      200      204
     618      2      201      199      200      205
     619      3      202      199      200      203
     620      3      202      199      200      204
     621      2      202      199      200      205
     622      2      203      200      205      206
     623      3      203      200      205      207
     624      3      203      200      205      208
     625      2      204      200      205      206
     626      3      204      200      205      207
     627      3      204      200      205      208
     628      1      205      206      211      212
     629      2      205      206      211      213
     630      2      205      206      211      214
     631      2      206      211      212      215
     632      2      206      211      212      216
     633      1      206      211      212      217
     634      3      207      205      206      209
     635      3      207      205      206      210
     636      2      207      205      206      211
     637      3      208      205      206      209
     638      3      208      205      206      210
     639      2      208      205      206      211
     640      2      209      206      211      212
     641      3      209      206      211      213
     642      3      209      206      211      214
     643      2      210      206      211      212
     644      3      210      206      211      213
     645      3      210      206      211      214
     646      1      211      212      217      218
     647      2      211      212      217      219
     648      2      211      212      217      220
     649      2      212      217      218      221
     650      2      212      217      218      222
     651      1      212      217      218      224
     652      3      213      211      212      215
     653      3      213      211      212      216
     654      2      213      211      212      217
     655      3      214      211      212      215
     656      3      214      211      212      216
     657      2      214      211      212      217
     658      2      215      212      217      218
     659      3      215      212      217      219
     660      3      215      212      217      220
     661      2      216      212      217      218
     662      3      216      212      217      219
     663      3      216      212      217      220
     664      1      217      218      224      223
     665      2      217      218      224      227
     666      2      217      218      224      228
     667      2      218      224      223      225
     668      2      218      224      223      226
     669      3      219      217      218      221
     670      3      219      217      218      222
     671      2      219      217      218      224
     672      3      220      217      218      221
     673      3      220      217      218      222
     674      2      220      217      218      224
     675      2      221      218      224      223
     676      3      221      218      224      227
     677      3      221      218      224      228
     678      2      222      218      224      223
     679      3      222      218      224      227
     680      3      222      218      224      228
     681      3      225      223      224      227
     682      3      225      223      224      228
     683      3      226      223      224      227
     684      3      226      223      224      228

Impropers


