LAMMPS data file generated by GM 1-hop + monomer-charge pipeline

     949 atoms
     975 bonds
    1769 angles
    2411 dihedrals
     156 impropers

       9 atom types
      12 bond types
      21 angle types
      26 dihedral types
       2 improper types

  -43.332700    50.825100 xlo xhi
  -61.181700    67.592700 ylo yhi
  -70.819200    57.882300 zlo zhi

Masses

       1    12.011000
       2    12.011000
       3    12.011000
       4    12.011000
       5    12.011000
       6     1.008000
       7     1.008000
       8    15.999000
       9    15.999000

Pair Coeffs

       1     0.070000     3.550000
       2     0.070000     3.550000
       3     0.066000     3.500000
       4     0.066000     3.500000
       5     0.066000     3.500000
       6     0.030000     2.420000
       7     0.030000     2.500000
       8     0.140000     2.900000
       9     0.140000     2.900000

Bond Coeffs

       1   469.000000     1.400000
       2   469.000000     1.400000
       3   367.000000     1.080000
       4   450.000000     1.364000
       5   268.000000     1.529000
       6   340.000000     1.090000
       7   320.000000     1.410000
       8   268.000000     1.529000
       9   340.000000     1.090000
      10   320.000000     1.410000
      11   268.000000     1.529000
      12   340.000000     1.090000

Angle Coeffs

       1    63.000000   120.000000
       2    35.000000   120.000000
       3    63.000000   120.000000
       4    70.000000   120.000000
       5    35.000000   120.000000
       6    75.000000   111.000000
       7    58.350000   112.700000
       8    37.500000   110.700000
       9    58.350000   112.700000
      10    37.500000   110.700000
      11    60.000000   109.500000
      12    37.500000   110.700000
      13    50.000000   109.500000
      14    37.500000   110.700000
      15    50.000000   109.500000
      16    37.500000   110.700000
      17    33.000000   107.800000
      18    35.000000   109.500000
      19    33.000000   107.800000
      20    35.000000   109.500000
      21    33.000000   107.800000

Dihedral Coeffs

       1     0.000000     7.250000     0.000000     0.000000
       2     0.000000     7.250000     0.000000     0.000000
       3     0.000000     7.250000     0.000000     0.000000
       4     0.000000     3.370000     0.000000     0.300000
       5     0.000000     7.250000     0.000000     0.000000
       6     0.000000     7.250000     0.000000     0.000000
       7     0.250000    -0.250000     0.500000     0.000000
       8     0.000000     0.000000     0.760000     0.000000
       9     0.850000    -0.200000     0.200000     0.000000
      10     0.850000    -0.200000     0.200000     0.000000
      11     0.000000     0.000000     0.300000     0.000000
      12     0.850000    -0.200000     0.200000     0.000000
      13     0.000000     0.000000     0.300000     0.000000
      14     0.250000    -0.250000     0.500000     0.000000
      15     0.000000     0.000000     0.760000     0.000000
      16     0.000000     0.000000     0.300000     0.000000
      17     1.300000    -0.500000     0.000000     0.000000
      18     0.000000     0.000000     0.300000     0.000000
      19     1.300000    -0.500000     0.000000     0.000000
      20     0.000000     7.250000     0.000000     0.000000
      21     0.000000     7.250000     0.000000     0.000000
      22     0.000000     0.000000     0.300000     0.000000
      23     0.000000     0.000000     0.300000     0.000000
      24     0.000000     0.000000     0.300000     0.000000
      25     0.000000     0.000000     0.300000     0.000000
      26     0.000000     0.000000     0.300000     0.000000

Improper Coeffs

       1     2.500000   -1    2
       2     2.500000   -1    2

Atoms

       1    1      5  -0.21137577    19.438600   -14.280800    21.557400
       2    1      4  -0.00719077    19.022400   -13.606800    20.233300
       3    1      9  -0.40473377    18.814500   -14.573300    19.087100
       4    1      4  -0.00625377    17.653700   -15.483100    19.415900
       5    1      5  -0.18704577    17.022400   -16.100900    18.149300
       6    1      7   0.10865923    18.675600   -15.082400    21.831300
       7    1      7   0.10865923    20.472200   -14.751000    21.456700
       8    1      7   0.10102223    19.817300   -12.841900    19.945600
       9    1      7   0.10102223    18.034700   -13.063900    20.404300
      10    1      7   0.08267623    16.849600   -14.859300    19.929500
      11    1      7   0.08267623    18.000400   -16.301900    20.129300
      12    1      7   0.11594223    16.131900   -16.736400    18.469800
      13    1      7   0.11594223    17.772600   -16.750100    17.587600
      14    1      5  -0.21382885    19.428600   -13.189000    22.648600
      15    1      4  -0.01507585    19.780800   -13.717600    24.055700
      16    1      9  -0.38303285    21.235600   -14.107700    24.184400
      17    1      4  -0.01663585    21.853300   -13.169100    25.198200
      18    1      5  -0.18091585    23.380500   -13.350900    25.299100
      19    1      7   0.10214115    20.149800   -12.351000    22.370400
      20    1      7   0.10214115    18.370100   -12.767500    22.687200
      21    1      7   0.10208415    19.108600   -14.602200    24.310800
      22    1      7   0.10208415    19.591000   -12.881000    24.806500
      23    1      7   0.08258715    21.646400   -12.100900    24.857900
      24    1      7   0.08258715    21.377700   -13.331900    26.221400
      25    1      7   0.11793215    23.651400   -14.389000    25.684400
      26    1      7   0.11793215    23.820200   -13.204000    24.257600
      27    1      5  -0.21382885    23.948100   -12.253800    26.221800
      28    1      4  -0.01507585    23.533000   -12.392400    27.701100
      29    1      9  -0.38303285    24.249000   -13.548100    28.363600
      30    1      4  -0.01663585    24.142300   -13.351400    29.859400
      31    1      5  -0.18091585    25.380100   -13.928900    30.575500
      32    1      7   0.10214115    25.087100   -12.263600    26.175500
      33    1      7   0.10214115    23.571600   -11.253100    25.826100
      34    1      7   0.10208415    22.401400   -12.485400    27.804100
      35    1      7   0.10208415    23.879200   -11.447100    28.235900
      36    1      7   0.08258715    24.138800   -12.228200    30.054300
      37    1      7   0.08258715    23.177500   -13.804000    30.264100
      38    1      7   0.11793215    25.433300   -15.063100    30.474600
      39    1      7   0.11793215    26.303900   -13.462000    30.097700
      40    1      5  -0.21382885    25.347700   -13.500100    32.056000
      41    1      4  -0.01507585    26.697100   -13.801800    32.737700
      42    1      9  -0.38303285    27.006600   -15.271100    32.902700
      43    1      4  -0.01663585    28.498100   -15.336900    33.133400
      44    1      5  -0.18091585    28.974900   -16.629400    33.823600
      45    1      7   0.10214115    24.483800   -13.997100    32.609400
      46    1      7   0.10214115    25.205700   -12.369200    32.077800
      47    1      7   0.10208415    26.704500   -13.328700    33.774900
      48    1      7   0.10208415    27.518500   -13.320100    32.110900
      49    1      7   0.08258715    28.806400   -14.459300    33.792400
      50    1      7   0.08258715    29.015100   -15.235600    32.122600
      51    1      7   0.11793215    30.112800   -16.588900    33.879400
      52    1      7   0.11793215    28.658600   -17.554900    33.237800
      53    1      5  -0.21382885    28.438600   -16.678600    35.266600
      54    1      4  -0.01507585    29.141000   -17.823300    36.021300
      55    1      9  -0.38303285    28.803400   -19.188500    35.471700
      56    1      4  -0.01663585    29.913600   -20.108900    35.920400
      57    1      5  -0.18091585    29.522800   -21.596400    35.837600
      58    1      7   0.10214115    27.305600   -16.803300    35.277900
      59    1      7   0.10214115    28.718100   -15.700200    35.780800
      60    1      7   0.10208415    28.847200   -17.795600    37.122500
      61    1      7   0.10208415    30.265700   -17.658800    35.934700
      62    1      7   0.08258715    30.180700   -19.873000    37.003200
      63    1      7   0.08258715    30.825100   -19.916200    35.263300
      64    1      7   0.11793215    30.432000   -22.219300    36.129100
      65    1      7   0.11793215    29.196300   -21.873700    34.781100
      66    1      5  -0.21382885    28.399900   -21.885100    36.851700
      67    1      4  -0.01507585    28.136800   -23.402200    36.903700
      68    1      9  -0.38303285    27.618100   -23.927300    35.586300
      69    1      4  -0.01663585    27.731000   -25.432600    35.631400
      70    1      5  -0.18091585    26.403700   -26.155700    35.326900
      71    1      7   0.10214115    27.451500   -21.318200    36.571200
      72    1      7   0.10214115    28.752400   -21.548400    37.882300
      73    1      7   0.10208415    27.372500   -23.633600    37.717200
      74    1      7   0.10208415    29.117900   -23.926400    37.153600
      75    1      7   0.08258715    28.522000   -25.764200    34.880500
      76    1      7   0.08258715    28.067900   -25.734900    36.677800
      77    1      7   0.11793215    26.598300   -27.276600    35.399300
      78    1      7   0.11793215    26.029800   -25.904000    34.279800
      79    1      5  -0.21382885    25.342300   -25.774000    36.376200
      80    1      4  -0.01507585    24.112800   -26.697800    36.255800
      81    1      9  -0.38303285    23.359300   -26.610000    34.947300
      82    1      4  -0.01663585    22.461000   -27.827100    34.943900
      83    1      5  -0.18091585    21.507600   -27.955700    33.737000
      84    1      7   0.10214115    25.049000   -24.678000    36.264700
      85    1      7   0.10214115    25.792200   -25.939500    37.410600
      86    1      7   0.10208415    23.385800   -26.461200    37.101300
      87    1      7   0.10208415    24.479400   -27.770000    36.380500
      88    1      7   0.08258715    21.841200   -27.841200    35.900600
      89    1      7   0.08258715    23.146100   -28.738300    34.942700
      90    1      7   0.11793215    21.012700   -28.980100    33.808900
      91    1      7   0.11793215    22.102000   -27.901900    32.765700
      92    1      5  -0.21382885    20.369600   -26.912900    33.725200
      93    1      4  -0.01507585    19.424500   -27.284200    32.562500
      94    1      9  -0.38303285    18.182400   -26.422600    32.458400
      95    1      4  -0.01663585    17.419700   -26.945500    31.260100
      96    1      5  -0.18091585    16.163000   -26.150400    30.836100
      97    1      7   0.10214115    20.786700   -25.860200    33.593200
      98    1      7   0.10214115    19.794100   -26.979400    34.706900
      99    1      7   0.10208415    20.005600   -27.213200    31.584200
     100    1      7   0.10208415    19.088200   -28.363400    32.710400
     101    1      7   0.08258715    18.144400   -26.915700    30.380600
     102    1      7   0.08258715    17.126300   -28.031000    31.447600
     103    1      7   0.11793215    16.453700   -25.063000    30.655700
     104    1      7   0.11793215    15.811700   -26.600500    29.849500
     105    1      5  -0.21382885    14.950500   -26.203900    31.793600
     106    1      4  -0.01507585    13.791900   -25.466000    31.081700
     107    1      9  -0.38303285    12.459200   -25.444200    31.807400
     108    1      4  -0.01663585    11.496300   -24.682200    30.915800
     109    1      5  -0.18091585    10.071600   -24.428200    31.468700
     110    1      7   0.10214115    15.201000   -25.706800    32.788500
     111    1      7   0.10214115    14.653700   -27.290700    31.967900
     112    1      7   0.10208415    14.116600   -24.388800    30.897700
     113    1      7   0.10208415    13.626400   -25.971100    30.073200
     114    1      7   0.08258715    11.967100   -23.664100    30.712400
     115    1      7   0.08258715    11.404700   -25.240000    29.925800
     116    1      7   0.11793215    10.143700   -23.857500    32.452900
     117    1      7   0.11793215     9.511700   -23.788500    30.709300
     118    1      5  -0.21382885     9.257700   -25.721100    31.684100
     119    1      4  -0.01507585     7.805000   -25.458100    32.156100
     120    1      9  -0.38303285     6.927300   -24.765100    31.129200
     121    1      4  -0.01663585     5.467700   -24.844400    31.545100
     122    1      5  -0.18091585     4.497900   -24.510600    30.384700
     123    1      7   0.10214115     9.219400   -26.308000    30.707500
     124    1      7   0.10214115     9.793400   -26.347100    32.472100
     125    1      7   0.10208415     7.332600   -26.474500    32.364500
     126    1      7   0.10208415     7.815700   -24.855100    33.123400
     127    1      7   0.08258715     5.266100   -24.169200    32.441200
     128    1      7   0.08258715     5.268900   -25.925700    31.846300
     129    1      7   0.11793215     4.583600   -23.420000    30.064000
     130    1      7   0.11793215     4.795900   -25.180200    29.511500
     131    1      5  -0.21382885     3.038600   -24.875900    30.754100
     132    1      4  -0.01507585     2.349900   -23.981900    31.810700
     133    1      9  -0.38303285     1.820600   -22.675000    31.249900
     134    1      4  -0.01663585     0.329200   -22.824700    30.996500
     135    1      5  -0.18091585    -0.315700   -21.593400    30.316000
     136    1      7   0.10214115     2.384800   -24.869800    29.820200
     137    1      7   0.10214115     3.080900   -25.940300    31.160000
     138    1      7   0.10208415     1.437100   -24.539800    32.204600
     139    1      7   0.10208415     3.070900   -23.802700    32.675300
     140    1      7   0.08258715    -0.196100   -23.015400    31.990200
     141    1      7   0.08258715     0.172500   -23.727900    30.318800
     142    1      7   0.11793215    -0.193300   -20.660800    30.960000
     143    1      7   0.11793215     0.220400   -21.437000    29.322200
     144    1      5  -0.21382885    -1.815300   -21.841500    30.018900
     145    1      4  -0.01507585    -2.716500   -21.915500    31.272300
     146    1      9  -0.38303285    -2.959600   -20.561300    31.910200
     147    1      4  -0.01663585    -4.057100   -19.785100    31.200800
     148    1      5  -0.18091585    -4.209900   -18.383400    31.835500
     149    1      7   0.10214115    -2.222500   -21.015200    29.347400
     150    1      7   0.10214115    -1.879000   -22.833900    29.461500
     151    1      7   0.10208415    -3.736600   -22.325100    30.970300
     152    1      7   0.10208415    -2.238000   -22.630200    32.020800
     153    1      7   0.08258715    -5.040900   -20.354700    31.285900
     154    1      7   0.08258715    -3.780800   -19.668500    30.101000
     155    1      7   0.11793215    -4.446500   -18.487900    32.945800
     156    1      7   0.11793215    -3.196700   -17.872400    31.726500
     157    1      5  -0.21382885    -5.259400   -17.444800    31.187100
     158    1      4  -0.01507585    -6.751600   -17.788600    31.414500
     159    1      9  -0.38303285    -7.601800   -16.690700    30.794700
     160    1      4  -0.01663585    -9.088600   -16.709200    31.111400
     161    1      5  -0.18091585    -9.816500   -15.636200    30.262400
     162    1      7   0.10214115    -5.103000   -16.415300    31.651100
     163    1      7   0.10214115    -5.048000   -17.373600    30.069100
     164    1      7   0.10208415    -7.005400   -18.798400    30.950000
     165    1      7   0.10208415    -6.950600   -17.823400    32.536400
     166    1      7   0.08258715    -9.256000   -16.512000    32.221600
     167    1      7   0.08258715    -9.507900   -17.734300    30.841200
     168    1      7   0.11793215    -9.409000   -14.597400    30.495400
     169    1      7   0.11793215    -9.581300   -15.886000    29.175300
     170    1      5  -0.21382885   -11.360700   -15.632300    30.395800
     171    1      4  -0.01507585   -11.964200   -15.090500    31.713500
     172    1      9  -0.38303285   -11.824200   -13.587100    31.867500
     173    1      4  -0.01663585   -12.608600   -12.812800    30.822100
     174    1      5  -0.18091585   -14.145300   -12.951500    30.948400
     175    1      7   0.10214115   -11.796000   -14.994900    29.556700
     176    1      7   0.10214115   -11.706300   -16.708900    30.249900
     177    1      7   0.10208415   -13.081800   -15.315600    31.710100
     178    1      7   0.10208415   -11.481700   -15.628200    32.595500
     179    1      7   0.08258715   -12.336500   -11.707100    30.876900
     180    1      7   0.08258715   -12.296500   -13.219200    29.803600
     181    1      7   0.11793215   -14.644100   -12.488100    30.034100
     182    1      7   0.11793215   -14.374900   -14.068100    30.965600
     183    1      5  -0.21382885   -14.772100   -12.298100    32.203600
     184    1      4  -0.01507585   -14.787700   -10.748200    32.238800
     185    1      9  -0.38303285   -15.682900   -10.112000    31.188800
     186    1      4  -0.01663585   -16.715000    -9.182700    31.809900
     187    1      5  -0.18091585   -17.679800    -8.594400    30.750500
     188    1      7   0.10214115   -15.858700   -12.635900    32.273700
     189    1      7   0.10214115   -14.209600   -12.689400    33.114800
     190    1      7   0.10208415   -15.197500   -10.436300    33.255900
     191    1      7   0.10208415   -13.724900   -10.349200    32.135700
     192    1      7   0.08258715   -17.331100    -9.805600    32.539400
     193    1      7   0.08258715   -16.205700    -8.338200    32.381800
     194    1      7   0.11793215   -17.137000    -7.885600    30.041600
     195    1      7   0.11793215   -18.075500    -9.481500    30.153600
     196    1      5  -0.21382885   -18.918800    -7.915100    31.385000
     197    1      4  -0.01507585   -18.772000    -6.581500    32.157100
     198    1      9  -0.38303285   -18.686300    -5.316200    31.320800
     199    1      4  -0.01663585   -18.870400    -4.185500    32.315000
     200    1      5  -0.18091585   -19.255500    -2.766200    31.823800
     201    1      7   0.10214115   -19.701400    -7.741500    30.574300
     202    1      7   0.10214115   -19.333600    -8.683400    32.118100
     203    1      7   0.10208415   -19.739100    -6.462100    32.748900
     204    1      7   0.10208415   -17.908400    -6.646600    32.898400
     205    1      7   0.08258715   -19.709900    -4.511800    33.014000
     206    1      7   0.08258715   -17.913300    -4.105600    32.929000
     207    1      7   0.11793215   -19.371100    -2.137600    32.767800
     208    1      7   0.11793215   -18.448800    -2.301300    31.166100
     209    1      5  -0.21382885   -20.615500    -2.752500    31.093600
     210    1      4  -0.01507585   -21.321200    -1.372500    31.090700
     211    1      9  -0.38303285   -20.717700    -0.157600    30.409900
     212    1      4  -0.01663585   -21.754900     0.916700    30.682300
     213    1      5  -0.18091585   -21.614300     2.354000    30.120000
     214    1      7   0.10214115   -20.495700    -3.169200    30.039300
     215    1      7   0.10214115   -21.310900    -3.439700    31.680100
     216    1      7   0.10208415   -22.346400    -1.530700    30.617700
     217    1      7   0.10208415   -21.482700    -1.085200    32.182100
     218    1      7   0.08258715   -22.743100     0.511600    30.283700
     219    1      7   0.08258715   -21.847800     1.008100    31.814800
     220    1      7   0.11793215   -22.556700     2.900100    30.456500
     221    1      7   0.11793215   -20.704800     2.896000    30.542800
     222    1      5  -0.21382885   -21.585200     2.395500    28.578300
     223    1      4  -0.01507585   -22.065800     3.743700    27.985000
     224    1      9  -0.38303285   -21.369400     5.062600    28.264400
     225    1      4  -0.01663585   -22.292200     6.033900    27.552600
     226    1      5  -0.18091585   -22.156100     7.570600    27.687600
     227    1      7   0.10214115   -20.550800     2.103100    28.198700
     228    1      7   0.10214115   -22.341200     1.625700    28.210300
     229    1      7   0.10208415   -22.089400     3.619300    26.852000
     230    1      7   0.10208415   -23.140400     3.878500    28.341000
     231    1      7   0.08258715   -22.277300     5.779000    26.441600
     232    1      7   0.08258715   -23.332700     5.789400    27.949100
     233    1      7   0.11793215   -23.075900     7.989100    27.160000
     234    1      7   0.11793215   -22.211800     7.869300    28.786500
     235    1      5  -0.21382885   -20.954700     8.281700    27.022300
     236    1      4  -0.01507585   -21.326800     9.784300    27.012700
     237    1      9  -0.38303285   -20.372700    10.766900    26.356900
     238    1      4  -0.01663585   -21.244600    11.969700    26.052900
     239    1      5  -0.18091585   -20.626700    13.371600    25.822400
     240    1      7   0.10214115   -19.988100     8.075100    27.590100
     241    1      7   0.10214115   -20.855100     7.932400    25.941800
     242    1      7   0.10208415   -21.504400    10.126500    28.085600
     243    1      7   0.10208415   -22.314400     9.862400    26.448600
     244    1      7   0.08258715   -21.890000    11.708900    25.150000
     245    1      7   0.08258715   -21.935400    12.085700    26.952300
     246    1      7   0.11793215   -21.518200    14.070200    25.692600
     247    1      7   0.11793215   -20.063800    13.686300    26.762400
     248    1      5  -0.21382885   -19.710600    13.628900    24.602700
     249    1      4  -0.01507585   -19.556400    15.168300    24.534200
     250    1      9  -0.38303285   -18.689000    15.779100    23.447100
     251    1      4  -0.01663585   -19.211900    17.195900    23.308900
     252    1      5  -0.18091585   -18.284200    18.365100    22.891800
     253    1      7   0.10214115   -18.708300    13.102700    24.737100
     254    1      7   0.10214115   -20.216400    13.269100    23.646500
     255    1      7   0.10208415   -19.157500    15.536500    25.536700
     256    1      7   0.10208415   -20.607300    15.588400    24.397300
     257    1      7   0.08258715   -20.106500    17.170200    22.602900
     258    1      7   0.08258715   -19.596700    17.477800    24.344300
     259    1      7   0.11793215   -18.935900    19.297400    22.967100
     260    1      7   0.11793215   -17.445900    18.457400    23.658800
     261    1      5  -0.21382885   -17.650500    18.417300    21.481200
     262    1      4  -0.01507585   -17.073700    19.849800    21.363400
     263    1      9  -0.38303285   -16.348200    20.264000    20.094700
     264    1      4  -0.01663585   -16.406400    21.779800    20.117200
     265    1      5  -0.18091585   -15.273700    22.635500    19.496600
     266    1      7   0.10214115   -16.843900    17.619100    21.373000
     267    1      7   0.10214115   -18.451500    18.276500    20.682400
     268    1      7   0.10208415   -16.358100    20.021400    22.234000
     269    1      7   0.10208415   -17.956100    20.560800    21.487500
     270    1      7   0.08258715   -17.402200    22.103200    19.666300
     271    1      7   0.08258715   -16.418600    22.062400    21.221500
     272    1      7   0.11793215   -15.534000    23.712400    19.765400
     273    1      7   0.11793215   -14.294400    22.368900    20.015600
     274    1      5  -0.21382885   -15.019400    22.642000    17.970600
     275    1      4  -0.01507585   -14.002700    23.790200    17.756800
     276    1      9  -0.38303285   -13.482400    24.090000    16.362100
     277    1      4  -0.01663585   -12.732400    25.395500    16.546100
     278    1      5  -0.18091585   -11.577300    25.784500    15.590900
     279    1      7   0.10214115   -14.604000    21.637100    17.628100
     280    1      7   0.10214115   -15.981100    22.882300    17.407500
     281    1      7   0.10208415   -13.094900    23.575100    18.411900
     282    1      7   0.10208415   -14.497400    24.742500    18.141600
     283    1      7   0.08258715   -13.487800    26.248200    16.587200
     284    1      7   0.08258715   -12.247100    25.311300    17.574100
     285    1      7   0.11793215   -11.098500    26.706600    16.060000
     286    1      7   0.11793215   -10.807300    24.944100    15.598300
     287    1      5  -0.21382885   -11.854200    26.177400    14.120800
     288    1      4  -0.01507585   -10.483300    26.678600    13.605700
     289    1      9  -0.38303285   -10.345000    27.176900    12.178400
     290    1      4  -0.01663585    -8.884900    27.581100    12.110800
     291    1      5  -0.18091585    -8.192000    27.839900    10.750000
     292    1      7   0.10214115   -12.613600    27.026500    14.075000
     293    1      7   0.10214115   -12.228000    25.281900    13.522400
     294    1      7   0.10208415    -9.740000    25.824000    13.734900
     295    1      7   0.10208415   -10.161200    27.532400    14.289000
     296    1      7   0.08258715    -8.730200    28.492800    12.777700
     297    1      7   0.08258715    -8.317600    26.708900    12.576600
     298    1      7   0.11793215    -7.084000    27.948100    10.995600
     299    1      7   0.11793215    -8.321200    26.926700    10.080100
     300    1      5  -0.21382885    -8.552800    29.114600     9.953700
     301    1      4  -0.01507585    -7.510400    29.223600     8.812700
     302    1      9  -0.38303285    -7.571600    30.496800     7.990400
     303    1      4  -0.01663585    -6.172300    31.080500     7.961800
     304    1      5  -0.18091585    -6.086700    32.512500     7.384700
     305    1      7   0.10214115    -8.439100    30.020600    10.636300
     306    1      7   0.10214115    -9.618400    29.065400     9.551200
     307    1      7   0.10208415    -7.599300    28.321400     8.121600
     308    1      7   0.10208415    -6.482000    29.200400     9.304100
     309    1      7   0.08258715    -5.861500    31.156600     9.055900
     310    1      7   0.08258715    -5.440900    30.389700     7.425400
     311    1      7   0.11793215    -5.096800    32.959200     7.731400
     312    1      7   0.11793215    -6.933600    33.114200     7.854000
     313    1      5  -0.21137577    -6.106600    32.713500     5.850600
     314    1      4  -0.00719077    -4.788800    32.203200     5.224900
     315    1      9  -0.40473377    -4.555300    32.719800     3.816200
     316    1      4  -0.00625377    -3.116700    32.395500     3.468100
     317    1      5  -0.18704577    -2.447700    33.264700     2.375000
     318    1      7   0.10865923    -6.132600    33.839900     5.677000
     319    1      7   0.10865923    -7.022400    32.239800     5.364400
     320    1      7   0.10102223    -4.742800    31.064700     5.260300
     321    1      7   0.10102223    -3.938900    32.623500     5.857900
     322    1      7   0.08267623    -2.514700    32.570200     4.420300
     323    1      7   0.08267623    -3.033900    31.293100     3.189800
     324    1      7   0.11594223    -2.516700    34.361900     2.676500
     325    1      7   0.11594223    -1.348400    32.964600     2.346100
     326    1      5  -0.19416775    -2.987000    33.100400     0.937800
     327    1      3  -0.02646075    -2.097900    33.920900    -0.028500
     328    1      8  -0.31445075    -2.539200    33.734700    -1.464500
     329    1      2   0.04928225    -1.641200    34.391800    -2.496800
     330    1      1  -0.14517275    -1.284700    35.888600    -2.391700
     331    1      1  -0.14820675    -0.459700    36.568800    -3.506300
     332    1      2   0.06520325     0.015400    35.754000    -4.726800
     333    1      8  -0.32288875     0.728400    36.442000    -5.874700
     334    1      3  -0.01359675     0.749700    35.523600    -7.077600
     335    1      5  -0.18686275     1.171600    36.225200    -8.389900
     336    1      1  -0.14820675    -0.291000    34.246000    -4.801300
     337    1      1  -0.14517275    -1.114300    33.566300    -3.687600
     338    1      7   0.10493625    -4.070100    33.451200     0.880000
     339    1      7   0.10493625    -2.926200    32.000600     0.644000
     340    1      7   0.10481125    -2.149000    35.026300     0.245500
     341    1      7   0.10481125    -1.021400    33.559200     0.070900
     342    1      6   0.17100725    -1.646500    36.498400    -1.499100
     343    1      6   0.16879825    -0.215200    37.680000    -3.435200
     344    1      7   0.09449425     1.451500    34.650200    -6.867400
     345    1      7   0.09449425    -0.305600    35.118200    -7.224600
     346    1      7   0.12130325     0.448800    37.080400    -8.603500
     347    1      7   0.12130325     1.105700    35.464600    -9.236500
     348    1      6   0.16879825     0.077400    33.634700    -5.690200
     349    1      6   0.17100725    -1.350400    32.453100    -3.755100
     350    1      5  -0.18770333     2.610100    36.781400    -8.358000
     351    1      3  -0.02450133     2.971000    37.421500    -9.718700
     352    1      8  -0.31219133     2.902100    36.390400   -10.824100
     353    1      2   0.05622167     3.301000    36.936700   -12.180900
     354    1      1  -0.15013933     4.123200    38.235900   -12.291800
     355    1      1  -0.14512533     4.537900    38.773500   -13.678600
     356    1      2   0.07780067     4.124500    38.018300   -14.958100
     357    1      8  -0.35497233     4.550400    38.528900   -16.319500
     358    1      3   0.01045667     4.256200    37.476600   -17.365700
     359    1      5  -0.18808133     4.734000    37.889700   -18.775700
     360    1      1  -0.14512533     3.294400    36.725700   -14.846300
     361    1      1  -0.15013933     2.880700    36.188300   -13.461300
     362    1      7   0.10392067     3.338300    35.931400    -8.141600
     363    1      7   0.10392067     2.689900    37.565800    -7.534600
     364    1      7   0.10321667     4.031200    37.837600    -9.667500
     365    1      7   0.10321667     2.244600    38.270100    -9.945800
     366    1      6   0.17262267     4.429200    38.797500   -11.348000
     367    1      6   0.16739167     5.152700    39.730200   -13.756700
     368    1      7   0.09804667     4.791100    36.514600   -17.069100
     369    1      7   0.09804667     3.133100    37.282800   -17.391200
     370    1      7   0.11155167     5.859800    38.068200   -18.756900
     371    1      7   0.11155167     4.501400    37.042200   -19.502000
     372    1      6   0.16739167     2.988200    36.163800   -15.789800
     373    1      6   0.17262267     2.265700    35.231600   -13.383700
     374    1      5  -0.18770333     4.024000    39.166700   -19.266600
     375    1      3  -0.02450133     4.476300    39.527500   -20.698700
     376    1      8  -0.31219133     4.103600    38.425300   -21.664400
     377    1      2   0.05622167     4.504700    38.777100   -23.080900
     378    1      1  -0.15013933     5.583200    39.846600   -23.337300
     379    1      1  -0.14512533     6.015600    40.176000   -24.779900
     380    1      2   0.07780067     5.363900    39.443100   -25.968800
     381    1      8  -0.35497233     5.848600    39.707400   -27.375800
     382    1      3   0.01045667     5.587600    38.504000   -28.252100
     383    1      5  -0.18808133     4.498900    38.831100   -29.291300
     384    1      1  -0.14512533     4.257600    38.402600   -25.715200
     385    1      1  -0.15013933     3.827000    38.071100   -24.272200
     386    1      7   0.10392067     2.896900    38.996000   -19.266800
     387    1      7   0.10392067     4.275300    40.025900   -18.560800
     388    1      7   0.10321667     5.605100    39.685900   -20.717600
     389    1      7   0.10321667     3.955900    40.489000   -21.021300
     390    1      6   0.17262267     6.068900    40.387200   -22.458800
     391    1      6   0.16739167     6.825700    40.956100   -24.967200
     392    1      7   0.09804667     6.546800    38.232600   -28.805300
     393    1      7   0.09804667     5.259600    37.623000   -27.607300
     394    1      7   0.11155167     4.849900    39.711000   -29.925500
     395    1      7   0.11155167     4.331700    37.926200   -29.964300
     396    1      6   0.16739167     3.764900    37.870000   -26.594800
     397    1      6   0.17262267     3.012300    37.295900   -24.085300
     398    1      5  -0.18770333     3.170200    39.204000   -28.607800
     399    1      3  -0.02450133     2.162600    39.583100   -29.711000
     400    1      8  -0.31219133     1.947500    38.411900   -30.640600
     401    1      2   0.05622167     1.297100    38.907400   -31.910700
     402    1      1  -0.15013933     1.191400    40.420300   -32.176200
     403    1      1  -0.14512533     0.656400    40.929200   -33.527900
     404    1      2   0.07780067     0.230900    39.923900   -34.614300
     405    1      8  -0.35497233    -0.140200    40.413700   -35.994000
     406    1      3   0.01045667    -1.067800    39.456200   -36.704100
     407    1      5  -0.18808133    -2.540200    39.817300   -36.432200
     408    1      1  -0.14512533     0.243500    38.414200   -34.311800
     409    1      1  -0.15013933     0.780500    37.904900   -32.960400
     410    1      7   0.10392067     3.336500    40.098000   -27.920300
     411    1      7   0.10392067     2.782900    38.321100   -27.999100
     412    1      7   0.10321667     2.591800    40.454400   -30.307900
     413    1      7   0.10321667     1.167000    39.895400   -29.251700
     414    1      6   0.17262267     1.533800    41.162700   -31.381500
     415    1      6   0.16739167     0.603200    42.049000   -33.734600
     416    1      7   0.09804667    -0.844200    38.384500   -36.385400
     417    1      7   0.09804667    -0.893500    39.558600   -37.826000
     418    1      7   0.11155167    -2.713900    40.890800   -36.774400
     419    1      7   0.11155167    -2.787700    39.725300   -35.323200
     420    1      6   0.16739167    -0.117100    37.672700   -35.099300
     421    1      6   0.17262267     0.817900    36.785700   -32.747000
     422    1      5  -0.18770333    -3.436400    38.882700   -37.266500
     423    1      3  -0.02450133    -4.901400    39.353000   -37.196700
     424    1      8  -0.31219133    -4.935700    40.769700   -37.718300
     425    1      2   0.05622167    -6.340100    41.253700   -37.991900
     426    1      1  -0.15013933    -7.191800    41.857300   -36.858600
     427    1      1  -0.14512533    -8.580500    42.449700   -37.171000
     428    1      2   0.07780067    -9.112900    42.440600   -38.617100
     429    1      8  -0.35497233   -10.434600    43.090000   -38.952000
     430    1      3   0.01045667   -10.619700    42.923200   -40.441600
     431    1      5  -0.18808133   -11.824600    43.723400   -40.971400
     432    1      1  -0.14512533    -8.278500    41.799200   -39.739900
     433    1      1  -0.15013933    -6.892700    41.207000   -39.427700
     434    1      7   0.10392067    -3.337800    37.809600   -36.894400
     435    1      7   0.10392067    -3.102100    38.937100   -38.355000
     436    1      7   0.10321667    -5.288100    39.318700   -36.124900
     437    1      7   0.10321667    -5.540900    38.682100   -37.860500
     438    1      6   0.17262267    -6.789100    41.879200   -35.792300
     439    1      6   0.16739167    -9.206500    42.907400   -36.335400
     440    1      7   0.09804667    -9.679900    43.297500   -40.967300
     441    1      7   0.09804667   -10.760400    41.816900   -40.677800
     442    1      7   0.11155167   -11.667900    44.832600   -40.759900
     443    1      7   0.11155167   -12.790100    43.370600   -40.478200
     444    1      6   0.16739167    -8.681100    41.776900   -40.806300
     445    1      6   0.17262267    -6.268500    40.747600   -40.263600
     446    1      5  -0.18770333   -11.891500    43.488800   -42.492000
     447    1      3  -0.02450133   -13.018900    44.282900   -43.180700
     448    1      8  -0.31219133   -14.384400    43.902300   -42.658600
     449    1      2   0.05622167   -14.693900    44.649000   -41.383300
     450    1      1  -0.15013933   -16.040300    44.426200   -40.669400
     451    1      1  -0.14512533   -16.387200    45.237800   -39.407400
     452    1      2   0.07780067   -15.386700    46.271700   -38.858400
     453    1      8  -0.35497233   -15.722300    47.067400   -37.619700
     454    1      3   0.01045667   -16.094100    46.116000   -36.508700
     455    1      5  -0.18808133   -17.578900    46.284100   -36.137500
     456    1      1  -0.14512533   -14.032300    46.480300   -39.561300
     457    1      1  -0.15013933   -13.687300    45.670800   -40.824900
     458    1      7   0.10392067   -10.897600    43.807100   -42.950600
     459    1      7   0.10392067   -12.049800    42.376400   -42.684300
     460    1      7   0.10321667   -12.858200    45.402300   -43.035600
     461    1      7   0.10321667   -12.979600    44.041000   -44.293900
     462    1      6   0.17262267   -16.784400    43.666800   -41.080700
     463    1      6   0.16739167   -17.385100    45.074500   -38.882400
     464    1      7   0.09804667   -15.900600    45.045500   -36.849800
     465    1      7   0.09804667   -15.456900    46.342100   -35.590900
     466    1      7   0.11155167   -17.759200    47.350000   -35.775800
     467    1      7   0.11155167   -17.821400    45.554700   -35.298900
     468    1      6   0.16739167   -13.286300    47.236400   -39.147600
     469    1      6   0.17262267   -12.687300    45.829300   -41.349400
     470    1      5  -0.18770333   -18.471700    46.009100   -37.362800
     471    1      3  -0.02450133   -19.967500    46.194500   -37.030600
     472    1      8  -0.31219133   -20.463700    45.171500   -36.033500
     473    1      2   0.05622167   -19.696300    45.258100   -34.737600
     474    1      1  -0.15013933   -19.764400    46.536800   -33.882300
     475    1      1  -0.14512533   -18.926000    46.646600   -32.594800
     476    1      2   0.07780067   -18.009600    45.483000   -32.172700
     477    1      8  -0.35497233   -17.154700    45.596800   -30.933900
     478    1      3   0.01045667   -16.789200    44.205800   -30.471700
     479    1      5  -0.18808133   -17.980100    43.519300   -29.775000
     480    1      1  -0.14512533   -17.966200    44.193500   -33.011900
     481    1      1  -0.15013933   -18.817000    44.076500   -34.288600
     482    1      7   0.10392067   -18.294400    44.948200   -37.740600
     483    1      7   0.10392067   -18.184200    46.749000   -38.181100
     484    1      7   0.10321667   -20.570000    46.072200   -37.990600
     485    1      7   0.10321667   -20.133100    47.244200   -36.617700
     486    1      6   0.17262267   -20.428100    47.405000   -34.206900
     487    1      6   0.16739167   -18.975200    47.592700   -31.960900
     488    1      7   0.09804667   -16.461000    43.591100   -31.374100
     489    1      7   0.09804667   -15.928200    44.271600   -29.727500
     490    1      7   0.11155167   -17.658800    42.470300   -29.470100
     491    1      7   0.11155167   -18.256500    44.114200   -28.842700
     492    1      6   0.16739167   -17.304000    43.324700   -32.685500
     493    1      6   0.17262267   -18.782600    43.122500   -34.911400
     494    1      5  -0.18770333   -19.213300    43.453700   -30.697400
     495    1      3  -0.02450133   -20.417300    42.804300   -29.984900
     496    1      8  -0.31219133   -20.184500    41.339800   -29.691000
     497    1      2   0.05622167   -18.959700    41.132900   -28.834900
     498    1      1  -0.15013933   -18.818000    41.875800   -27.493600
     499    1      1  -0.14512533   -17.539500    41.705000   -26.651200
     500    1      2   0.07780067   -16.400000    40.799900   -27.156400
     501    1      8  -0.35497233   -15.125000    40.665600   -26.358100
     502    1      3   0.01045667   -14.348600    39.454700   -26.822100
     503    1      5  -0.18808133   -14.956900    38.150200   -26.270500
     504    1      1  -0.14512533   -16.552000    40.042000   -28.487100
     505    1      1  -0.15013933   -17.831700    40.207700   -29.326000
     506    1      7   0.10392067   -19.496500    44.520800   -30.981300
     507    1      7   0.10392067   -18.966100    42.866700   -31.642700
     508    1      7   0.10321667   -21.328200    42.884000   -30.665500
     509    1      7   0.10321667   -20.626200    43.364700   -29.014400
     510    1      6   0.17262267   -19.655000    42.558400   -27.128800
     511    1      6   0.16739167   -17.432300    42.256600   -25.659300
     512    1      7   0.09804667   -13.277600    39.535000   -26.439800
     513    1      7   0.09804667   -14.340700    39.429700   -27.961900
     514    1      7   0.11155167   -14.920400    38.176200   -25.131400
     515    1      7   0.11155167   -14.339700    37.268700   -26.645700
     516    1      6   0.16739167   -15.715000    39.359100   -28.851500
     517    1      6   0.17262267   -17.940300    39.652400   -30.315600
     518    1      5  -0.18770333   -16.420600    37.980800   -26.716100
     519    1      3  -0.02450133   -17.032000    36.693400   -26.127300
     520    1      8  -0.31219133   -16.348600    35.448000   -26.645100
     521    1      2   0.05622167   -14.912400    35.346800   -26.189200
     522    1      1  -0.15013933   -14.502900    35.873000   -24.801000
     523    1      1  -0.14512533   -13.030800    35.797300   -24.352000
     524    1      2   0.07780067   -11.967500    35.203100   -25.295200
     525    1      8  -0.35497233   -10.516600    35.161300   -24.875500
     526    1      3   0.01045667    -9.791600    34.046000   -25.593300
     527    1      5  -0.18808133   -10.143400    32.671300   -24.991100
     528    1      1  -0.14512533   -12.381400    34.656600   -26.673400
     529    1      1  -0.15013933   -13.851900    34.735500   -27.123500
     530    1      7   0.10392067   -16.475500    37.944800   -27.854100
     531    1      7   0.10392067   -17.018400    38.875500   -26.339500
     532    1      7   0.10321667   -16.960000    36.722300   -24.989800
     533    1      7   0.10321667   -18.129800    36.647900   -26.431300
     534    1      6   0.17262267   -15.287900    36.325700   -24.109300
     535    1      6   0.16739167   -12.727200    36.189900   -23.325800
     536    1      7   0.09804667    -8.667900    34.205300   -25.486000
     537    1      7   0.09804667   -10.071900    34.070200   -26.698300
     538    1      7   0.11155167    -9.823400    32.648000   -23.897200
     539    1      7   0.11155167    -9.585900    31.858000   -25.562900
     540    1      6   0.16739167   -11.596800    34.199800   -27.362900
     541    1      6   0.17262267   -14.155200    34.342600   -28.149700
     542    1      5  -0.18770333   -11.657600    32.412400   -25.073900
     543    1      3  -0.02450133   -12.012400    31.047100   -24.452400
     544    1      8  -0.31219133   -11.392700    29.898000   -25.214900
     545    1      2   0.05622167    -9.891900    29.813000   -25.058900
     546    1      1  -0.15013933    -9.213500    30.330900   -23.776400
     547    1      1  -0.14512533    -7.686100    30.206800   -23.608600
     548    1      2   0.07780067    -6.835400    29.578300   -24.729600
     549    1      8  -0.35497233    -5.337100    29.455100   -24.572400
     550    1      3   0.01045667    -4.807800    28.354100   -25.464400
     551    1      5  -0.18808133    -5.112300    26.958200   -24.884500
     552    1      1  -0.14512533    -7.513400    29.073000   -26.016000
     553    1      1  -0.15013933    -9.039500    29.195200   -26.182800
     554    1      7   0.10392067   -11.993500    32.436200   -26.163100
     555    1      7   0.10392067   -12.199700    33.231800   -24.495900
     556    1      7   0.10321667   -11.667800    31.015200   -23.366100
     557    1      7   0.10321667   -13.145400    30.926900   -24.489200
     558    1      6   0.17262267    -9.842000    30.802800   -22.950500
     559    1      6   0.16739167    -7.185100    30.582100   -22.655900
     560    1      7   0.09804667    -3.677200    28.462000   -25.562200
     561    1      7   0.09804667    -5.285700    28.456600   -26.494500
     562    1      7   0.11155167    -4.584700    26.839700   -23.880900
     563    1      7   0.11155167    -4.735800    26.158100   -25.604100
     564    1      6   0.16739167    -6.884900    28.604900   -26.844000
     565    1      6   0.17262267    -9.539800    28.820400   -27.136100
     566    1      5  -0.18770333    -6.626400    26.794200   -24.670800
     567    1      3  -0.02450133    -6.960600    25.402500   -24.101100
     568    1      8  -0.31219133    -6.641800    24.302200   -25.087200
     569    1      2   0.05622167    -5.174300    23.969200   -25.231700
     570    1      1  -0.15013933    -4.164500    24.388800   -24.146400
     571    1      1  -0.14512533    -2.693800    23.933400   -24.245700
     572    1      2   0.07780067    -2.232400    23.070200   -25.437100
     573    1      8  -0.35497233    -0.819200    22.537000   -25.498400
     574    1      3   0.01045667    -0.895000    21.154200   -26.105300
     575    1      5  -0.18808133     0.493500    20.503600   -26.272100
     576    1      1  -0.14512533    -3.230300    22.703100   -26.549900
     577    1      1  -0.15013933    -4.697500    23.158000   -26.450900
     578    1      7   0.10392067    -7.173500    26.936900   -25.660600
     579    1      7   0.10392067    -6.973600    27.589800   -23.931800
     580    1      7   0.10321667    -6.400200    25.227800   -23.123800
     581    1      7   0.10321667    -8.082200    25.373300   -23.899500
     582    1      6   0.17262267    -4.508800    25.020200   -23.261700
     583    1      6   0.16739167    -1.951200    24.223400   -23.430800
     584    1      7   0.09804667    -1.390700    21.232400   -27.129100
     585    1      7   0.09804667    -1.535700    20.493200   -25.432900
     586    1      7   0.11155167     1.000900    20.403000   -25.256200
     587    1      7   0.11155167     1.137700    21.143200   -26.961600
     588    1      6   0.16739167    -2.885200    22.080400   -27.440500
     589    1      6   0.17262267    -5.438000    22.874000   -27.269900
     590    1      5  -0.18770333     0.287600    19.107700   -26.894800
     591    1      3  -0.02450133     1.614300    18.357100   -27.132000
     592    1      8  -0.31219133     1.272500    17.016200   -27.741800
     593    1      2   0.05622167     2.473800    16.162900   -28.083500
     594    1      1  -0.15013933     3.305400    15.508400   -26.963700
     595    1      1  -0.14512533     4.453400    14.542100   -27.319200
     596    1      2   0.07780067     4.768600    14.226800   -28.794400
     597    1      8  -0.35497233     5.866100    13.247300   -29.146800
     598    1      3   0.01045667     6.640100    13.771100   -30.333800
     599    1      5  -0.18808133     7.755600    12.792500   -30.756100
     600    1      1  -0.14512533     3.970400    14.920700   -29.913500
     601    1      1  -0.15013933     2.822300    15.885400   -29.558400
     602    1      7   0.10392067    -0.246000    19.229400   -27.894800
     603    1      7   0.10392067    -0.367100    18.488100   -26.196900
     604    1      7   0.10321667     2.270900    18.952900   -27.848600
     605    1      7   0.10321667     2.160700    18.206300   -26.142900
     606    1      6   0.17262267     3.061400    15.726000   -25.871500
     607    1      6   0.16739167     5.062200    14.051700   -26.489500
     608    1      7   0.09804667     5.926400    13.928900   -31.208800
     609    1      7   0.09804667     7.110300    14.770000   -30.049900
     610    1      7   0.11155167     8.466500    12.623400   -29.881100
     611    1      7   0.11155167     8.332600    13.250800   -31.625900
     612    1      6   0.16739167     4.221800    14.711400   -31.005700
     613    1      6   0.17262267     2.219100    16.381900   -30.388600
     614    1      5  -0.18770333     7.169000    11.442200   -31.214300
     615    1      3  -0.02450133     8.307600    10.513100   -31.684900
     616    1      8  -0.31219133     7.738700     9.200900   -32.175300
     617    1      2   0.05622167     8.830200     8.282800   -32.680100
     618    1      1  -0.15013933     9.603400     7.388100   -31.693000
     619    1      1  -0.14512533    10.689400     6.425300   -32.211300
     620    1      2   0.07780067    11.007100     6.356900   -33.717100
     621    1      8  -0.35497233    12.101400     5.439300   -34.215500
     622    1      3   0.01045667    12.011300     5.155600   -35.698500
     623    1      5  -0.18808133    10.885700     4.156500   -36.035500
     624    1      1  -0.14512533    10.224100     7.239800   -34.706600
     625    1      1  -0.15013933     9.137000     8.202500   -34.188500
     626    1      7   0.10392067     6.453100    11.623100   -32.082700
     627    1      7   0.10392067     6.603900    10.956200   -30.351700
     628    1      7   0.10321667     8.871500    11.016300   -32.538300
     629    1      7   0.10321667     9.024700    10.319100   -30.820100
     630    1      6   0.17262267     9.371000     7.437200   -30.577900
     631    1      6   0.16739167    11.263000     5.767300   -31.478200
     632    1      7   0.09804667    11.840700     6.134400   -36.257600
     633    1      7   0.09804667    12.998500     4.698100   -36.038400
     634    1      7   0.11155167    11.069900     3.170800   -35.493100
     635    1      7   0.11155167    10.873200     3.969600   -37.160200
     636    1      6   0.16739167    10.448900     7.180300   -35.822700
     637    1      6   0.17262267     8.557300     8.854500   -34.922200
     638    1      5  -0.18770333     9.525400     4.728000   -35.605400
     639    1      3  -0.02450133     8.380600     3.762200   -35.967500
     640    1      8  -0.31219133     8.284500     3.551500   -37.462000
     641    1      2   0.05622167     9.165400     2.437600   -37.983400
     642    1      1  -0.15013933    10.029700     1.606200   -37.016700
     643    1      1  -0.14512533    10.815600     0.386000   -37.540700
     644    1      2   0.07780067    10.744400     0.002000   -39.032700
     645    1      8  -0.35497233    11.449900    -1.238900   -39.536100
     646    1      3   0.01045667    11.113400    -1.460200   -40.994000
     647    1      5  -0.18808133    11.740600    -2.766500   -41.527100
     648    1      1  -0.14512533     9.928500     0.870500   -40.008000
     649    1      1  -0.15013933     9.141200     2.087000   -39.483900
     650    1      7   0.10392067     9.353600     5.724000   -36.132800
     651    1      7   0.10392067     9.534500     4.898100   -34.478200
     652    1      7   0.10321667     7.407400     4.237100   -35.611400
     653    1      7   0.10321667     8.521200     2.758600   -35.445300
     654    1      6   0.17262267    10.073400     1.882100   -35.911200
     655    1      6   0.16739167    11.438800    -0.241100   -36.821000
     656    1      7   0.09804667     9.980900    -1.520400   -41.109300
     657    1      7   0.09804667    11.503800    -0.578000   -41.601400
     658    1      7   0.11155167    12.874200    -2.720900   -41.415300
     659    1      7   0.11155167    11.473300    -2.885100   -42.629000
     660    1      6   0.16739167     9.894700     0.604000   -41.115900
     661    1      6   0.17262267     8.522500     2.717400   -40.204700
     662    1      5  -0.18770333    11.189600    -3.974400   -40.743600
     663    1      3  -0.02450133    11.762500    -5.313200   -41.258400
     664    1      8  -0.31219133    11.376200    -5.567300   -42.698600
     665    1      2   0.05622167    11.776200    -6.971800   -43.097200
     666    1      1  -0.15013933    12.470700    -7.891700   -42.076400
     667    1      1  -0.14512533    12.863700    -9.327600   -42.473600
     668    1      2   0.07780067    12.571100    -9.847000   -43.894500
     669    1      8  -0.35497233    13.016000   -11.239600   -44.284900
     670    1      3   0.01045667    12.550400   -11.735800   -45.636300
     671    1      5  -0.18808133    11.070600   -12.169300   -45.636900
     672    1      1  -0.14512533    11.867900    -8.931400   -44.914200
     673    1      1  -0.15013933    11.471000    -7.494600   -44.515700
     674    1      7   0.10392067    10.054500    -3.997400   -40.845600
     675    1      7   0.10392067    11.463500    -3.850900   -39.643900
     676    1      7   0.10321667    11.338100    -6.156300   -40.619200
     677    1      7   0.10321667    12.898500    -5.309600   -41.163200
     678    1      6   0.17262267    12.692900    -7.509800   -41.025400
     679    1      6   0.16739167    13.380800   -10.005100   -41.716500
     680    1      7   0.09804667    12.724800   -10.932000   -46.425700
     681    1      7   0.09804667    13.173400   -12.654000   -45.898000
     682    1      7   0.11155167    10.905300   -12.958700   -44.831100
     683    1      7   0.11155167    10.817800   -12.615300   -46.655200
     684    1      6   0.16739167    11.641900    -9.315800   -45.963600
     685    1      6   0.17262267    10.950200    -6.818200   -45.271200
     686    1      5  -0.18770333    10.140200   -10.970500   -45.390000
     687    1      3  -0.02450133     8.662900   -11.412300   -45.413400
     688    1      8  -0.31219133     8.291700   -12.062500   -46.727700
     689    1      2   0.05622167     8.792000   -13.488000   -46.775300
     690    1      1  -0.15013933     9.185500   -14.204500   -45.471300
     691    1      1  -0.14512533     9.678800   -15.662700   -45.511500
     692    1      2   0.07780067     9.791400   -16.403300   -46.857400
     693    1      8  -0.35497233    10.317600   -17.819900   -46.892000
     694    1      3   0.01045667     9.812200   -18.640900   -48.057200
     695    1      5  -0.18808133     8.317500   -18.990500   -47.917600
     696    1      1  -0.14512533     9.384900   -15.691900   -48.161500
     697    1      1  -0.15013933     8.892600   -14.231500   -48.121400
     698    1      7   0.10392067    10.314600   -10.197000   -46.209100
     699    1      7   0.10392067    10.380400   -10.504900   -44.377400
     700    1      7   0.10321667     8.015400   -10.486200   -45.263100
     701    1      7   0.10321667     8.464600   -12.150100   -44.567100
     702    1      6   0.17262267     9.113100   -13.653700   -44.475700
     703    1      6   0.16739167     9.970000   -16.191600   -44.544600
     704    1      7   0.09804667     9.988900   -18.075500   -49.031400
     705    1      7   0.09804667    10.400400   -19.617200   -48.080000
     706    1      7   0.11155167     8.143000   -19.537500   -46.932700
     707    1      7   0.11155167     8.012900   -19.668200   -48.782300
     708    1      6   0.16739167     9.452900   -16.244400   -49.156400
     709    1      6   0.17262267     8.598600   -13.702800   -49.087600
     710    1      5  -0.18770333     7.453800   -17.718700   -47.967500
     711    1      3  -0.02450133     5.957500   -18.071700   -47.854300
     712    1      8  -0.31219133     5.520900   -19.003000   -48.962800
     713    1      2   0.05622167     5.915800   -20.429400   -48.656500
     714    1      1  -0.15013933     6.344700   -20.817600   -47.229800
     715    1      1  -0.14512533     6.689500   -22.282000   -46.900000
     716    1      2   0.07780067     6.618900   -23.358000   -47.999700
     717    1      8  -0.35497233     6.950900   -24.794600   -47.668600
     718    1      3   0.01045667     6.219900   -25.789000   -48.542300
     719    1      5  -0.18808133     4.703900   -25.814300   -48.261000
     720    1      1  -0.14512533     6.205900   -22.968000   -49.431200
     721    1      1  -0.15013933     5.858600   -21.503000   -49.760600
     722    1      7   0.10392067     7.639500   -17.187000   -48.958700
     723    1      7   0.10392067     7.744000   -17.026000   -47.109900
     724    1      7   0.10321667     5.360500   -17.103500   -47.929700
     725    1      7   0.10321667     5.747100   -18.565700   -46.848400
     726    1      6   0.17262267     6.401600   -20.020500   -46.416600
     727    1      6   0.16739167     6.998500   -22.569600   -45.841100
     728    1      7   0.09804667     6.402000   -25.537300   -49.639300
     729    1      7   0.09804667     6.637700   -26.826900   -48.323400
     730    1      7   0.11155167     4.520100   -26.056700   -47.162300
     731    1      7   0.11155167     4.226100   -26.621300   -48.909000
     732    1      6   0.16739167     6.151100   -23.764500   -50.245000
     733    1      6   0.17262267     5.548900   -21.215200   -50.819200
     734    1      5  -0.18770333     4.061600   -24.459800   -48.609900
     735    1      3  -0.02450133     2.540900   -24.487600   -48.360100
     736    1      8  -0.31219133     1.871700   -25.564900   -49.181900
     737    1      2   0.05622167     2.156100   -26.922100   -48.583600
     738    1      1  -0.15013933     2.276700   -27.073500   -47.056500
     739    1      1  -0.14512533     2.543200   -28.458100   -46.437800
     740    1      2   0.07780067     2.702200   -29.690800   -47.347100
     741    1      8  -0.35497233     2.991500   -31.042100   -46.737200
     742    1      3   0.01045667     1.808300   -31.971200   -46.876000
     743    1      5  -0.18808133     0.559500   -31.333900   -46.239100
     744    1      1  -0.14512533     2.601900   -29.536500   -48.876200
     745    1      1  -0.15013933     2.331700   -28.151300   -49.495000
     746    1      7   0.10392067     4.255100   -24.233600   -49.710300
     747    1      7   0.10392067     4.529700   -23.640900   -47.970100
     748    1      7   0.10321667     2.111700   -23.474100   -48.657100
     749    1      7   0.10321667     2.331300   -24.676700   -47.255400
     750    1      6   0.17262267     2.164300   -26.160000   -46.383800
     751    1      6   0.16739167     2.625800   -28.570400   -45.306400
     752    1      7   0.09804667     1.606100   -32.175700   -47.979200
     753    1      7   0.09804667     2.044200   -32.952400   -46.345700
     754    1      7   0.11155167     0.300500   -30.374700   -46.798200
     755    1      7   0.11155167     0.768900   -31.091000   -45.145200
     756    1      6   0.16739167     2.728800   -30.447100   -49.550200
     757    1      6   0.17262267     2.257200   -28.037000   -50.626800
     758    1      5  -0.18770333    -0.617400   -32.325500   -46.319000
     759    1      3  -0.02450133    -1.881000   -31.679700   -45.720400
     760    1      8  -0.31219133    -3.024800   -32.666200   -45.748400
     761    1      2   0.05622167    -2.719500   -33.803000   -44.802000
     762    1      1  -0.15013933    -3.419800   -33.869700   -43.432000
     763    1      1  -0.14512533    -3.082000   -35.005000   -42.447900
     764    1      2   0.07780067    -2.046600   -36.076700   -42.834900
     765    1      8  -0.35497233    -1.647100   -37.138100   -41.836600
     766    1      3   0.01045667    -2.800300   -38.020000   -41.416700
     767    1      5  -0.18808133    -3.945600   -37.175300   -40.828100
     768    1      1  -0.14512533    -1.377900   -36.034400   -44.222100
     769    1      1  -0.15013933    -1.713100   -34.896600   -45.205100
     770    1      7   0.10392067    -0.353900   -33.266600   -45.732000
     771    1      7   0.10392067    -0.815400   -32.601000   -47.407400
     772    1      7   0.10321667    -2.154900   -30.758800   -46.334000
     773    1      7   0.10321667    -1.680600   -31.370800   -44.641500
     774    1      6   0.17262267    -4.181300   -33.072400   -43.142400
     775    1      6   0.16739167    -3.591300   -35.046600   -41.428800
     776    1      7   0.09804667    -3.187100   -38.610300   -42.312000
     777    1      7   0.09804667    -2.426800   -38.745300   -40.620400
     778    1      7   0.11155167    -3.549200   -36.539000   -39.969300
     779    1      7   0.11155167    -4.373900   -36.496600   -41.637500
     780    1      6   0.16739167    -0.623500   -36.837200   -44.515300
     781    1      6   0.17262267    -1.206700   -34.856800   -46.225700
     782    1      5  -0.18770333    -5.041600   -38.113300   -40.287800
     783    1      3  -0.02450133    -6.210700   -37.279800   -39.729400
     784    1      8  -0.31219133    -7.252600   -38.187400   -39.117600
     785    1      2   0.05622167    -6.690300   -38.796900   -37.854500
     786    1      1  -0.15013933    -7.265300   -38.391700   -36.484100
     787    1      1  -0.14512533    -6.647600   -38.957000   -35.191000
     788    1      2   0.07780067    -5.454400   -39.926800   -35.268200
     789    1      8  -0.35497233    -4.794000   -40.420600   -34.002300
     790    1      3   0.01045667    -4.069900   -39.257200   -33.366400
     791    1      5  -0.18808133    -5.087500   -38.263900   -32.774400
     792    1      1  -0.14512533    -4.915200   -40.374400   -36.640100
     793    1      1  -0.15013933    -5.532900   -39.809200   -37.933000
     794    1      7   0.10392067    -4.595600   -38.754800   -39.458300
     795    1      7   0.10392067    -5.424400   -38.786800   -41.124100
     796    1      7   0.10321667    -6.675200   -36.679100   -40.579700
     797    1      7   0.10321667    -5.825800   -36.566100   -38.928100
     798    1      6   0.17262267    -8.139100   -37.661800   -36.426000
     799    1      6   0.16739167    -7.060700   -38.642200   -34.175900
     800    1      7   0.09804667    -3.443600   -38.737500   -34.164600
     801    1      7   0.09804667    -3.388100   -39.630500   -32.532600
     802    1      7   0.11155167    -4.536600   -37.352400   -32.368200
     803    1      7   0.11155167    -5.821800   -37.934200   -33.581100
     804    1      6   0.16739167    -4.048200   -41.112300   -36.698300
     805    1      6   0.17262267    -5.121100   -40.125600   -38.948000
     806    1      5  -0.18770333    -5.834800   -38.944300   -31.612100
     807    1      3  -0.02450133    -6.872000   -37.974700   -31.016000
     808    1      8  -0.31219133    -7.499900   -38.607300   -29.796900
     809    1      2   0.05622167    -6.430700   -38.705700   -28.734400
     810    1      1  -0.15013933    -5.713600   -37.430600   -28.254500
     811    1      1  -0.14512533    -4.594000   -37.524900   -27.201900
     812    1      2   0.07780067    -4.186000   -38.895500   -26.631100
     813    1      8  -0.35497233    -3.039700   -38.990000   -25.651300
     814    1      3   0.01045667    -3.427100   -39.603800   -24.325100
     815    1      5  -0.18808133    -4.417300   -38.717900   -23.543300
     816    1      1  -0.14512533    -4.924400   -40.168500   -27.087100
     817    1      1  -0.15013933    -6.044600   -40.074300   -28.141800
     818    1      7   0.10392067    -6.362700   -39.884000   -31.983500
     819    1      7   0.10392067    -5.078700   -39.227000   -30.807100
     820    1      7   0.10321667    -7.668800   -37.745400   -31.798300
     821    1      7   0.10321667    -6.356200   -37.007900   -30.701200
     822    1      6   0.17262267    -6.006300   -36.416700   -28.685600
     823    1      6   0.16739167    -4.058800   -36.580800   -26.853000
     824    1      7   0.09804667    -2.481700   -39.720300   -23.698800
     825    1      7   0.09804667    -3.888300   -40.631700   -24.499400
     826    1      7   0.11155167    -4.620700   -39.199700   -22.530500
     827    1      7   0.11155167    -3.968400   -37.682100   -23.384800
     828    1      6   0.16739167    -4.633900   -41.181700   -26.653100
     829    1      6   0.17262267    -6.582500   -41.017600   -28.488600
     830    1      5  -0.18770333    -5.749300   -38.602100   -24.304500
     831    1      3  -0.02450133    -6.756300   -37.752000   -23.506900
     832    1      8  -0.31219133    -7.003500   -38.345400   -22.139200
     833    1      2   0.05622167    -5.906900   -37.969200   -21.168500
     834    1      1  -0.15013933    -5.590900   -36.484200   -20.910000
     835    1      1  -0.14512533    -4.548700   -36.089900   -19.846000
     836    1      2   0.07780067    -3.812600   -37.180300   -19.045800
     837    1      8  -0.35497233    -2.837200   -36.786000   -17.959300
     838    1      3   0.01045667    -3.032200   -35.318800   -17.651800
     839    1      5  -0.18808133    -2.077900   -34.832000   -16.541100
     840    1      1  -0.14512533    -4.095000   -38.667400   -19.336200
     841    1      1  -0.15013933    -5.139900   -39.061800   -20.399600
     842    1      7   0.10392067    -5.575800   -38.117800   -25.321100
     843    1      7   0.10392067    -6.178800   -39.647500   -24.452500
     844    1      7   0.10321667    -6.368400   -36.686600   -23.387600
     845    1      7   0.10321667    -7.738000   -37.732300   -24.086000
     846    1      6   0.17262267    -6.141700   -35.675100   -21.494500
     847    1      6   0.16739167    -4.328900   -34.989800   -19.643000
     848    1      7   0.09804667    -4.109000   -35.149200   -17.318200
     849    1      7   0.09804667    -2.838000   -34.717600   -18.600700
     850    1      7   0.11155167    -0.996700   -34.991900   -16.865300
     851    1      7   0.11155167    -2.258000   -33.720500   -16.362900
     852    1      6   0.16739167    -3.538700   -39.476600   -18.757200
     853    1      6   0.17262267    -5.355800   -40.161900   -20.606000
     854    1      5  -0.18770333    -2.340700   -35.594600   -15.228100
     855    1      3  -0.02450133    -1.433600   -35.064600   -14.097500
     856    1      8  -0.31219133    -1.717300   -33.600300   -13.850200
     857    1      2   0.05622167    -0.956300   -33.079800   -12.649700
     858    1      1  -0.15013933    -1.698900   -32.292500   -11.553000
     859    1      1  -0.14512533    -0.930000   -31.755800   -10.329400
     860    1      2   0.07780067     0.584800   -32.003500   -10.198900
     861    1      8  -0.35497233     1.332100   -31.506300    -8.979400
     862    1      3   0.01045667     1.915500   -30.133400    -9.226500
     863    1      5  -0.18808133     2.716700   -29.639600    -8.002300
     864    1      1  -0.14512533     1.326600   -32.798800   -11.291500
     865    1      1  -0.15013933     0.556900   -33.337200   -12.515300
     866    1      7   0.10392067    -3.429900   -35.450200   -14.924500
     867    1      7   0.10392067    -2.139300   -36.704700   -15.392300
     868    1      7   0.10321667    -1.651400   -35.650900   -13.144400
     869    1      7   0.10321667    -0.337900   -35.198900   -14.382300
     870    1      6   0.17262267    -2.819500   -32.105900   -11.647200
     871    1      6   0.16739167    -1.483700   -31.176200    -9.518800
     872    1      7   0.09804667     1.072000   -29.399200    -9.447600
     873    1      7   0.09804667     2.612100   -30.187500   -10.127300
     874    1      7   0.11155167     3.559200   -30.375400    -7.782300
     875    1      7   0.11155167     3.161700   -28.616100    -8.235000
     876    1      6   0.16739167     2.445900   -32.991900   -11.193500
     877    1      6   0.17262267     1.108100   -33.925600   -13.321300
     878    1      5  -0.18770333     1.807500   -29.518900    -6.763400
     879    1      3  -0.02450133     2.603700   -29.021600    -5.537300
     880    1      8  -0.31219133     3.187000   -27.648100    -5.783800
     881    1      2   0.05622167     3.894400   -27.131200    -4.548500
     882    1      1  -0.15013933     3.077100   -26.623700    -3.344500
     883    1      1  -0.14512533     3.797300   -26.077700    -2.094400
     884    1      2   0.07780067     5.337200   -26.036600    -2.044900
     885    1      8  -0.35497233     6.047900   -25.549900    -0.799300
     886    1      3   0.01045667     6.785100   -24.255100    -1.057500
     887    1      5  -0.18808133     7.666500   -23.869500     0.150700
     888    1      1  -0.14512533     6.153700   -26.532000    -3.254200
     889    1      1  -0.15013933     5.433700   -27.078100    -4.503900
     890    1      7   0.10392067     0.964400   -28.784500    -6.986000
     891    1      7   0.10392067     1.363000   -30.542500    -6.530400
     892    1      7   0.10321667     1.901500   -28.965700    -4.641000
     893    1      7   0.10321667     3.446200   -29.754800    -5.308700
     894    1      6   0.17262267     1.938000   -26.652800    -3.377300
     895    1      6   0.16739167     3.189700   -25.708900    -1.203100
     896    1      7   0.09804667     6.033800   -23.424300    -1.269300
     897    1      7   0.09804667     7.457800   -24.394500    -1.967300
     898    1      7   0.11155167     8.414600   -24.707500     0.344500
     899    1      7   0.11155167     8.232400   -22.909600    -0.089700
     900    1      6   0.16739167     7.292800   -26.499300    -3.222800
     901    1      6   0.17262267     6.041400   -27.443700    -5.396400
     902    1      5  -0.18770333     6.821900   -23.644800     1.420500
     903    1      3  -0.02450133     7.728400   -23.289200     2.619200
     904    1      8  -0.31219133     8.499300   -22.013500     2.364800
     905    1      2   0.05622167     9.365800   -21.660800     3.555600
     906    1      1  -0.15013933     8.726300   -21.431700     4.939000
     907    1      1  -0.14512533     9.610100   -21.065300     6.149300
     908    1      2   0.07780067    11.136000   -20.932900     5.979600
     909    1      8  -0.35497233    12.012200   -20.612000     7.171800
     910    1      3   0.01045667    12.903400   -19.428800     6.870100
     911    1      5  -0.18808133    14.015500   -19.293800     7.931600
     912    1      1  -0.14512533    11.773500   -21.149900     4.593700
     913    1      1  -0.15013933    10.890300   -21.516500     3.384300
     914    1      7   0.10392067     6.081800   -22.797000     1.238800
     915    1      7   0.10392067     6.249200   -24.601600     1.657900
     916    1      7   0.10321667     7.080800   -23.149300     3.547000
     917    1      7   0.10321667     8.463200   -24.141700     2.800100
     918    1      6   0.17262267     7.598300   -21.533900     5.068300
     919    1      6   0.16739167     9.134300   -20.898400     7.171700
     920    1      7   0.09804667    12.281000   -18.474500     6.828200
     921    1      7   0.09804667    13.397200   -19.601300     5.857100
     922    1      7   0.11155167    14.616600   -20.262200     7.950100
     923    1      7   0.11155167    14.704300   -18.433100     7.641200
     924    1      6   0.16739167    12.901200   -21.044500     4.464000
     925    1      6   0.17262267    11.365900   -21.681100     2.361400
     926    1      5  -0.19416775    16.524700   -14.955800    17.244800
     927    1      3  -0.02646075    15.654700   -15.442500    16.065500
     928    1      8  -0.31445075    16.352700   -16.358300    15.086400
     929    1      2   0.04928225    15.363800   -16.605000    13.967300
     930    1      1  -0.14517275    15.351900   -17.947700    13.209700
     931    1      1  -0.14820675    14.297800   -18.207200    12.112500
     932    1      2   0.06520325    13.251200   -17.126800    11.775900
     933    1      8  -0.32288875    12.170000   -17.395600    10.750600
     934    1      3  -0.01359675    12.708200   -17.679300     9.366100
     935    1      5  -0.18686275    13.460200   -19.022700     9.344000
     936    1      1  -0.14820675    13.279700   -15.777300    12.518300
     937    1      1  -0.14517275    14.330900   -15.519000    13.614500
     938    1      7   0.10493625    17.419600   -14.365100    16.857500
     939    1      7   0.10493625    15.874100   -14.268100    17.879800
     940    1      7   0.10481125    15.296700   -14.525400    15.490300
     941    1      7   0.10481125    14.744900   -15.987900    16.482900
     942    1      6   0.17100725    16.117700   -18.752400    13.465600
     943    1      6   0.16879825    14.286700   -19.202600    11.556900
     944    1      7   0.09449425    11.839400   -17.735800     8.630100
     945    1      7   0.09449425    13.412000   -16.838400     9.054600
     946    1      7   0.12130325    12.754900   -19.865700     9.646400
     947    1      7   0.12130325    14.328200   -18.971900    10.081000
     948    1      6   0.16879825    12.513300   -14.972400    12.264600
     949    1      6   0.17100725    14.339400   -14.524800    14.172600

Bonds

       1      8        1        2
       2     12        1        6
       3     12        1        7
       4     11        1       14
       5     10        2        3
       6      9        2        8
       7      9        2        9
       8     10        3        4
       9      8        4        5
      10      9        4       10
      11      9        4       11
      12     12        5       12
      13     12        5       13
      14     11        5      926
      15      8       14       15
      16     12       14       19
      17     12       14       20
      18     10       15       16
      19      9       15       21
      20      9       15       22
      21     10       16       17
      22      8       17       18
      23      9       17       23
      24      9       17       24
      25     12       18       25
      26     12       18       26
      27     11       18       27
      28      8       27       28
      29     12       27       32
      30     12       27       33
      31     10       28       29
      32      9       28       34
      33      9       28       35
      34     10       29       30
      35      8       30       31
      36      9       30       36
      37      9       30       37
      38     12       31       38
      39     12       31       39
      40     11       31       40
      41      8       40       41
      42     12       40       45
      43     12       40       46
      44     10       41       42
      45      9       41       47
      46      9       41       48
      47     10       42       43
      48      8       43       44
      49      9       43       49
      50      9       43       50
      51     12       44       51
      52     12       44       52
      53     11       44       53
      54      8       53       54
      55     12       53       58
      56     12       53       59
      57     10       54       55
      58      9       54       60
      59      9       54       61
      60     10       55       56
      61      8       56       57
      62      9       56       62
      63      9       56       63
      64     12       57       64
      65     12       57       65
      66     11       57       66
      67      8       66       67
      68     12       66       71
      69     12       66       72
      70     10       67       68
      71      9       67       73
      72      9       67       74
      73     10       68       69
      74      8       69       70
      75      9       69       75
      76      9       69       76
      77     12       70       77
      78     12       70       78
      79     11       70       79
      80      8       79       80
      81     12       79       84
      82     12       79       85
      83     10       80       81
      84      9       80       86
      85      9       80       87
      86     10       81       82
      87      8       82       83
      88      9       82       88
      89      9       82       89
      90     12       83       90
      91     12       83       91
      92     11       83       92
      93      8       92       93
      94     12       92       97
      95     12       92       98
      96     10       93       94
      97      9       93       99
      98      9       93      100
      99     10       94       95
     100      8       95       96
     101      9       95      101
     102      9       95      102
     103     12       96      103
     104     12       96      104
     105     11       96      105
     106      8      105      106
     107     12      105      110
     108     12      105      111
     109     10      106      107
     110      9      106      112
     111      9      106      113
     112     10      107      108
     113      8      108      109
     114      9      108      114
     115      9      108      115
     116     12      109      116
     117     12      109      117
     118     11      109      118
     119      8      118      119
     120     12      118      123
     121     12      118      124
     122     10      119      120
     123      9      119      125
     124      9      119      126
     125     10      120      121
     126      8      121      122
     127      9      121      127
     128      9      121      128
     129     12      122      129
     130     12      122      130
     131     11      122      131
     132      8      131      132
     133     12      131      136
     134     12      131      137
     135     10      132      133
     136      9      132      138
     137      9      132      139
     138     10      133      134
     139      8      134      135
     140      9      134      140
     141      9      134      141
     142     12      135      142
     143     12      135      143
     144     11      135      144
     145      8      144      145
     146     12      144      149
     147     12      144      150
     148     10      145      146
     149      9      145      151
     150      9      145      152
     151     10      146      147
     152      8      147      148
     153      9      147      153
     154      9      147      154
     155     12      148      155
     156     12      148      156
     157     11      148      157
     158      8      157      158
     159     12      157      162
     160     12      157      163
     161     10      158      159
     162      9      158      164
     163      9      158      165
     164     10      159      160
     165      8      160      161
     166      9      160      166
     167      9      160      167
     168     12      161      168
     169     12      161      169
     170     11      161      170
     171      8      170      171
     172     12      170      175
     173     12      170      176
     174     10      171      172
     175      9      171      177
     176      9      171      178
     177     10      172      173
     178      8      173      174
     179      9      173      179
     180      9      173      180
     181     12      174      181
     182     12      174      182
     183     11      174      183
     184      8      183      184
     185     12      183      188
     186     12      183      189
     187     10      184      185
     188      9      184      190
     189      9      184      191
     190     10      185      186
     191      8      186      187
     192      9      186      192
     193      9      186      193
     194     12      187      194
     195     12      187      195
     196     11      187      196
     197      8      196      197
     198     12      196      201
     199     12      196      202
     200     10      197      198
     201      9      197      203
     202      9      197      204
     203     10      198      199
     204      8      199      200
     205      9      199      205
     206      9      199      206
     207     12      200      207
     208     12      200      208
     209     11      200      209
     210      8      209      210
     211     12      209      214
     212     12      209      215
     213     10      210      211
     214      9      210      216
     215      9      210      217
     216     10      211      212
     217      8      212      213
     218      9      212      218
     219      9      212      219
     220     12      213      220
     221     12      213      221
     222     11      213      222
     223      8      222      223
     224     12      222      227
     225     12      222      228
     226     10      223      224
     227      9      223      229
     228      9      223      230
     229     10      224      225
     230      8      225      226
     231      9      225      231
     232      9      225      232
     233     12      226      233
     234     12      226      234
     235     11      226      235
     236      8      235      236
     237     12      235      240
     238     12      235      241
     239     10      236      237
     240      9      236      242
     241      9      236      243
     242     10      237      238
     243      8      238      239
     244      9      238      244
     245      9      238      245
     246     12      239      246
     247     12      239      247
     248     11      239      248
     249      8      248      249
     250     12      248      253
     251     12      248      254
     252     10      249      250
     253      9      249      255
     254      9      249      256
     255     10      250      251
     256      8      251      252
     257      9      251      257
     258      9      251      258
     259     12      252      259
     260     12      252      260
     261     11      252      261
     262      8      261      262
     263     12      261      266
     264     12      261      267
     265     10      262      263
     266      9      262      268
     267      9      262      269
     268     10      263      264
     269      8      264      265
     270      9      264      270
     271      9      264      271
     272     12      265      272
     273     12      265      273
     274     11      265      274
     275      8      274      275
     276     12      274      279
     277     12      274      280
     278     10      275      276
     279      9      275      281
     280      9      275      282
     281     10      276      277
     282      8      277      278
     283      9      277      283
     284      9      277      284
     285     12      278      285
     286     12      278      286
     287     11      278      287
     288      8      287      288
     289     12      287      292
     290     12      287      293
     291     10      288      289
     292      9      288      294
     293      9      288      295
     294     10      289      290
     295      8      290      291
     296      9      290      296
     297      9      290      297
     298     12      291      298
     299     12      291      299
     300     11      291      300
     301      8      300      301
     302     12      300      305
     303     12      300      306
     304     10      301      302
     305      9      301      307
     306      9      301      308
     307     10      302      303
     308      8      303      304
     309      9      303      309
     310      9      303      310
     311     12      304      311
     312     12      304      312
     313     11      304      313
     314      8      313      314
     315     12      313      318
     316     12      313      319
     317     10      314      315
     318      9      314      320
     319      9      314      321
     320     10      315      316
     321      8      316      317
     322      9      316      322
     323      9      316      323
     324     12      317      324
     325     12      317      325
     326     11      317      326
     327      5      326      327
     328     12      326      338
     329     12      326      339
     330      7      327      328
     331      6      327      340
     332      6      327      341
     333      4      328      329
     334      2      329      330
     335      1      330      331
     336      3      330      342
     337      2      331      332
     338      3      331      343
     339      4      332      333
     340      2      332      336
     341      7      333      334
     342      5      334      335
     343      6      334      344
     344      6      334      345
     345     12      335      346
     346     12      335      347
     347     11      335      350
     348      1      336      337
     349      3      336      348
     350      2      337      329
     351      3      337      349
     352      5      350      351
     353     12      350      362
     354     12      350      363
     355      7      351      352
     356      6      351      364
     357      6      351      365
     358      4      352      353
     359      2      353      354
     360      1      354      355
     361      3      354      366
     362      2      355      356
     363      3      355      367
     364      4      356      357
     365      2      356      360
     366      7      357      358
     367      5      358      359
     368      6      358      368
     369      6      358      369
     370     12      359      370
     371     12      359      371
     372     11      359      374
     373      1      360      361
     374      3      360      372
     375      2      361      353
     376      3      361      373
     377      5      374      375
     378     12      374      386
     379     12      374      387
     380      7      375      376
     381      6      375      388
     382      6      375      389
     383      4      376      377
     384      2      377      378
     385      1      378      379
     386      3      378      390
     387      2      379      380
     388      3      379      391
     389      4      380      381
     390      2      380      384
     391      7      381      382
     392      5      382      383
     393      6      382      392
     394      6      382      393
     395     12      383      394
     396     12      383      395
     397     11      383      398
     398      1      384      385
     399      3      384      396
     400      2      385      377
     401      3      385      397
     402      5      398      399
     403     12      398      410
     404     12      398      411
     405      7      399      400
     406      6      399      412
     407      6      399      413
     408      4      400      401
     409      2      401      402
     410      1      402      403
     411      3      402      414
     412      2      403      404
     413      3      403      415
     414      4      404      405
     415      2      404      408
     416      7      405      406
     417      5      406      407
     418      6      406      416
     419      6      406      417
     420     12      407      418
     421     12      407      419
     422     11      407      422
     423      1      408      409
     424      3      408      420
     425      2      409      401
     426      3      409      421
     427      5      422      423
     428     12      422      434
     429     12      422      435
     430      7      423      424
     431      6      423      436
     432      6      423      437
     433      4      424      425
     434      2      425      426
     435      1      426      427
     436      3      426      438
     437      2      427      428
     438      3      427      439
     439      4      428      429
     440      2      428      432
     441      7      429      430
     442      5      430      431
     443      6      430      440
     444      6      430      441
     445     12      431      442
     446     12      431      443
     447     11      431      446
     448      1      432      433
     449      3      432      444
     450      2      433      425
     451      3      433      445
     452      5      446      447
     453     12      446      458
     454     12      446      459
     455      7      447      448
     456      6      447      460
     457      6      447      461
     458      4      448      449
     459      2      449      450
     460      1      450      451
     461      3      450      462
     462      2      451      452
     463      3      451      463
     464      4      452      453
     465      2      452      456
     466      7      453      454
     467      5      454      455
     468      6      454      464
     469      6      454      465
     470     12      455      466
     471     12      455      467
     472     11      455      470
     473      1      456      457
     474      3      456      468
     475      2      457      449
     476      3      457      469
     477      5      470      471
     478     12      470      482
     479     12      470      483
     480      7      471      472
     481      6      471      484
     482      6      471      485
     483      4      472      473
     484      2      473      474
     485      1      474      475
     486      3      474      486
     487      2      475      476
     488      3      475      487
     489      4      476      477
     490      2      476      480
     491      7      477      478
     492      5      478      479
     493      6      478      488
     494      6      478      489
     495     12      479      490
     496     12      479      491
     497     11      479      494
     498      1      480      481
     499      3      480      492
     500      2      481      473
     501      3      481      493
     502      5      494      495
     503     12      494      506
     504     12      494      507
     505      7      495      496
     506      6      495      508
     507      6      495      509
     508      4      496      497
     509      2      497      498
     510      1      498      499
     511      3      498      510
     512      2      499      500
     513      3      499      511
     514      4      500      501
     515      2      500      504
     516      7      501      502
     517      5      502      503
     518      6      502      512
     519      6      502      513
     520     12      503      514
     521     12      503      515
     522     11      503      518
     523      1      504      505
     524      3      504      516
     525      2      505      497
     526      3      505      517
     527      5      518      519
     528     12      518      530
     529     12      518      531
     530      7      519      520
     531      6      519      532
     532      6      519      533
     533      4      520      521
     534      2      521      522
     535      1      522      523
     536      3      522      534
     537      2      523      524
     538      3      523      535
     539      4      524      525
     540      2      524      528
     541      7      525      526
     542      5      526      527
     543      6      526      536
     544      6      526      537
     545     12      527      538
     546     12      527      539
     547     11      527      542
     548      1      528      529
     549      3      528      540
     550      2      529      521
     551      3      529      541
     552      5      542      543
     553     12      542      554
     554     12      542      555
     555      7      543      544
     556      6      543      556
     557      6      543      557
     558      4      544      545
     559      2      545      546
     560      1      546      547
     561      3      546      558
     562      2      547      548
     563      3      547      559
     564      4      548      549
     565      2      548      552
     566      7      549      550
     567      5      550      551
     568      6      550      560
     569      6      550      561
     570     12      551      562
     571     12      551      563
     572     11      551      566
     573      1      552      553
     574      3      552      564
     575      2      553      545
     576      3      553      565
     577      5      566      567
     578     12      566      578
     579     12      566      579
     580      7      567      568
     581      6      567      580
     582      6      567      581
     583      4      568      569
     584      2      569      570
     585      1      570      571
     586      3      570      582
     587      2      571      572
     588      3      571      583
     589      4      572      573
     590      2      572      576
     591      7      573      574
     592      5      574      575
     593      6      574      584
     594      6      574      585
     595     12      575      586
     596     12      575      587
     597     11      575      590
     598      1      576      577
     599      3      576      588
     600      2      577      569
     601      3      577      589
     602      5      590      591
     603     12      590      602
     604     12      590      603
     605      7      591      592
     606      6      591      604
     607      6      591      605
     608      4      592      593
     609      2      593      594
     610      1      594      595
     611      3      594      606
     612      2      595      596
     613      3      595      607
     614      4      596      597
     615      2      596      600
     616      7      597      598
     617      5      598      599
     618      6      598      608
     619      6      598      609
     620     12      599      610
     621     12      599      611
     622     11      599      614
     623      1      600      601
     624      3      600      612
     625      2      601      593
     626      3      601      613
     627      5      614      615
     628     12      614      626
     629     12      614      627
     630      7      615      616
     631      6      615      628
     632      6      615      629
     633      4      616      617
     634      2      617      618
     635      1      618      619
     636      3      618      630
     637      2      619      620
     638      3      619      631
     639      4      620      621
     640      2      620      624
     641      7      621      622
     642      5      622      623
     643      6      622      632
     644      6      622      633
     645     12      623      634
     646     12      623      635
     647     11      623      638
     648      1      624      625
     649      3      624      636
     650      2      625      617
     651      3      625      637
     652      5      638      639
     653     12      638      650
     654     12      638      651
     655      7      639      640
     656      6      639      652
     657      6      639      653
     658      4      640      641
     659      2      641      642
     660      1      642      643
     661      3      642      654
     662      2      643      644
     663      3      643      655
     664      4      644      645
     665      2      644      648
     666      7      645      646
     667      5      646      647
     668      6      646      656
     669      6      646      657
     670     12      647      658
     671     12      647      659
     672     11      647      662
     673      1      648      649
     674      3      648      660
     675      2      649      641
     676      3      649      661
     677      5      662      663
     678     12      662      674
     679     12      662      675
     680      7      663      664
     681      6      663      676
     682      6      663      677
     683      4      664      665
     684      2      665      666
     685      1      666      667
     686      3      666      678
     687      2      667      668
     688      3      667      679
     689      4      668      669
     690      2      668      672
     691      7      669      670
     692      5      670      671
     693      6      670      680
     694      6      670      681
     695     12      671      682
     696     12      671      683
     697     11      671      686
     698      1      672      673
     699      3      672      684
     700      2      673      665
     701      3      673      685
     702      5      686      687
     703     12      686      698
     704     12      686      699
     705      7      687      688
     706      6      687      700
     707      6      687      701
     708      4      688      689
     709      2      689      690
     710      1      690      691
     711      3      690      702
     712      2      691      692
     713      3      691      703
     714      4      692      693
     715      2      692      696
     716      7      693      694
     717      5      694      695
     718      6      694      704
     719      6      694      705
     720     12      695      706
     721     12      695      707
     722     11      695      710
     723      1      696      697
     724      3      696      708
     725      2      697      689
     726      3      697      709
     727      5      710      711
     728     12      710      722
     729     12      710      723
     730      7      711      712
     731      6      711      724
     732      6      711      725
     733      4      712      713
     734      2      713      714
     735      1      714      715
     736      3      714      726
     737      2      715      716
     738      3      715      727
     739      4      716      717
     740      2      716      720
     741      7      717      718
     742      5      718      719
     743      6      718      728
     744      6      718      729
     745     12      719      730
     746     12      719      731
     747     11      719      734
     748      1      720      721
     749      3      720      732
     750      2      721      713
     751      3      721      733
     752      5      734      735
     753     12      734      746
     754     12      734      747
     755      7      735      736
     756      6      735      748
     757      6      735      749
     758      4      736      737
     759      2      737      738
     760      1      738      739
     761      3      738      750
     762      2      739      740
     763      3      739      751
     764      4      740      741
     765      2      740      744
     766      7      741      742
     767      5      742      743
     768      6      742      752
     769      6      742      753
     770     12      743      754
     771     12      743      755
     772     11      743      758
     773      1      744      745
     774      3      744      756
     775      2      745      737
     776      3      745      757
     777      5      758      759
     778     12      758      770
     779     12      758      771
     780      7      759      760
     781      6      759      772
     782      6      759      773
     783      4      760      761
     784      2      761      762
     785      1      762      763
     786      3      762      774
     787      2      763      764
     788      3      763      775
     789      4      764      765
     790      2      764      768
     791      7      765      766
     792      5      766      767
     793      6      766      776
     794      6      766      777
     795     12      767      778
     796     12      767      779
     797     11      767      782
     798      1      768      769
     799      3      768      780
     800      2      769      761
     801      3      769      781
     802      5      782      783
     803     12      782      794
     804     12      782      795
     805      7      783      784
     806      6      783      796
     807      6      783      797
     808      4      784      785
     809      2      785      786
     810      1      786      787
     811      3      786      798
     812      2      787      788
     813      3      787      799
     814      4      788      789
     815      2      788      792
     816      7      789      790
     817      5      790      791
     818      6      790      800
     819      6      790      801
     820     12      791      802
     821     12      791      803
     822     11      791      806
     823      1      792      793
     824      3      792      804
     825      2      793      785
     826      3      793      805
     827      5      806      807
     828     12      806      818
     829     12      806      819
     830      7      807      808
     831      6      807      820
     832      6      807      821
     833      4      808      809
     834      2      809      810
     835      1      810      811
     836      3      810      822
     837      2      811      812
     838      3      811      823
     839      4      812      813
     840      2      812      816
     841      7      813      814
     842      5      814      815
     843      6      814      824
     844      6      814      825
     845     12      815      826
     846     12      815      827
     847     11      815      830
     848      1      816      817
     849      3      816      828
     850      2      817      809
     851      3      817      829
     852      5      830      831
     853     12      830      842
     854     12      830      843
     855      7      831      832
     856      6      831      844
     857      6      831      845
     858      4      832      833
     859      2      833      834
     860      1      834      835
     861      3      834      846
     862      2      835      836
     863      3      835      847
     864      4      836      837
     865      2      836      840
     866      7      837      838
     867      5      838      839
     868      6      838      848
     869      6      838      849
     870     12      839      850
     871     12      839      851
     872     11      839      854
     873      1      840      841
     874      3      840      852
     875      2      841      833
     876      3      841      853
     877      5      854      855
     878     12      854      866
     879     12      854      867
     880      7      855      856
     881      6      855      868
     882      6      855      869
     883      4      856      857
     884      2      857      858
     885      1      858      859
     886      3      858      870
     887      2      859      860
     888      3      859      871
     889      4      860      861
     890      2      860      864
     891      7      861      862
     892      5      862      863
     893      6      862      872
     894      6      862      873
     895     12      863      874
     896     12      863      875
     897     11      863      878
     898      1      864      865
     899      3      864      876
     900      2      865      857
     901      3      865      877
     902      5      878      879
     903     12      878      890
     904     12      878      891
     905      7      879      880
     906      6      879      892
     907      6      879      893
     908      4      880      881
     909      2      881      882
     910      1      882      883
     911      3      882      894
     912      2      883      884
     913      3      883      895
     914      4      884      885
     915      2      884      888
     916      7      885      886
     917      5      886      887
     918      6      886      896
     919      6      886      897
     920     12      887      898
     921     12      887      899
     922     11      887      902
     923      1      888      889
     924      3      888      900
     925      2      889      881
     926      3      889      901
     927      5      902      903
     928     12      902      914
     929     12      902      915
     930      7      903      904
     931      6      903      916
     932      6      903      917
     933      4      904      905
     934      2      905      906
     935      1      906      907
     936      3      906      918
     937      2      907      908
     938      3      907      919
     939      4      908      909
     940      2      908      912
     941      7      909      910
     942      5      910      911
     943      6      910      920
     944      6      910      921
     945     12      911      922
     946     12      911      923
     947     11      911      935
     948      1      912      913
     949      3      912      924
     950      2      913      905
     951      3      913      925
     952      5      926      927
     953     12      926      938
     954     12      926      939
     955      7      927      928
     956      6      927      940
     957      6      927      941
     958      4      928      929
     959      2      929      930
     960      1      930      931
     961      3      930      942
     962      2      931      932
     963      3      931      943
     964      4      932      933
     965      2      932      936
     966      7      933      934
     967      5      934      935
     968      6      934      944
     969      6      934      945
     970     12      935      946
     971     12      935      947
     972      1      936      937
     973      3      936      948
     974      2      937      929
     975      3      937      949

Angles

       1     15        1        2        3
       2     14        1        2        8
       3     14        1        2        9
       4      9        1       14       15
       5     16        1       14       19
       6     16        1       14       20
       7     10        2        1        6
       8     10        2        1        7
       9      9        2        1       14
      10     11        2        3        4
      11     20        3        2        8
      12     20        3        2        9
      13     15        3        4        5
      14     20        3        4       10
      15     20        3        4       11
      16     10        4        5       12
      17     10        4        5       13
      18      9        4        5      926
      19     14        5        4       10
      20     14        5        4       11
      21      7        5      926      927
      22     16        5      926      938
      23     16        5      926      939
      24     21        6        1        7
      25     16        6        1       14
      26     16        7        1       14
      27     19        8        2        9
      28     19       10        4       11
      29     21       12        5       13
      30     16       12        5      926
      31     16       13        5      926
      32     15       14       15       16
      33     14       14       15       21
      34     14       14       15       22
      35     10       15       14       19
      36     10       15       14       20
      37     11       15       16       17
      38     20       16       15       21
      39     20       16       15       22
      40     15       16       17       18
      41     20       16       17       23
      42     20       16       17       24
      43     10       17       18       25
      44     10       17       18       26
      45      9       17       18       27
      46     14       18       17       23
      47     14       18       17       24
      48      9       18       27       28
      49     16       18       27       32
      50     16       18       27       33
      51     21       19       14       20
      52     19       21       15       22
      53     19       23       17       24
      54     21       25       18       26
      55     16       25       18       27
      56     16       26       18       27
      57     15       27       28       29
      58     14       27       28       34
      59     14       27       28       35
      60     10       28       27       32
      61     10       28       27       33
      62     11       28       29       30
      63     20       29       28       34
      64     20       29       28       35
      65     15       29       30       31
      66     20       29       30       36
      67     20       29       30       37
      68     10       30       31       38
      69     10       30       31       39
      70      9       30       31       40
      71     14       31       30       36
      72     14       31       30       37
      73      9       31       40       41
      74     16       31       40       45
      75     16       31       40       46
      76     21       32       27       33
      77     19       34       28       35
      78     19       36       30       37
      79     21       38       31       39
      80     16       38       31       40
      81     16       39       31       40
      82     15       40       41       42
      83     14       40       41       47
      84     14       40       41       48
      85     10       41       40       45
      86     10       41       40       46
      87     11       41       42       43
      88     20       42       41       47
      89     20       42       41       48
      90     15       42       43       44
      91     20       42       43       49
      92     20       42       43       50
      93     10       43       44       51
      94     10       43       44       52
      95      9       43       44       53
      96     14       44       43       49
      97     14       44       43       50
      98      9       44       53       54
      99     16       44       53       58
     100     16       44       53       59
     101     21       45       40       46
     102     19       47       41       48
     103     19       49       43       50
     104     21       51       44       52
     105     16       51       44       53
     106     16       52       44       53
     107     15       53       54       55
     108     14       53       54       60
     109     14       53       54       61
     110     10       54       53       58
     111     10       54       53       59
     112     11       54       55       56
     113     20       55       54       60
     114     20       55       54       61
     115     15       55       56       57
     116     20       55       56       62
     117     20       55       56       63
     118     10       56       57       64
     119     10       56       57       65
     120      9       56       57       66
     121     14       57       56       62
     122     14       57       56       63
     123      9       57       66       67
     124     16       57       66       71
     125     16       57       66       72
     126     21       58       53       59
     127     19       60       54       61
     128     19       62       56       63
     129     21       64       57       65
     130     16       64       57       66
     131     16       65       57       66
     132     15       66       67       68
     133     14       66       67       73
     134     14       66       67       74
     135     10       67       66       71
     136     10       67       66       72
     137     11       67       68       69
     138     20       68       67       73
     139     20       68       67       74
     140     15       68       69       70
     141     20       68       69       75
     142     20       68       69       76
     143     10       69       70       77
     144     10       69       70       78
     145      9       69       70       79
     146     14       70       69       75
     147     14       70       69       76
     148      9       70       79       80
     149     16       70       79       84
     150     16       70       79       85
     151     21       71       66       72
     152     19       73       67       74
     153     19       75       69       76
     154     21       77       70       78
     155     16       77       70       79
     156     16       78       70       79
     157     15       79       80       81
     158     14       79       80       86
     159     14       79       80       87
     160     10       80       79       84
     161     10       80       79       85
     162     11       80       81       82
     163     20       81       80       86
     164     20       81       80       87
     165     15       81       82       83
     166     20       81       82       88
     167     20       81       82       89
     168     10       82       83       90
     169     10       82       83       91
     170      9       82       83       92
     171     14       83       82       88
     172     14       83       82       89
     173      9       83       92       93
     174     16       83       92       97
     175     16       83       92       98
     176     21       84       79       85
     177     19       86       80       87
     178     19       88       82       89
     179     21       90       83       91
     180     16       90       83       92
     181     16       91       83       92
     182     15       92       93       94
     183     14       92       93       99
     184     14       92       93      100
     185     10       93       92       97
     186     10       93       92       98
     187     11       93       94       95
     188     20       94       93       99
     189     20       94       93      100
     190     15       94       95       96
     191     20       94       95      101
     192     20       94       95      102
     193     10       95       96      103
     194     10       95       96      104
     195      9       95       96      105
     196     14       96       95      101
     197     14       96       95      102
     198      9       96      105      106
     199     16       96      105      110
     200     16       96      105      111
     201     21       97       92       98
     202     19       99       93      100
     203     19      101       95      102
     204     21      103       96      104
     205     16      103       96      105
     206     16      104       96      105
     207     15      105      106      107
     208     14      105      106      112
     209     14      105      106      113
     210     10      106      105      110
     211     10      106      105      111
     212     11      106      107      108
     213     20      107      106      112
     214     20      107      106      113
     215     15      107      108      109
     216     20      107      108      114
     217     20      107      108      115
     218     10      108      109      116
     219     10      108      109      117
     220      9      108      109      118
     221     14      109      108      114
     222     14      109      108      115
     223      9      109      118      119
     224     16      109      118      123
     225     16      109      118      124
     226     21      110      105      111
     227     19      112      106      113
     228     19      114      108      115
     229     21      116      109      117
     230     16      116      109      118
     231     16      117      109      118
     232     15      118      119      120
     233     14      118      119      125
     234     14      118      119      126
     235     10      119      118      123
     236     10      119      118      124
     237     11      119      120      121
     238     20      120      119      125
     239     20      120      119      126
     240     15      120      121      122
     241     20      120      121      127
     242     20      120      121      128
     243     10      121      122      129
     244     10      121      122      130
     245      9      121      122      131
     246     14      122      121      127
     247     14      122      121      128
     248      9      122      131      132
     249     16      122      131      136
     250     16      122      131      137
     251     21      123      118      124
     252     19      125      119      126
     253     19      127      121      128
     254     21      129      122      130
     255     16      129      122      131
     256     16      130      122      131
     257     15      131      132      133
     258     14      131      132      138
     259     14      131      132      139
     260     10      132      131      136
     261     10      132      131      137
     262     11      132      133      134
     263     20      133      132      138
     264     20      133      132      139
     265     15      133      134      135
     266     20      133      134      140
     267     20      133      134      141
     268     10      134      135      142
     269     10      134      135      143
     270      9      134      135      144
     271     14      135      134      140
     272     14      135      134      141
     273      9      135      144      145
     274     16      135      144      149
     275     16      135      144      150
     276     21      136      131      137
     277     19      138      132      139
     278     19      140      134      141
     279     21      142      135      143
     280     16      142      135      144
     281     16      143      135      144
     282     15      144      145      146
     283     14      144      145      151
     284     14      144      145      152
     285     10      145      144      149
     286     10      145      144      150
     287     11      145      146      147
     288     20      146      145      151
     289     20      146      145      152
     290     15      146      147      148
     291     20      146      147      153
     292     20      146      147      154
     293     10      147      148      155
     294     10      147      148      156
     295      9      147      148      157
     296     14      148      147      153
     297     14      148      147      154
     298      9      148      157      158
     299     16      148      157      162
     300     16      148      157      163
     301     21      149      144      150
     302     19      151      145      152
     303     19      153      147      154
     304     21      155      148      156
     305     16      155      148      157
     306     16      156      148      157
     307     15      157      158      159
     308     14      157      158      164
     309     14      157      158      165
     310     10      158      157      162
     311     10      158      157      163
     312     11      158      159      160
     313     20      159      158      164
     314     20      159      158      165
     315     15      159      160      161
     316     20      159      160      166
     317     20      159      160      167
     318     10      160      161      168
     319     10      160      161      169
     320      9      160      161      170
     321     14      161      160      166
     322     14      161      160      167
     323      9      161      170      171
     324     16      161      170      175
     325     16      161      170      176
     326     21      162      157      163
     327     19      164      158      165
     328     19      166      160      167
     329     21      168      161      169
     330     16      168      161      170
     331     16      169      161      170
     332     15      170      171      172
     333     14      170      171      177
     334     14      170      171      178
     335     10      171      170      175
     336     10      171      170      176
     337     11      171      172      173
     338     20      172      171      177
     339     20      172      171      178
     340     15      172      173      174
     341     20      172      173      179
     342     20      172      173      180
     343     10      173      174      181
     344     10      173      174      182
     345      9      173      174      183
     346     14      174      173      179
     347     14      174      173      180
     348      9      174      183      184
     349     16      174      183      188
     350     16      174      183      189
     351     21      175      170      176
     352     19      177      171      178
     353     19      179      173      180
     354     21      181      174      182
     355     16      181      174      183
     356     16      182      174      183
     357     15      183      184      185
     358     14      183      184      190
     359     14      183      184      191
     360     10      184      183      188
     361     10      184      183      189
     362     11      184      185      186
     363     20      185      184      190
     364     20      185      184      191
     365     15      185      186      187
     366     20      185      186      192
     367     20      185      186      193
     368     10      186      187      194
     369     10      186      187      195
     370      9      186      187      196
     371     14      187      186      192
     372     14      187      186      193
     373      9      187      196      197
     374     16      187      196      201
     375     16      187      196      202
     376     21      188      183      189
     377     19      190      184      191
     378     19      192      186      193
     379     21      194      187      195
     380     16      194      187      196
     381     16      195      187      196
     382     15      196      197      198
     383     14      196      197      203
     384     14      196      197      204
     385     10      197      196      201
     386     10      197      196      202
     387     11      197      198      199
     388     20      198      197      203
     389     20      198      197      204
     390     15      198      199      200
     391     20      198      199      205
     392     20      198      199      206
     393     10      199      200      207
     394     10      199      200      208
     395      9      199      200      209
     396     14      200      199      205
     397     14      200      199      206
     398      9      200      209      210
     399     16      200      209      214
     400     16      200      209      215
     401     21      201      196      202
     402     19      203      197      204
     403     19      205      199      206
     404     21      207      200      208
     405     16      207      200      209
     406     16      208      200      209
     407     15      209      210      211
     408     14      209      210      216
     409     14      209      210      217
     410     10      210      209      214
     411     10      210      209      215
     412     11      210      211      212
     413     20      211      210      216
     414     20      211      210      217
     415     15      211      212      213
     416     20      211      212      218
     417     20      211      212      219
     418     10      212      213      220
     419     10      212      213      221
     420      9      212      213      222
     421     14      213      212      218
     422     14      213      212      219
     423      9      213      222      223
     424     16      213      222      227
     425     16      213      222      228
     426     21      214      209      215
     427     19      216      210      217
     428     19      218      212      219
     429     21      220      213      221
     430     16      220      213      222
     431     16      221      213      222
     432     15      222      223      224
     433     14      222      223      229
     434     14      222      223      230
     435     10      223      222      227
     436     10      223      222      228
     437     11      223      224      225
     438     20      224      223      229
     439     20      224      223      230
     440     15      224      225      226
     441     20      224      225      231
     442     20      224      225      232
     443     10      225      226      233
     444     10      225      226      234
     445      9      225      226      235
     446     14      226      225      231
     447     14      226      225      232
     448      9      226      235      236
     449     16      226      235      240
     450     16      226      235      241
     451     21      227      222      228
     452     19      229      223      230
     453     19      231      225      232
     454     21      233      226      234
     455     16      233      226      235
     456     16      234      226      235
     457     15      235      236      237
     458     14      235      236      242
     459     14      235      236      243
     460     10      236      235      240
     461     10      236      235      241
     462     11      236      237      238
     463     20      237      236      242
     464     20      237      236      243
     465     15      237      238      239
     466     20      237      238      244
     467     20      237      238      245
     468     10      238      239      246
     469     10      238      239      247
     470      9      238      239      248
     471     14      239      238      244
     472     14      239      238      245
     473      9      239      248      249
     474     16      239      248      253
     475     16      239      248      254
     476     21      240      235      241
     477     19      242      236      243
     478     19      244      238      245
     479     21      246      239      247
     480     16      246      239      248
     481     16      247      239      248
     482     15      248      249      250
     483     14      248      249      255
     484     14      248      249      256
     485     10      249      248      253
     486     10      249      248      254
     487     11      249      250      251
     488     20      250      249      255
     489     20      250      249      256
     490     15      250      251      252
     491     20      250      251      257
     492     20      250      251      258
     493     10      251      252      259
     494     10      251      252      260
     495      9      251      252      261
     496     14      252      251      257
     497     14      252      251      258
     498      9      252      261      262
     499     16      252      261      266
     500     16      252      261      267
     501     21      253      248      254
     502     19      255      249      256
     503     19      257      251      258
     504     21      259      252      260
     505     16      259      252      261
     506     16      260      252      261
     507     15      261      262      263
     508     14      261      262      268
     509     14      261      262      269
     510     10      262      261      266
     511     10      262      261      267
     512     11      262      263      264
     513     20      263      262      268
     514     20      263      262      269
     515     15      263      264      265
     516     20      263      264      270
     517     20      263      264      271
     518     10      264      265      272
     519     10      264      265      273
     520      9      264      265      274
     521     14      265      264      270
     522     14      265      264      271
     523      9      265      274      275
     524     16      265      274      279
     525     16      265      274      280
     526     21      266      261      267
     527     19      268      262      269
     528     19      270      264      271
     529     21      272      265      273
     530     16      272      265      274
     531     16      273      265      274
     532     15      274      275      276
     533     14      274      275      281
     534     14      274      275      282
     535     10      275      274      279
     536     10      275      274      280
     537     11      275      276      277
     538     20      276      275      281
     539     20      276      275      282
     540     15      276      277      278
     541     20      276      277      283
     542     20      276      277      284
     543     10      277      278      285
     544     10      277      278      286
     545      9      277      278      287
     546     14      278      277      283
     547     14      278      277      284
     548      9      278      287      288
     549     16      278      287      292
     550     16      278      287      293
     551     21      279      274      280
     552     19      281      275      282
     553     19      283      277      284
     554     21      285      278      286
     555     16      285      278      287
     556     16      286      278      287
     557     15      287      288      289
     558     14      287      288      294
     559     14      287      288      295
     560     10      288      287      292
     561     10      288      287      293
     562     11      288      289      290
     563     20      289      288      294
     564     20      289      288      295
     565     15      289      290      291
     566     20      289      290      296
     567     20      289      290      297
     568     10      290      291      298
     569     10      290      291      299
     570      9      290      291      300
     571     14      291      290      296
     572     14      291      290      297
     573      9      291      300      301
     574     16      291      300      305
     575     16      291      300      306
     576     21      292      287      293
     577     19      294      288      295
     578     19      296      290      297
     579     21      298      291      299
     580     16      298      291      300
     581     16      299      291      300
     582     15      300      301      302
     583     14      300      301      307
     584     14      300      301      308
     585     10      301      300      305
     586     10      301      300      306
     587     11      301      302      303
     588     20      302      301      307
     589     20      302      301      308
     590     15      302      303      304
     591     20      302      303      309
     592     20      302      303      310
     593     10      303      304      311
     594     10      303      304      312
     595      9      303      304      313
     596     14      304      303      309
     597     14      304      303      310
     598      9      304      313      314
     599     16      304      313      318
     600     16      304      313      319
     601     21      305      300      306
     602     19      307      301      308
     603     19      309      303      310
     604     21      311      304      312
     605     16      311      304      313
     606     16      312      304      313
     607     15      313      314      315
     608     14      313      314      320
     609     14      313      314      321
     610     10      314      313      318
     611     10      314      313      319
     612     11      314      315      316
     613     20      315      314      320
     614     20      315      314      321
     615     15      315      316      317
     616     20      315      316      322
     617     20      315      316      323
     618     10      316      317      324
     619     10      316      317      325
     620      9      316      317      326
     621     14      317      316      322
     622     14      317      316      323
     623      7      317      326      327
     624     16      317      326      338
     625     16      317      326      339
     626     21      318      313      319
     627     19      320      314      321
     628     19      322      316      323
     629     21      324      317      325
     630     16      324      317      326
     631     16      325      317      326
     632     13      326      327      328
     633     12      326      327      340
     634     12      326      327      341
     635      8      327      326      338
     636      8      327      326      339
     637      6      327      328      329
     638     18      328      327      340
     639     18      328      327      341
     640      4      328      329      330
     641      4      328      329      337
     642      1      329      330      331
     643      5      329      330      342
     644      1      329      337      336
     645      5      329      337      349
     646      3      330      329      337
     647      1      330      331      332
     648      2      330      331      343
     649      2      331      330      342
     650      4      331      332      333
     651      3      331      332      336
     652      5      332      331      343
     653      6      332      333      334
     654      1      332      336      337
     655      5      332      336      348
     656      4      333      332      336
     657     13      333      334      335
     658     18      333      334      344
     659     18      333      334      345
     660      8      334      335      346
     661      8      334      335      347
     662      7      334      335      350
     663     12      335      334      344
     664     12      335      334      345
     665      7      335      350      351
     666     16      335      350      362
     667     16      335      350      363
     668      2      336      337      349
     669      2      337      336      348
     670     21      338      326      339
     671     17      340      327      341
     672     17      344      334      345
     673     21      346      335      347
     674     16      346      335      350
     675     16      347      335      350
     676     13      350      351      352
     677     12      350      351      364
     678     12      350      351      365
     679      8      351      350      362
     680      8      351      350      363
     681      6      351      352      353
     682     18      352      351      364
     683     18      352      351      365
     684      4      352      353      354
     685      4      352      353      361
     686      1      353      354      355
     687      5      353      354      366
     688      1      353      361      360
     689      5      353      361      373
     690      3      354      353      361
     691      1      354      355      356
     692      2      354      355      367
     693      2      355      354      366
     694      4      355      356      357
     695      3      355      356      360
     696      5      356      355      367
     697      6      356      357      358
     698      1      356      360      361
     699      5      356      360      372
     700      4      357      356      360
     701     13      357      358      359
     702     18      357      358      368
     703     18      357      358      369
     704      8      358      359      370
     705      8      358      359      371
     706      7      358      359      374
     707     12      359      358      368
     708     12      359      358      369
     709      7      359      374      375
     710     16      359      374      386
     711     16      359      374      387
     712      2      360      361      373
     713      2      361      360      372
     714     21      362      350      363
     715     17      364      351      365
     716     17      368      358      369
     717     21      370      359      371
     718     16      370      359      374
     719     16      371      359      374
     720     13      374      375      376
     721     12      374      375      388
     722     12      374      375      389
     723      8      375      374      386
     724      8      375      374      387
     725      6      375      376      377
     726     18      376      375      388
     727     18      376      375      389
     728      4      376      377      378
     729      4      376      377      385
     730      1      377      378      379
     731      5      377      378      390
     732      1      377      385      384
     733      5      377      385      397
     734      3      378      377      385
     735      1      378      379      380
     736      2      378      379      391
     737      2      379      378      390
     738      4      379      380      381
     739      3      379      380      384
     740      5      380      379      391
     741      6      380      381      382
     742      1      380      384      385
     743      5      380      384      396
     744      4      381      380      384
     745     13      381      382      383
     746     18      381      382      392
     747     18      381      382      393
     748      8      382      383      394
     749      8      382      383      395
     750      7      382      383      398
     751     12      383      382      392
     752     12      383      382      393
     753      7      383      398      399
     754     16      383      398      410
     755     16      383      398      411
     756      2      384      385      397
     757      2      385      384      396
     758     21      386      374      387
     759     17      388      375      389
     760     17      392      382      393
     761     21      394      383      395
     762     16      394      383      398
     763     16      395      383      398
     764     13      398      399      400
     765     12      398      399      412
     766     12      398      399      413
     767      8      399      398      410
     768      8      399      398      411
     769      6      399      400      401
     770     18      400      399      412
     771     18      400      399      413
     772      4      400      401      402
     773      4      400      401      409
     774      1      401      402      403
     775      5      401      402      414
     776      1      401      409      408
     777      5      401      409      421
     778      3      402      401      409
     779      1      402      403      404
     780      2      402      403      415
     781      2      403      402      414
     782      4      403      404      405
     783      3      403      404      408
     784      5      404      403      415
     785      6      404      405      406
     786      1      404      408      409
     787      5      404      408      420
     788      4      405      404      408
     789     13      405      406      407
     790     18      405      406      416
     791     18      405      406      417
     792      8      406      407      418
     793      8      406      407      419
     794      7      406      407      422
     795     12      407      406      416
     796     12      407      406      417
     797      7      407      422      423
     798     16      407      422      434
     799     16      407      422      435
     800      2      408      409      421
     801      2      409      408      420
     802     21      410      398      411
     803     17      412      399      413
     804     17      416      406      417
     805     21      418      407      419
     806     16      418      407      422
     807     16      419      407      422
     808     13      422      423      424
     809     12      422      423      436
     810     12      422      423      437
     811      8      423      422      434
     812      8      423      422      435
     813      6      423      424      425
     814     18      424      423      436
     815     18      424      423      437
     816      4      424      425      426
     817      4      424      425      433
     818      1      425      426      427
     819      5      425      426      438
     820      1      425      433      432
     821      5      425      433      445
     822      3      426      425      433
     823      1      426      427      428
     824      2      426      427      439
     825      2      427      426      438
     826      4      427      428      429
     827      3      427      428      432
     828      5      428      427      439
     829      6      428      429      430
     830      1      428      432      433
     831      5      428      432      444
     832      4      429      428      432
     833     13      429      430      431
     834     18      429      430      440
     835     18      429      430      441
     836      8      430      431      442
     837      8      430      431      443
     838      7      430      431      446
     839     12      431      430      440
     840     12      431      430      441
     841      7      431      446      447
     842     16      431      446      458
     843     16      431      446      459
     844      2      432      433      445
     845      2      433      432      444
     846     21      434      422      435
     847     17      436      423      437
     848     17      440      430      441
     849     21      442      431      443
     850     16      442      431      446
     851     16      443      431      446
     852     13      446      447      448
     853     12      446      447      460
     854     12      446      447      461
     855      8      447      446      458
     856      8      447      446      459
     857      6      447      448      449
     858     18      448      447      460
     859     18      448      447      461
     860      4      448      449      450
     861      4      448      449      457
     862      1      449      450      451
     863      5      449      450      462
     864      1      449      457      456
     865      5      449      457      469
     866      3      450      449      457
     867      1      450      451      452
     868      2      450      451      463
     869      2      451      450      462
     870      4      451      452      453
     871      3      451      452      456
     872      5      452      451      463
     873      6      452      453      454
     874      1      452      456      457
     875      5      452      456      468
     876      4      453      452      456
     877     13      453      454      455
     878     18      453      454      464
     879     18      453      454      465
     880      8      454      455      466
     881      8      454      455      467
     882      7      454      455      470
     883     12      455      454      464
     884     12      455      454      465
     885      7      455      470      471
     886     16      455      470      482
     887     16      455      470      483
     888      2      456      457      469
     889      2      457      456      468
     890     21      458      446      459
     891     17      460      447      461
     892     17      464      454      465
     893     21      466      455      467
     894     16      466      455      470
     895     16      467      455      470
     896     13      470      471      472
     897     12      470      471      484
     898     12      470      471      485
     899      8      471      470      482
     900      8      471      470      483
     901      6      471      472      473
     902     18      472      471      484
     903     18      472      471      485
     904      4      472      473      474
     905      4      472      473      481
     906      1      473      474      475
     907      5      473      474      486
     908      1      473      481      480
     909      5      473      481      493
     910      3      474      473      481
     911      1      474      475      476
     912      2      474      475      487
     913      2      475      474      486
     914      4      475      476      477
     915      3      475      476      480
     916      5      476      475      487
     917      6      476      477      478
     918      1      476      480      481
     919      5      476      480      492
     920      4      477      476      480
     921     13      477      478      479
     922     18      477      478      488
     923     18      477      478      489
     924      8      478      479      490
     925      8      478      479      491
     926      7      478      479      494
     927     12      479      478      488
     928     12      479      478      489
     929      7      479      494      495
     930     16      479      494      506
     931     16      479      494      507
     932      2      480      481      493
     933      2      481      480      492
     934     21      482      470      483
     935     17      484      471      485
     936     17      488      478      489
     937     21      490      479      491
     938     16      490      479      494
     939     16      491      479      494
     940     13      494      495      496
     941     12      494      495      508
     942     12      494      495      509
     943      8      495      494      506
     944      8      495      494      507
     945      6      495      496      497
     946     18      496      495      508
     947     18      496      495      509
     948      4      496      497      498
     949      4      496      497      505
     950      1      497      498      499
     951      5      497      498      510
     952      1      497      505      504
     953      5      497      505      517
     954      3      498      497      505
     955      1      498      499      500
     956      2      498      499      511
     957      2      499      498      510
     958      4      499      500      501
     959      3      499      500      504
     960      5      500      499      511
     961      6      500      501      502
     962      1      500      504      505
     963      5      500      504      516
     964      4      501      500      504
     965     13      501      502      503
     966     18      501      502      512
     967     18      501      502      513
     968      8      502      503      514
     969      8      502      503      515
     970      7      502      503      518
     971     12      503      502      512
     972     12      503      502      513
     973      7      503      518      519
     974     16      503      518      530
     975     16      503      518      531
     976      2      504      505      517
     977      2      505      504      516
     978     21      506      494      507
     979     17      508      495      509
     980     17      512      502      513
     981     21      514      503      515
     982     16      514      503      518
     983     16      515      503      518
     984     13      518      519      520
     985     12      518      519      532
     986     12      518      519      533
     987      8      519      518      530
     988      8      519      518      531
     989      6      519      520      521
     990     18      520      519      532
     991     18      520      519      533
     992      4      520      521      522
     993      4      520      521      529
     994      1      521      522      523
     995      5      521      522      534
     996      1      521      529      528
     997      5      521      529      541
     998      3      522      521      529
     999      1      522      523      524
    1000      2      522      523      535
    1001      2      523      522      534
    1002      4      523      524      525
    1003      3      523      524      528
    1004      5      524      523      535
    1005      6      524      525      526
    1006      1      524      528      529
    1007      5      524      528      540
    1008      4      525      524      528
    1009     13      525      526      527
    1010     18      525      526      536
    1011     18      525      526      537
    1012      8      526      527      538
    1013      8      526      527      539
    1014      7      526      527      542
    1015     12      527      526      536
    1016     12      527      526      537
    1017      7      527      542      543
    1018     16      527      542      554
    1019     16      527      542      555
    1020      2      528      529      541
    1021      2      529      528      540
    1022     21      530      518      531
    1023     17      532      519      533
    1024     17      536      526      537
    1025     21      538      527      539
    1026     16      538      527      542
    1027     16      539      527      542
    1028     13      542      543      544
    1029     12      542      543      556
    1030     12      542      543      557
    1031      8      543      542      554
    1032      8      543      542      555
    1033      6      543      544      545
    1034     18      544      543      556
    1035     18      544      543      557
    1036      4      544      545      546
    1037      4      544      545      553
    1038      1      545      546      547
    1039      5      545      546      558
    1040      1      545      553      552
    1041      5      545      553      565
    1042      3      546      545      553
    1043      1      546      547      548
    1044      2      546      547      559
    1045      2      547      546      558
    1046      4      547      548      549
    1047      3      547      548      552
    1048      5      548      547      559
    1049      6      548      549      550
    1050      1      548      552      553
    1051      5      548      552      564
    1052      4      549      548      552
    1053     13      549      550      551
    1054     18      549      550      560
    1055     18      549      550      561
    1056      8      550      551      562
    1057      8      550      551      563
    1058      7      550      551      566
    1059     12      551      550      560
    1060     12      551      550      561
    1061      7      551      566      567
    1062     16      551      566      578
    1063     16      551      566      579
    1064      2      552      553      565
    1065      2      553      552      564
    1066     21      554      542      555
    1067     17      556      543      557
    1068     17      560      550      561
    1069     21      562      551      563
    1070     16      562      551      566
    1071     16      563      551      566
    1072     13      566      567      568
    1073     12      566      567      580
    1074     12      566      567      581
    1075      8      567      566      578
    1076      8      567      566      579
    1077      6      567      568      569
    1078     18      568      567      580
    1079     18      568      567      581
    1080      4      568      569      570
    1081      4      568      569      577
    1082      1      569      570      571
    1083      5      569      570      582
    1084      1      569      577      576
    1085      5      569      577      589
    1086      3      570      569      577
    1087      1      570      571      572
    1088      2      570      571      583
    1089      2      571      570      582
    1090      4      571      572      573
    1091      3      571      572      576
    1092      5      572      571      583
    1093      6      572      573      574
    1094      1      572      576      577
    1095      5      572      576      588
    1096      4      573      572      576
    1097     13      573      574      575
    1098     18      573      574      584
    1099     18      573      574      585
    1100      8      574      575      586
    1101      8      574      575      587
    1102      7      574      575      590
    1103     12      575      574      584
    1104     12      575      574      585
    1105      7      575      590      591
    1106     16      575      590      602
    1107     16      575      590      603
    1108      2      576      577      589
    1109      2      577      576      588
    1110     21      578      566      579
    1111     17      580      567      581
    1112     17      584      574      585
    1113     21      586      575      587
    1114     16      586      575      590
    1115     16      587      575      590
    1116     13      590      591      592
    1117     12      590      591      604
    1118     12      590      591      605
    1119      8      591      590      602
    1120      8      591      590      603
    1121      6      591      592      593
    1122     18      592      591      604
    1123     18      592      591      605
    1124      4      592      593      594
    1125      4      592      593      601
    1126      1      593      594      595
    1127      5      593      594      606
    1128      1      593      601      600
    1129      5      593      601      613
    1130      3      594      593      601
    1131      1      594      595      596
    1132      2      594      595      607
    1133      2      595      594      606
    1134      4      595      596      597
    1135      3      595      596      600
    1136      5      596      595      607
    1137      6      596      597      598
    1138      1      596      600      601
    1139      5      596      600      612
    1140      4      597      596      600
    1141     13      597      598      599
    1142     18      597      598      608
    1143     18      597      598      609
    1144      8      598      599      610
    1145      8      598      599      611
    1146      7      598      599      614
    1147     12      599      598      608
    1148     12      599      598      609
    1149      7      599      614      615
    1150     16      599      614      626
    1151     16      599      614      627
    1152      2      600      601      613
    1153      2      601      600      612
    1154     21      602      590      603
    1155     17      604      591      605
    1156     17      608      598      609
    1157     21      610      599      611
    1158     16      610      599      614
    1159     16      611      599      614
    1160     13      614      615      616
    1161     12      614      615      628
    1162     12      614      615      629
    1163      8      615      614      626
    1164      8      615      614      627
    1165      6      615      616      617
    1166     18      616      615      628
    1167     18      616      615      629
    1168      4      616      617      618
    1169      4      616      617      625
    1170      1      617      618      619
    1171      5      617      618      630
    1172      1      617      625      624
    1173      5      617      625      637
    1174      3      618      617      625
    1175      1      618      619      620
    1176      2      618      619      631
    1177      2      619      618      630
    1178      4      619      620      621
    1179      3      619      620      624
    1180      5      620      619      631
    1181      6      620      621      622
    1182      1      620      624      625
    1183      5      620      624      636
    1184      4      621      620      624
    1185     13      621      622      623
    1186     18      621      622      632
    1187     18      621      622      633
    1188      8      622      623      634
    1189      8      622      623      635
    1190      7      622      623      638
    1191     12      623      622      632
    1192     12      623      622      633
    1193      7      623      638      639
    1194     16      623      638      650
    1195     16      623      638      651
    1196      2      624      625      637
    1197      2      625      624      636
    1198     21      626      614      627
    1199     17      628      615      629
    1200     17      632      622      633
    1201     21      634      623      635
    1202     16      634      623      638
    1203     16      635      623      638
    1204     13      638      639      640
    1205     12      638      639      652
    1206     12      638      639      653
    1207      8      639      638      650
    1208      8      639      638      651
    1209      6      639      640      641
    1210     18      640      639      652
    1211     18      640      639      653
    1212      4      640      641      642
    1213      4      640      641      649
    1214      1      641      642      643
    1215      5      641      642      654
    1216      1      641      649      648
    1217      5      641      649      661
    1218      3      642      641      649
    1219      1      642      643      644
    1220      2      642      643      655
    1221      2      643      642      654
    1222      4      643      644      645
    1223      3      643      644      648
    1224      5      644      643      655
    1225      6      644      645      646
    1226      1      644      648      649
    1227      5      644      648      660
    1228      4      645      644      648
    1229     13      645      646      647
    1230     18      645      646      656
    1231     18      645      646      657
    1232      8      646      647      658
    1233      8      646      647      659
    1234      7      646      647      662
    1235     12      647      646      656
    1236     12      647      646      657
    1237      7      647      662      663
    1238     16      647      662      674
    1239     16      647      662      675
    1240      2      648      649      661
    1241      2      649      648      660
    1242     21      650      638      651
    1243     17      652      639      653
    1244     17      656      646      657
    1245     21      658      647      659
    1246     16      658      647      662
    1247     16      659      647      662
    1248     13      662      663      664
    1249     12      662      663      676
    1250     12      662      663      677
    1251      8      663      662      674
    1252      8      663      662      675
    1253      6      663      664      665
    1254     18      664      663      676
    1255     18      664      663      677
    1256      4      664      665      666
    1257      4      664      665      673
    1258      1      665      666      667
    1259      5      665      666      678
    1260      1      665      673      672
    1261      5      665      673      685
    1262      3      666      665      673
    1263      1      666      667      668
    1264      2      666      667      679
    1265      2      667      666      678
    1266      4      667      668      669
    1267      3      667      668      672
    1268      5      668      667      679
    1269      6      668      669      670
    1270      1      668      672      673
    1271      5      668      672      684
    1272      4      669      668      672
    1273     13      669      670      671
    1274     18      669      670      680
    1275     18      669      670      681
    1276      8      670      671      682
    1277      8      670      671      683
    1278      7      670      671      686
    1279     12      671      670      680
    1280     12      671      670      681
    1281      7      671      686      687
    1282     16      671      686      698
    1283     16      671      686      699
    1284      2      672      673      685
    1285      2      673      672      684
    1286     21      674      662      675
    1287     17      676      663      677
    1288     17      680      670      681
    1289     21      682      671      683
    1290     16      682      671      686
    1291     16      683      671      686
    1292     13      686      687      688
    1293     12      686      687      700
    1294     12      686      687      701
    1295      8      687      686      698
    1296      8      687      686      699
    1297      6      687      688      689
    1298     18      688      687      700
    1299     18      688      687      701
    1300      4      688      689      690
    1301      4      688      689      697
    1302      1      689      690      691
    1303      5      689      690      702
    1304      1      689      697      696
    1305      5      689      697      709
    1306      3      690      689      697
    1307      1      690      691      692
    1308      2      690      691      703
    1309      2      691      690      702
    1310      4      691      692      693
    1311      3      691      692      696
    1312      5      692      691      703
    1313      6      692      693      694
    1314      1      692      696      697
    1315      5      692      696      708
    1316      4      693      692      696
    1317     13      693      694      695
    1318     18      693      694      704
    1319     18      693      694      705
    1320      8      694      695      706
    1321      8      694      695      707
    1322      7      694      695      710
    1323     12      695      694      704
    1324     12      695      694      705
    1325      7      695      710      711
    1326     16      695      710      722
    1327     16      695      710      723
    1328      2      696      697      709
    1329      2      697      696      708
    1330     21      698      686      699
    1331     17      700      687      701
    1332     17      704      694      705
    1333     21      706      695      707
    1334     16      706      695      710
    1335     16      707      695      710
    1336     13      710      711      712
    1337     12      710      711      724
    1338     12      710      711      725
    1339      8      711      710      722
    1340      8      711      710      723
    1341      6      711      712      713
    1342     18      712      711      724
    1343     18      712      711      725
    1344      4      712      713      714
    1345      4      712      713      721
    1346      1      713      714      715
    1347      5      713      714      726
    1348      1      713      721      720
    1349      5      713      721      733
    1350      3      714      713      721
    1351      1      714      715      716
    1352      2      714      715      727
    1353      2      715      714      726
    1354      4      715      716      717
    1355      3      715      716      720
    1356      5      716      715      727
    1357      6      716      717      718
    1358      1      716      720      721
    1359      5      716      720      732
    1360      4      717      716      720
    1361     13      717      718      719
    1362     18      717      718      728
    1363     18      717      718      729
    1364      8      718      719      730
    1365      8      718      719      731
    1366      7      718      719      734
    1367     12      719      718      728
    1368     12      719      718      729
    1369      7      719      734      735
    1370     16      719      734      746
    1371     16      719      734      747
    1372      2      720      721      733
    1373      2      721      720      732
    1374     21      722      710      723
    1375     17      724      711      725
    1376     17      728      718      729
    1377     21      730      719      731
    1378     16      730      719      734
    1379     16      731      719      734
    1380     13      734      735      736
    1381     12      734      735      748
    1382     12      734      735      749
    1383      8      735      734      746
    1384      8      735      734      747
    1385      6      735      736      737
    1386     18      736      735      748
    1387     18      736      735      749
    1388      4      736      737      738
    1389      4      736      737      745
    1390      1      737      738      739
    1391      5      737      738      750
    1392      1      737      745      744
    1393      5      737      745      757
    1394      3      738      737      745
    1395      1      738      739      740
    1396      2      738      739      751
    1397      2      739      738      750
    1398      4      739      740      741
    1399      3      739      740      744
    1400      5      740      739      751
    1401      6      740      741      742
    1402      1      740      744      745
    1403      5      740      744      756
    1404      4      741      740      744
    1405     13      741      742      743
    1406     18      741      742      752
    1407     18      741      742      753
    1408      8      742      743      754
    1409      8      742      743      755
    1410      7      742      743      758
    1411     12      743      742      752
    1412     12      743      742      753
    1413      7      743      758      759
    1414     16      743      758      770
    1415     16      743      758      771
    1416      2      744      745      757
    1417      2      745      744      756
    1418     21      746      734      747
    1419     17      748      735      749
    1420     17      752      742      753
    1421     21      754      743      755
    1422     16      754      743      758
    1423     16      755      743      758
    1424     13      758      759      760
    1425     12      758      759      772
    1426     12      758      759      773
    1427      8      759      758      770
    1428      8      759      758      771
    1429      6      759      760      761
    1430     18      760      759      772
    1431     18      760      759      773
    1432      4      760      761      762
    1433      4      760      761      769
    1434      1      761      762      763
    1435      5      761      762      774
    1436      1      761      769      768
    1437      5      761      769      781
    1438      3      762      761      769
    1439      1      762      763      764
    1440      2      762      763      775
    1441      2      763      762      774
    1442      4      763      764      765
    1443      3      763      764      768
    1444      5      764      763      775
    1445      6      764      765      766
    1446      1      764      768      769
    1447      5      764      768      780
    1448      4      765      764      768
    1449     13      765      766      767
    1450     18      765      766      776
    1451     18      765      766      777
    1452      8      766      767      778
    1453      8      766      767      779
    1454      7      766      767      782
    1455     12      767      766      776
    1456     12      767      766      777
    1457      7      767      782      783
    1458     16      767      782      794
    1459     16      767      782      795
    1460      2      768      769      781
    1461      2      769      768      780
    1462     21      770      758      771
    1463     17      772      759      773
    1464     17      776      766      777
    1465     21      778      767      779
    1466     16      778      767      782
    1467     16      779      767      782
    1468     13      782      783      784
    1469     12      782      783      796
    1470     12      782      783      797
    1471      8      783      782      794
    1472      8      783      782      795
    1473      6      783      784      785
    1474     18      784      783      796
    1475     18      784      783      797
    1476      4      784      785      786
    1477      4      784      785      793
    1478      1      785      786      787
    1479      5      785      786      798
    1480      1      785      793      792
    1481      5      785      793      805
    1482      3      786      785      793
    1483      1      786      787      788
    1484      2      786      787      799
    1485      2      787      786      798
    1486      4      787      788      789
    1487      3      787      788      792
    1488      5      788      787      799
    1489      6      788      789      790
    1490      1      788      792      793
    1491      5      788      792      804
    1492      4      789      788      792
    1493     13      789      790      791
    1494     18      789      790      800
    1495     18      789      790      801
    1496      8      790      791      802
    1497      8      790      791      803
    1498      7      790      791      806
    1499     12      791      790      800
    1500     12      791      790      801
    1501      7      791      806      807
    1502     16      791      806      818
    1503     16      791      806      819
    1504      2      792      793      805
    1505      2      793      792      804
    1506     21      794      782      795
    1507     17      796      783      797
    1508     17      800      790      801
    1509     21      802      791      803
    1510     16      802      791      806
    1511     16      803      791      806
    1512     13      806      807      808
    1513     12      806      807      820
    1514     12      806      807      821
    1515      8      807      806      818
    1516      8      807      806      819
    1517      6      807      808      809
    1518     18      808      807      820
    1519     18      808      807      821
    1520      4      808      809      810
    1521      4      808      809      817
    1522      1      809      810      811
    1523      5      809      810      822
    1524      1      809      817      816
    1525      5      809      817      829
    1526      3      810      809      817
    1527      1      810      811      812
    1528      2      810      811      823
    1529      2      811      810      822
    1530      4      811      812      813
    1531      3      811      812      816
    1532      5      812      811      823
    1533      6      812      813      814
    1534      1      812      816      817
    1535      5      812      816      828
    1536      4      813      812      816
    1537     13      813      814      815
    1538     18      813      814      824
    1539     18      813      814      825
    1540      8      814      815      826
    1541      8      814      815      827
    1542      7      814      815      830
    1543     12      815      814      824
    1544     12      815      814      825
    1545      7      815      830      831
    1546     16      815      830      842
    1547     16      815      830      843
    1548      2      816      817      829
    1549      2      817      816      828
    1550     21      818      806      819
    1551     17      820      807      821
    1552     17      824      814      825
    1553     21      826      815      827
    1554     16      826      815      830
    1555     16      827      815      830
    1556     13      830      831      832
    1557     12      830      831      844
    1558     12      830      831      845
    1559      8      831      830      842
    1560      8      831      830      843
    1561      6      831      832      833
    1562     18      832      831      844
    1563     18      832      831      845
    1564      4      832      833      834
    1565      4      832      833      841
    1566      1      833      834      835
    1567      5      833      834      846
    1568      1      833      841      840
    1569      5      833      841      853
    1570      3      834      833      841
    1571      1      834      835      836
    1572      2      834      835      847
    1573      2      835      834      846
    1574      4      835      836      837
    1575      3      835      836      840
    1576      5      836      835      847
    1577      6      836      837      838
    1578      1      836      840      841
    1579      5      836      840      852
    1580      4      837      836      840
    1581     13      837      838      839
    1582     18      837      838      848
    1583     18      837      838      849
    1584      8      838      839      850
    1585      8      838      839      851
    1586      7      838      839      854
    1587     12      839      838      848
    1588     12      839      838      849
    1589      7      839      854      855
    1590     16      839      854      866
    1591     16      839      854      867
    1592      2      840      841      853
    1593      2      841      840      852
    1594     21      842      830      843
    1595     17      844      831      845
    1596     17      848      838      849
    1597     21      850      839      851
    1598     16      850      839      854
    1599     16      851      839      854
    1600     13      854      855      856
    1601     12      854      855      868
    1602     12      854      855      869
    1603      8      855      854      866
    1604      8      855      854      867
    1605      6      855      856      857
    1606     18      856      855      868
    1607     18      856      855      869
    1608      4      856      857      858
    1609      4      856      857      865
    1610      1      857      858      859
    1611      5      857      858      870
    1612      1      857      865      864
    1613      5      857      865      877
    1614      3      858      857      865
    1615      1      858      859      860
    1616      2      858      859      871
    1617      2      859      858      870
    1618      4      859      860      861
    1619      3      859      860      864
    1620      5      860      859      871
    1621      6      860      861      862
    1622      1      860      864      865
    1623      5      860      864      876
    1624      4      861      860      864
    1625     13      861      862      863
    1626     18      861      862      872
    1627     18      861      862      873
    1628      8      862      863      874
    1629      8      862      863      875
    1630      7      862      863      878
    1631     12      863      862      872
    1632     12      863      862      873
    1633      7      863      878      879
    1634     16      863      878      890
    1635     16      863      878      891
    1636      2      864      865      877
    1637      2      865      864      876
    1638     21      866      854      867
    1639     17      868      855      869
    1640     17      872      862      873
    1641     21      874      863      875
    1642     16      874      863      878
    1643     16      875      863      878
    1644     13      878      879      880
    1645     12      878      879      892
    1646     12      878      879      893
    1647      8      879      878      890
    1648      8      879      878      891
    1649      6      879      880      881
    1650     18      880      879      892
    1651     18      880      879      893
    1652      4      880      881      882
    1653      4      880      881      889
    1654      1      881      882      883
    1655      5      881      882      894
    1656      1      881      889      888
    1657      5      881      889      901
    1658      3      882      881      889
    1659      1      882      883      884
    1660      2      882      883      895
    1661      2      883      882      894
    1662      4      883      884      885
    1663      3      883      884      888
    1664      5      884      883      895
    1665      6      884      885      886
    1666      1      884      888      889
    1667      5      884      888      900
    1668      4      885      884      888
    1669     13      885      886      887
    1670     18      885      886      896
    1671     18      885      886      897
    1672      8      886      887      898
    1673      8      886      887      899
    1674      7      886      887      902
    1675     12      887      886      896
    1676     12      887      886      897
    1677      7      887      902      903
    1678     16      887      902      914
    1679     16      887      902      915
    1680      2      888      889      901
    1681      2      889      888      900
    1682     21      890      878      891
    1683     17      892      879      893
    1684     17      896      886      897
    1685     21      898      887      899
    1686     16      898      887      902
    1687     16      899      887      902
    1688     13      902      903      904
    1689     12      902      903      916
    1690     12      902      903      917
    1691      8      903      902      914
    1692      8      903      902      915
    1693      6      903      904      905
    1694     18      904      903      916
    1695     18      904      903      917
    1696      4      904      905      906
    1697      4      904      905      913
    1698      1      905      906      907
    1699      5      905      906      918
    1700      1      905      913      912
    1701      5      905      913      925
    1702      3      906      905      913
    1703      1      906      907      908
    1704      2      906      907      919
    1705      2      907      906      918
    1706      4      907      908      909
    1707      3      907      908      912
    1708      5      908      907      919
    1709      6      908      909      910
    1710      1      908      912      913
    1711      5      908      912      924
    1712      4      909      908      912
    1713     13      909      910      911
    1714     18      909      910      920
    1715     18      909      910      921
    1716      8      910      911      922
    1717      8      910      911      923
    1718      7      910      911      935
    1719     12      911      910      920
    1720     12      911      910      921
    1721      7      911      935      934
    1722     16      911      935      946
    1723     16      911      935      947
    1724      2      912      913      925
    1725      2      913      912      924
    1726     21      914      902      915
    1727     17      916      903      917
    1728     17      920      910      921
    1729     21      922      911      923
    1730     16      922      911      935
    1731     16      923      911      935
    1732     13      926      927      928
    1733     12      926      927      940
    1734     12      926      927      941
    1735      8      927      926      938
    1736      8      927      926      939
    1737      6      927      928      929
    1738     18      928      927      940
    1739     18      928      927      941
    1740      4      928      929      930
    1741      4      928      929      937
    1742      1      929      930      931
    1743      5      929      930      942
    1744      1      929      937      936
    1745      5      929      937      949
    1746      3      930      929      937
    1747      1      930      931      932
    1748      2      930      931      943
    1749      2      931      930      942
    1750      4      931      932      933
    1751      3      931      932      936
    1752      5      932      931      943
    1753      6      932      933      934
    1754      1      932      936      937
    1755      5      932      936      948
    1756      4      933      932      936
    1757     13      933      934      935
    1758     18      933      934      944
    1759     18      933      934      945
    1760      8      934      935      946
    1761      8      934      935      947
    1762     12      935      934      944
    1763     12      935      934      945
    1764      2      936      937      949
    1765      2      937      936      948
    1766     21      938      926      939
    1767     17      940      927      941
    1768     17      944      934      945
    1769     21      946      935      947

Dihedrals

       1     14        1        2        3        4
       2     19        1       14       15       16
       3     18        1       14       15       21
       4     18        1       14       15       22
       5     12        2        1       14       15
       6     13        2        1       14       19
       7     13        2        1       14       20
       8     14        2        3        4        5
       9     15        2        3        4       10
      10     15        2        3        4       11
      11     25        3        2        1        6
      12     25        3        2        1        7
      13     19        3        2        1       14
      14     25        3        4        5       12
      15     25        3        4        5       13
      16     19        3        4        5      926
      17     15        4        3        2        8
      18     15        4        3        2        9
      19     10        4        5      926      927
      20     13        4        5      926      938
      21     13        4        5      926      939
      22     17        5      926      927      928
      23     16        5      926      927      940
      24     16        5      926      927      941
      25     23        6        1        2        8
      26     23        6        1        2        9
      27     13        6        1       14       15
      28     26        6        1       14       19
      29     26        6        1       14       20
      30     23        7        1        2        8
      31     23        7        1        2        9
      32     13        7        1       14       15
      33     26        7        1       14       19
      34     26        7        1       14       20
      35     18        8        2        1       14
      36     18        9        2        1       14
      37     23       10        4        5       12
      38     23       10        4        5       13
      39     18       10        4        5      926
      40     23       11        4        5       12
      41     23       11        4        5       13
      42     18       11        4        5      926
      43     11       12        5      926      927
      44     26       12        5      926      938
      45     26       12        5      926      939
      46     11       13        5      926      927
      47     26       13        5      926      938
      48     26       13        5      926      939
      49     14       14       15       16       17
      50     14       15       16       17       18
      51     15       15       16       17       23
      52     15       15       16       17       24
      53     25       16       15       14       19
      54     25       16       15       14       20
      55     25       16       17       18       25
      56     25       16       17       18       26
      57     19       16       17       18       27
      58     15       17       16       15       21
      59     15       17       16       15       22
      60     12       17       18       27       28
      61     13       17       18       27       32
      62     13       17       18       27       33
      63     19       18       27       28       29
      64     18       18       27       28       34
      65     18       18       27       28       35
      66     23       19       14       15       21
      67     23       19       14       15       22
      68     23       20       14       15       21
      69     23       20       14       15       22
      70     23       23       17       18       25
      71     23       23       17       18       26
      72     18       23       17       18       27
      73     23       24       17       18       25
      74     23       24       17       18       26
      75     18       24       17       18       27
      76     13       25       18       27       28
      77     26       25       18       27       32
      78     26       25       18       27       33
      79     13       26       18       27       28
      80     26       26       18       27       32
      81     26       26       18       27       33
      82     14       27       28       29       30
      83     14       28       29       30       31
      84     15       28       29       30       36
      85     15       28       29       30       37
      86     25       29       28       27       32
      87     25       29       28       27       33
      88     25       29       30       31       38
      89     25       29       30       31       39
      90     19       29       30       31       40
      91     15       30       29       28       34
      92     15       30       29       28       35
      93     12       30       31       40       41
      94     13       30       31       40       45
      95     13       30       31       40       46
      96     19       31       40       41       42
      97     18       31       40       41       47
      98     18       31       40       41       48
      99     23       32       27       28       34
     100     23       32       27       28       35
     101     23       33       27       28       34
     102     23       33       27       28       35
     103     23       36       30       31       38
     104     23       36       30       31       39
     105     18       36       30       31       40
     106     23       37       30       31       38
     107     23       37       30       31       39
     108     18       37       30       31       40
     109     13       38       31       40       41
     110     26       38       31       40       45
     111     26       38       31       40       46
     112     13       39       31       40       41
     113     26       39       31       40       45
     114     26       39       31       40       46
     115     14       40       41       42       43
     116     14       41       42       43       44
     117     15       41       42       43       49
     118     15       41       42       43       50
     119     25       42       41       40       45
     120     25       42       41       40       46
     121     25       42       43       44       51
     122     25       42       43       44       52
     123     19       42       43       44       53
     124     15       43       42       41       47
     125     15       43       42       41       48
     126     12       43       44       53       54
     127     13       43       44       53       58
     128     13       43       44       53       59
     129     19       44       53       54       55
     130     18       44       53       54       60
     131     18       44       53       54       61
     132     23       45       40       41       47
     133     23       45       40       41       48
     134     23       46       40       41       47
     135     23       46       40       41       48
     136     23       49       43       44       51
     137     23       49       43       44       52
     138     18       49       43       44       53
     139     23       50       43       44       51
     140     23       50       43       44       52
     141     18       50       43       44       53
     142     13       51       44       53       54
     143     26       51       44       53       58
     144     26       51       44       53       59
     145     13       52       44       53       54
     146     26       52       44       53       58
     147     26       52       44       53       59
     148     14       53       54       55       56
     149     14       54       55       56       57
     150     15       54       55       56       62
     151     15       54       55       56       63
     152     25       55       54       53       58
     153     25       55       54       53       59
     154     25       55       56       57       64
     155     25       55       56       57       65
     156     19       55       56       57       66
     157     15       56       55       54       60
     158     15       56       55       54       61
     159     12       56       57       66       67
     160     13       56       57       66       71
     161     13       56       57       66       72
     162     19       57       66       67       68
     163     18       57       66       67       73
     164     18       57       66       67       74
     165     23       58       53       54       60
     166     23       58       53       54       61
     167     23       59       53       54       60
     168     23       59       53       54       61
     169     23       62       56       57       64
     170     23       62       56       57       65
     171     18       62       56       57       66
     172     23       63       56       57       64
     173     23       63       56       57       65
     174     18       63       56       57       66
     175     13       64       57       66       67
     176     26       64       57       66       71
     177     26       64       57       66       72
     178     13       65       57       66       67
     179     26       65       57       66       71
     180     26       65       57       66       72
     181     14       66       67       68       69
     182     14       67       68       69       70
     183     15       67       68       69       75
     184     15       67       68       69       76
     185     25       68       67       66       71
     186     25       68       67       66       72
     187     25       68       69       70       77
     188     25       68       69       70       78
     189     19       68       69       70       79
     190     15       69       68       67       73
     191     15       69       68       67       74
     192     12       69       70       79       80
     193     13       69       70       79       84
     194     13       69       70       79       85
     195     19       70       79       80       81
     196     18       70       79       80       86
     197     18       70       79       80       87
     198     23       71       66       67       73
     199     23       71       66       67       74
     200     23       72       66       67       73
     201     23       72       66       67       74
     202     23       75       69       70       77
     203     23       75       69       70       78
     204     18       75       69       70       79
     205     23       76       69       70       77
     206     23       76       69       70       78
     207     18       76       69       70       79
     208     13       77       70       79       80
     209     26       77       70       79       84
     210     26       77       70       79       85
     211     13       78       70       79       80
     212     26       78       70       79       84
     213     26       78       70       79       85
     214     14       79       80       81       82
     215     14       80       81       82       83
     216     15       80       81       82       88
     217     15       80       81       82       89
     218     25       81       80       79       84
     219     25       81       80       79       85
     220     25       81       82       83       90
     221     25       81       82       83       91
     222     19       81       82       83       92
     223     15       82       81       80       86
     224     15       82       81       80       87
     225     12       82       83       92       93
     226     13       82       83       92       97
     227     13       82       83       92       98
     228     19       83       92       93       94
     229     18       83       92       93       99
     230     18       83       92       93      100
     231     23       84       79       80       86
     232     23       84       79       80       87
     233     23       85       79       80       86
     234     23       85       79       80       87
     235     23       88       82       83       90
     236     23       88       82       83       91
     237     18       88       82       83       92
     238     23       89       82       83       90
     239     23       89       82       83       91
     240     18       89       82       83       92
     241     13       90       83       92       93
     242     26       90       83       92       97
     243     26       90       83       92       98
     244     13       91       83       92       93
     245     26       91       83       92       97
     246     26       91       83       92       98
     247     14       92       93       94       95
     248     14       93       94       95       96
     249     15       93       94       95      101
     250     15       93       94       95      102
     251     25       94       93       92       97
     252     25       94       93       92       98
     253     25       94       95       96      103
     254     25       94       95       96      104
     255     19       94       95       96      105
     256     15       95       94       93       99
     257     15       95       94       93      100
     258     12       95       96      105      106
     259     13       95       96      105      110
     260     13       95       96      105      111
     261     19       96      105      106      107
     262     18       96      105      106      112
     263     18       96      105      106      113
     264     23       97       92       93       99
     265     23       97       92       93      100
     266     23       98       92       93       99
     267     23       98       92       93      100
     268     23      101       95       96      103
     269     23      101       95       96      104
     270     18      101       95       96      105
     271     23      102       95       96      103
     272     23      102       95       96      104
     273     18      102       95       96      105
     274     13      103       96      105      106
     275     26      103       96      105      110
     276     26      103       96      105      111
     277     13      104       96      105      106
     278     26      104       96      105      110
     279     26      104       96      105      111
     280     14      105      106      107      108
     281     14      106      107      108      109
     282     15      106      107      108      114
     283     15      106      107      108      115
     284     25      107      106      105      110
     285     25      107      106      105      111
     286     25      107      108      109      116
     287     25      107      108      109      117
     288     19      107      108      109      118
     289     15      108      107      106      112
     290     15      108      107      106      113
     291     12      108      109      118      119
     292     13      108      109      118      123
     293     13      108      109      118      124
     294     19      109      118      119      120
     295     18      109      118      119      125
     296     18      109      118      119      126
     297     23      110      105      106      112
     298     23      110      105      106      113
     299     23      111      105      106      112
     300     23      111      105      106      113
     301     23      114      108      109      116
     302     23      114      108      109      117
     303     18      114      108      109      118
     304     23      115      108      109      116
     305     23      115      108      109      117
     306     18      115      108      109      118
     307     13      116      109      118      119
     308     26      116      109      118      123
     309     26      116      109      118      124
     310     13      117      109      118      119
     311     26      117      109      118      123
     312     26      117      109      118      124
     313     14      118      119      120      121
     314     14      119      120      121      122
     315     15      119      120      121      127
     316     15      119      120      121      128
     317     25      120      119      118      123
     318     25      120      119      118      124
     319     25      120      121      122      129
     320     25      120      121      122      130
     321     19      120      121      122      131
     322     15      121      120      119      125
     323     15      121      120      119      126
     324     12      121      122      131      132
     325     13      121      122      131      136
     326     13      121      122      131      137
     327     19      122      131      132      133
     328     18      122      131      132      138
     329     18      122      131      132      139
     330     23      123      118      119      125
     331     23      123      118      119      126
     332     23      124      118      119      125
     333     23      124      118      119      126
     334     23      127      121      122      129
     335     23      127      121      122      130
     336     18      127      121      122      131
     337     23      128      121      122      129
     338     23      128      121      122      130
     339     18      128      121      122      131
     340     13      129      122      131      132
     341     26      129      122      131      136
     342     26      129      122      131      137
     343     13      130      122      131      132
     344     26      130      122      131      136
     345     26      130      122      131      137
     346     14      131      132      133      134
     347     14      132      133      134      135
     348     15      132      133      134      140
     349     15      132      133      134      141
     350     25      133      132      131      136
     351     25      133      132      131      137
     352     25      133      134      135      142
     353     25      133      134      135      143
     354     19      133      134      135      144
     355     15      134      133      132      138
     356     15      134      133      132      139
     357     12      134      135      144      145
     358     13      134      135      144      149
     359     13      134      135      144      150
     360     19      135      144      145      146
     361     18      135      144      145      151
     362     18      135      144      145      152
     363     23      136      131      132      138
     364     23      136      131      132      139
     365     23      137      131      132      138
     366     23      137      131      132      139
     367     23      140      134      135      142
     368     23      140      134      135      143
     369     18      140      134      135      144
     370     23      141      134      135      142
     371     23      141      134      135      143
     372     18      141      134      135      144
     373     13      142      135      144      145
     374     26      142      135      144      149
     375     26      142      135      144      150
     376     13      143      135      144      145
     377     26      143      135      144      149
     378     26      143      135      144      150
     379     14      144      145      146      147
     380     14      145      146      147      148
     381     15      145      146      147      153
     382     15      145      146      147      154
     383     25      146      145      144      149
     384     25      146      145      144      150
     385     25      146      147      148      155
     386     25      146      147      148      156
     387     19      146      147      148      157
     388     15      147      146      145      151
     389     15      147      146      145      152
     390     12      147      148      157      158
     391     13      147      148      157      162
     392     13      147      148      157      163
     393     19      148      157      158      159
     394     18      148      157      158      164
     395     18      148      157      158      165
     396     23      149      144      145      151
     397     23      149      144      145      152
     398     23      150      144      145      151
     399     23      150      144      145      152
     400     23      153      147      148      155
     401     23      153      147      148      156
     402     18      153      147      148      157
     403     23      154      147      148      155
     404     23      154      147      148      156
     405     18      154      147      148      157
     406     13      155      148      157      158
     407     26      155      148      157      162
     408     26      155      148      157      163
     409     13      156      148      157      158
     410     26      156      148      157      162
     411     26      156      148      157      163
     412     14      157      158      159      160
     413     14      158      159      160      161
     414     15      158      159      160      166
     415     15      158      159      160      167
     416     25      159      158      157      162
     417     25      159      158      157      163
     418     25      159      160      161      168
     419     25      159      160      161      169
     420     19      159      160      161      170
     421     15      160      159      158      164
     422     15      160      159      158      165
     423     12      160      161      170      171
     424     13      160      161      170      175
     425     13      160      161      170      176
     426     19      161      170      171      172
     427     18      161      170      171      177
     428     18      161      170      171      178
     429     23      162      157      158      164
     430     23      162      157      158      165
     431     23      163      157      158      164
     432     23      163      157      158      165
     433     23      166      160      161      168
     434     23      166      160      161      169
     435     18      166      160      161      170
     436     23      167      160      161      168
     437     23      167      160      161      169
     438     18      167      160      161      170
     439     13      168      161      170      171
     440     26      168      161      170      175
     441     26      168      161      170      176
     442     13      169      161      170      171
     443     26      169      161      170      175
     444     26      169      161      170      176
     445     14      170      171      172      173
     446     14      171      172      173      174
     447     15      171      172      173      179
     448     15      171      172      173      180
     449     25      172      171      170      175
     450     25      172      171      170      176
     451     25      172      173      174      181
     452     25      172      173      174      182
     453     19      172      173      174      183
     454     15      173      172      171      177
     455     15      173      172      171      178
     456     12      173      174      183      184
     457     13      173      174      183      188
     458     13      173      174      183      189
     459     19      174      183      184      185
     460     18      174      183      184      190
     461     18      174      183      184      191
     462     23      175      170      171      177
     463     23      175      170      171      178
     464     23      176      170      171      177
     465     23      176      170      171      178
     466     23      179      173      174      181
     467     23      179      173      174      182
     468     18      179      173      174      183
     469     23      180      173      174      181
     470     23      180      173      174      182
     471     18      180      173      174      183
     472     13      181      174      183      184
     473     26      181      174      183      188
     474     26      181      174      183      189
     475     13      182      174      183      184
     476     26      182      174      183      188
     477     26      182      174      183      189
     478     14      183      184      185      186
     479     14      184      185      186      187
     480     15      184      185      186      192
     481     15      184      185      186      193
     482     25      185      184      183      188
     483     25      185      184      183      189
     484     25      185      186      187      194
     485     25      185      186      187      195
     486     19      185      186      187      196
     487     15      186      185      184      190
     488     15      186      185      184      191
     489     12      186      187      196      197
     490     13      186      187      196      201
     491     13      186      187      196      202
     492     19      187      196      197      198
     493     18      187      196      197      203
     494     18      187      196      197      204
     495     23      188      183      184      190
     496     23      188      183      184      191
     497     23      189      183      184      190
     498     23      189      183      184      191
     499     23      192      186      187      194
     500     23      192      186      187      195
     501     18      192      186      187      196
     502     23      193      186      187      194
     503     23      193      186      187      195
     504     18      193      186      187      196
     505     13      194      187      196      197
     506     26      194      187      196      201
     507     26      194      187      196      202
     508     13      195      187      196      197
     509     26      195      187      196      201
     510     26      195      187      196      202
     511     14      196      197      198      199
     512     14      197      198      199      200
     513     15      197      198      199      205
     514     15      197      198      199      206
     515     25      198      197      196      201
     516     25      198      197      196      202
     517     25      198      199      200      207
     518     25      198      199      200      208
     519     19      198      199      200      209
     520     15      199      198      197      203
     521     15      199      198      197      204
     522     12      199      200      209      210
     523     13      199      200      209      214
     524     13      199      200      209      215
     525     19      200      209      210      211
     526     18      200      209      210      216
     527     18      200      209      210      217
     528     23      201      196      197      203
     529     23      201      196      197      204
     530     23      202      196      197      203
     531     23      202      196      197      204
     532     23      205      199      200      207
     533     23      205      199      200      208
     534     18      205      199      200      209
     535     23      206      199      200      207
     536     23      206      199      200      208
     537     18      206      199      200      209
     538     13      207      200      209      210
     539     26      207      200      209      214
     540     26      207      200      209      215
     541     13      208      200      209      210
     542     26      208      200      209      214
     543     26      208      200      209      215
     544     14      209      210      211      212
     545     14      210      211      212      213
     546     15      210      211      212      218
     547     15      210      211      212      219
     548     25      211      210      209      214
     549     25      211      210      209      215
     550     25      211      212      213      220
     551     25      211      212      213      221
     552     19      211      212      213      222
     553     15      212      211      210      216
     554     15      212      211      210      217
     555     12      212      213      222      223
     556     13      212      213      222      227
     557     13      212      213      222      228
     558     19      213      222      223      224
     559     18      213      222      223      229
     560     18      213      222      223      230
     561     23      214      209      210      216
     562     23      214      209      210      217
     563     23      215      209      210      216
     564     23      215      209      210      217
     565     23      218      212      213      220
     566     23      218      212      213      221
     567     18      218      212      213      222
     568     23      219      212      213      220
     569     23      219      212      213      221
     570     18      219      212      213      222
     571     13      220      213      222      223
     572     26      220      213      222      227
     573     26      220      213      222      228
     574     13      221      213      222      223
     575     26      221      213      222      227
     576     26      221      213      222      228
     577     14      222      223      224      225
     578     14      223      224      225      226
     579     15      223      224      225      231
     580     15      223      224      225      232
     581     25      224      223      222      227
     582     25      224      223      222      228
     583     25      224      225      226      233
     584     25      224      225      226      234
     585     19      224      225      226      235
     586     15      225      224      223      229
     587     15      225      224      223      230
     588     12      225      226      235      236
     589     13      225      226      235      240
     590     13      225      226      235      241
     591     19      226      235      236      237
     592     18      226      235      236      242
     593     18      226      235      236      243
     594     23      227      222      223      229
     595     23      227      222      223      230
     596     23      228      222      223      229
     597     23      228      222      223      230
     598     23      231      225      226      233
     599     23      231      225      226      234
     600     18      231      225      226      235
     601     23      232      225      226      233
     602     23      232      225      226      234
     603     18      232      225      226      235
     604     13      233      226      235      236
     605     26      233      226      235      240
     606     26      233      226      235      241
     607     13      234      226      235      236
     608     26      234      226      235      240
     609     26      234      226      235      241
     610     14      235      236      237      238
     611     14      236      237      238      239
     612     15      236      237      238      244
     613     15      236      237      238      245
     614     25      237      236      235      240
     615     25      237      236      235      241
     616     25      237      238      239      246
     617     25      237      238      239      247
     618     19      237      238      239      248
     619     15      238      237      236      242
     620     15      238      237      236      243
     621     12      238      239      248      249
     622     13      238      239      248      253
     623     13      238      239      248      254
     624     19      239      248      249      250
     625     18      239      248      249      255
     626     18      239      248      249      256
     627     23      240      235      236      242
     628     23      240      235      236      243
     629     23      241      235      236      242
     630     23      241      235      236      243
     631     23      244      238      239      246
     632     23      244      238      239      247
     633     18      244      238      239      248
     634     23      245      238      239      246
     635     23      245      238      239      247
     636     18      245      238      239      248
     637     13      246      239      248      249
     638     26      246      239      248      253
     639     26      246      239      248      254
     640     13      247      239      248      249
     641     26      247      239      248      253
     642     26      247      239      248      254
     643     14      248      249      250      251
     644     14      249      250      251      252
     645     15      249      250      251      257
     646     15      249      250      251      258
     647     25      250      249      248      253
     648     25      250      249      248      254
     649     25      250      251      252      259
     650     25      250      251      252      260
     651     19      250      251      252      261
     652     15      251      250      249      255
     653     15      251      250      249      256
     654     12      251      252      261      262
     655     13      251      252      261      266
     656     13      251      252      261      267
     657     19      252      261      262      263
     658     18      252      261      262      268
     659     18      252      261      262      269
     660     23      253      248      249      255
     661     23      253      248      249      256
     662     23      254      248      249      255
     663     23      254      248      249      256
     664     23      257      251      252      259
     665     23      257      251      252      260
     666     18      257      251      252      261
     667     23      258      251      252      259
     668     23      258      251      252      260
     669     18      258      251      252      261
     670     13      259      252      261      262
     671     26      259      252      261      266
     672     26      259      252      261      267
     673     13      260      252      261      262
     674     26      260      252      261      266
     675     26      260      252      261      267
     676     14      261      262      263      264
     677     14      262      263      264      265
     678     15      262      263      264      270
     679     15      262      263      264      271
     680     25      263      262      261      266
     681     25      263      262      261      267
     682     25      263      264      265      272
     683     25      263      264      265      273
     684     19      263      264      265      274
     685     15      264      263      262      268
     686     15      264      263      262      269
     687     12      264      265      274      275
     688     13      264      265      274      279
     689     13      264      265      274      280
     690     19      265      274      275      276
     691     18      265      274      275      281
     692     18      265      274      275      282
     693     23      266      261      262      268
     694     23      266      261      262      269
     695     23      267      261      262      268
     696     23      267      261      262      269
     697     23      270      264      265      272
     698     23      270      264      265      273
     699     18      270      264      265      274
     700     23      271      264      265      272
     701     23      271      264      265      273
     702     18      271      264      265      274
     703     13      272      265      274      275
     704     26      272      265      274      279
     705     26      272      265      274      280
     706     13      273      265      274      275
     707     26      273      265      274      279
     708     26      273      265      274      280
     709     14      274      275      276      277
     710     14      275      276      277      278
     711     15      275      276      277      283
     712     15      275      276      277      284
     713     25      276      275      274      279
     714     25      276      275      274      280
     715     25      276      277      278      285
     716     25      276      277      278      286
     717     19      276      277      278      287
     718     15      277      276      275      281
     719     15      277      276      275      282
     720     12      277      278      287      288
     721     13      277      278      287      292
     722     13      277      278      287      293
     723     19      278      287      288      289
     724     18      278      287      288      294
     725     18      278      287      288      295
     726     23      279      274      275      281
     727     23      279      274      275      282
     728     23      280      274      275      281
     729     23      280      274      275      282
     730     23      283      277      278      285
     731     23      283      277      278      286
     732     18      283      277      278      287
     733     23      284      277      278      285
     734     23      284      277      278      286
     735     18      284      277      278      287
     736     13      285      278      287      288
     737     26      285      278      287      292
     738     26      285      278      287      293
     739     13      286      278      287      288
     740     26      286      278      287      292
     741     26      286      278      287      293
     742     14      287      288      289      290
     743     14      288      289      290      291
     744     15      288      289      290      296
     745     15      288      289      290      297
     746     25      289      288      287      292
     747     25      289      288      287      293
     748     25      289      290      291      298
     749     25      289      290      291      299
     750     19      289      290      291      300
     751     15      290      289      288      294
     752     15      290      289      288      295
     753     12      290      291      300      301
     754     13      290      291      300      305
     755     13      290      291      300      306
     756     19      291      300      301      302
     757     18      291      300      301      307
     758     18      291      300      301      308
     759     23      292      287      288      294
     760     23      292      287      288      295
     761     23      293      287      288      294
     762     23      293      287      288      295
     763     23      296      290      291      298
     764     23      296      290      291      299
     765     18      296      290      291      300
     766     23      297      290      291      298
     767     23      297      290      291      299
     768     18      297      290      291      300
     769     13      298      291      300      301
     770     26      298      291      300      305
     771     26      298      291      300      306
     772     13      299      291      300      301
     773     26      299      291      300      305
     774     26      299      291      300      306
     775     14      300      301      302      303
     776     14      301      302      303      304
     777     15      301      302      303      309
     778     15      301      302      303      310
     779     25      302      301      300      305
     780     25      302      301      300      306
     781     25      302      303      304      311
     782     25      302      303      304      312
     783     19      302      303      304      313
     784     15      303      302      301      307
     785     15      303      302      301      308
     786     12      303      304      313      314
     787     13      303      304      313      318
     788     13      303      304      313      319
     789     19      304      313      314      315
     790     18      304      313      314      320
     791     18      304      313      314      321
     792     23      305      300      301      307
     793     23      305      300      301      308
     794     23      306      300      301      307
     795     23      306      300      301      308
     796     23      309      303      304      311
     797     23      309      303      304      312
     798     18      309      303      304      313
     799     23      310      303      304      311
     800     23      310      303      304      312
     801     18      310      303      304      313
     802     13      311      304      313      314
     803     26      311      304      313      318
     804     26      311      304      313      319
     805     13      312      304      313      314
     806     26      312      304      313      318
     807     26      312      304      313      319
     808     14      313      314      315      316
     809     14      314      315      316      317
     810     15      314      315      316      322
     811     15      314      315      316      323
     812     25      315      314      313      318
     813     25      315      314      313      319
     814     25      315      316      317      324
     815     25      315      316      317      325
     816     19      315      316      317      326
     817     15      316      315      314      320
     818     15      316      315      314      321
     819     10      316      317      326      327
     820     13      316      317      326      338
     821     13      316      317      326      339
     822     17      317      326      327      328
     823     16      317      326      327      340
     824     16      317      326      327      341
     825     23      318      313      314      320
     826     23      318      313      314      321
     827     23      319      313      314      320
     828     23      319      313      314      321
     829     23      322      316      317      324
     830     23      322      316      317      325
     831     18      322      316      317      326
     832     23      323      316      317      324
     833     23      323      316      317      325
     834     18      323      316      317      326
     835     11      324      317      326      327
     836     26      324      317      326      338
     837     26      324      317      326      339
     838     11      325      317      326      327
     839     26      325      317      326      338
     840     26      325      317      326      339
     841      7      326      327      328      329
     842      4      327      328      329      330
     843      4      327      328      329      337
     844     24      328      327      326      338
     845     24      328      327      326      339
     846      2      328      329      330      331
     847     21      328      329      330      342
     848      2      328      329      337      336
     849     21      328      329      337      349
     850      8      329      328      327      340
     851      8      329      328      327      341
     852      5      329      330      331      332
     853      6      329      330      331      343
     854      5      329      337      336      332
     855      6      329      337      336      348
     856      1      330      329      337      336
     857      3      330      329      337      349
     858      2      330      331      332      333
     859      1      330      331      332      336
     860      1      331      330      329      337
     861      4      331      332      333      334
     862      1      331      332      336      337
     863      3      331      332      336      348
     864      6      332      331      330      342
     865      7      332      333      334      335
     866      8      332      333      334      344
     867      8      332      333      334      345
     868      6      332      336      337      349
     869     21      333      332      331      343
     870      2      333      332      336      337
     871     21      333      332      336      348
     872     24      333      334      335      346
     873     24      333      334      335      347
     874     17      333      334      335      350
     875      4      334      333      332      336
     876      9      334      335      350      351
     877     11      334      335      350      362
     878     11      334      335      350      363
     879     17      335      350      351      352
     880     16      335      350      351      364
     881     16      335      350      351      365
     882      3      336      332      331      343
     883      3      337      329      330      342
     884     22      338      326      327      340
     885     22      338      326      327      341
     886     22      339      326      327      340
     887     22      339      326      327      341
     888     20      342      330      331      343
     889     22      344      334      335      346
     890     22      344      334      335      347
     891     16      344      334      335      350
     892     22      345      334      335      346
     893     22      345      334      335      347
     894     16      345      334      335      350
     895     11      346      335      350      351
     896     26      346      335      350      362
     897     26      346      335      350      363
     898     11      347      335      350      351
     899     26      347      335      350      362
     900     26      347      335      350      363
     901     20      348      336      337      349
     902      7      350      351      352      353
     903      4      351      352      353      354
     904      4      351      352      353      361
     905     24      352      351      350      362
     906     24      352      351      350      363
     907      2      352      353      354      355
     908     21      352      353      354      366
     909      2      352      353      361      360
     910     21      352      353      361      373
     911      8      353      352      351      364
     912      8      353      352      351      365
     913      5      353      354      355      356
     914      6      353      354      355      367
     915      5      353      361      360      356
     916      6      353      361      360      372
     917      1      354      353      361      360
     918      3      354      353      361      373
     919      2      354      355      356      357
     920      1      354      355      356      360
     921      1      355      354      353      361
     922      4      355      356      357      358
     923      1      355      356      360      361
     924      3      355      356      360      372
     925      6      356      355      354      366
     926      7      356      357      358      359
     927      8      356      357      358      368
     928      8      356      357      358      369
     929      6      356      360      361      373
     930     21      357      356      355      367
     931      2      357      356      360      361
     932     21      357      356      360      372
     933     24      357      358      359      370
     934     24      357      358      359      371
     935     17      357      358      359      374
     936      4      358      357      356      360
     937      9      358      359      374      375
     938     11      358      359      374      386
     939     11      358      359      374      387
     940     17      359      374      375      376
     941     16      359      374      375      388
     942     16      359      374      375      389
     943      3      360      356      355      367
     944      3      361      353      354      366
     945     22      362      350      351      364
     946     22      362      350      351      365
     947     22      363      350      351      364
     948     22      363      350      351      365
     949     20      366      354      355      367
     950     22      368      358      359      370
     951     22      368      358      359      371
     952     16      368      358      359      374
     953     22      369      358      359      370
     954     22      369      358      359      371
     955     16      369      358      359      374
     956     11      370      359      374      375
     957     26      370      359      374      386
     958     26      370      359      374      387
     959     11      371      359      374      375
     960     26      371      359      374      386
     961     26      371      359      374      387
     962     20      372      360      361      373
     963      7      374      375      376      377
     964      4      375      376      377      378
     965      4      375      376      377      385
     966     24      376      375      374      386
     967     24      376      375      374      387
     968      2      376      377      378      379
     969     21      376      377      378      390
     970      2      376      377      385      384
     971     21      376      377      385      397
     972      8      377      376      375      388
     973      8      377      376      375      389
     974      5      377      378      379      380
     975      6      377      378      379      391
     976      5      377      385      384      380
     977      6      377      385      384      396
     978      1      378      377      385      384
     979      3      378      377      385      397
     980      2      378      379      380      381
     981      1      378      379      380      384
     982      1      379      378      377      385
     983      4      379      380      381      382
     984      1      379      380      384      385
     985      3      379      380      384      396
     986      6      380      379      378      390
     987      7      380      381      382      383
     988      8      380      381      382      392
     989      8      380      381      382      393
     990      6      380      384      385      397
     991     21      381      380      379      391
     992      2      381      380      384      385
     993     21      381      380      384      396
     994     24      381      382      383      394
     995     24      381      382      383      395
     996     17      381      382      383      398
     997      4      382      381      380      384
     998      9      382      383      398      399
     999     11      382      383      398      410
    1000     11      382      383      398      411
    1001     17      383      398      399      400
    1002     16      383      398      399      412
    1003     16      383      398      399      413
    1004      3      384      380      379      391
    1005      3      385      377      378      390
    1006     22      386      374      375      388
    1007     22      386      374      375      389
    1008     22      387      374      375      388
    1009     22      387      374      375      389
    1010     20      390      378      379      391
    1011     22      392      382      383      394
    1012     22      392      382      383      395
    1013     16      392      382      383      398
    1014     22      393      382      383      394
    1015     22      393      382      383      395
    1016     16      393      382      383      398
    1017     11      394      383      398      399
    1018     26      394      383      398      410
    1019     26      394      383      398      411
    1020     11      395      383      398      399
    1021     26      395      383      398      410
    1022     26      395      383      398      411
    1023     20      396      384      385      397
    1024      7      398      399      400      401
    1025      4      399      400      401      402
    1026      4      399      400      401      409
    1027     24      400      399      398      410
    1028     24      400      399      398      411
    1029      2      400      401      402      403
    1030     21      400      401      402      414
    1031      2      400      401      409      408
    1032     21      400      401      409      421
    1033      8      401      400      399      412
    1034      8      401      400      399      413
    1035      5      401      402      403      404
    1036      6      401      402      403      415
    1037      5      401      409      408      404
    1038      6      401      409      408      420
    1039      1      402      401      409      408
    1040      3      402      401      409      421
    1041      2      402      403      404      405
    1042      1      402      403      404      408
    1043      1      403      402      401      409
    1044      4      403      404      405      406
    1045      1      403      404      408      409
    1046      3      403      404      408      420
    1047      6      404      403      402      414
    1048      7      404      405      406      407
    1049      8      404      405      406      416
    1050      8      404      405      406      417
    1051      6      404      408      409      421
    1052     21      405      404      403      415
    1053      2      405      404      408      409
    1054     21      405      404      408      420
    1055     24      405      406      407      418
    1056     24      405      406      407      419
    1057     17      405      406      407      422
    1058      4      406      405      404      408
    1059      9      406      407      422      423
    1060     11      406      407      422      434
    1061     11      406      407      422      435
    1062     17      407      422      423      424
    1063     16      407      422      423      436
    1064     16      407      422      423      437
    1065      3      408      404      403      415
    1066      3      409      401      402      414
    1067     22      410      398      399      412
    1068     22      410      398      399      413
    1069     22      411      398      399      412
    1070     22      411      398      399      413
    1071     20      414      402      403      415
    1072     22      416      406      407      418
    1073     22      416      406      407      419
    1074     16      416      406      407      422
    1075     22      417      406      407      418
    1076     22      417      406      407      419
    1077     16      417      406      407      422
    1078     11      418      407      422      423
    1079     26      418      407      422      434
    1080     26      418      407      422      435
    1081     11      419      407      422      423
    1082     26      419      407      422      434
    1083     26      419      407      422      435
    1084     20      420      408      409      421
    1085      7      422      423      424      425
    1086      4      423      424      425      426
    1087      4      423      424      425      433
    1088     24      424      423      422      434
    1089     24      424      423      422      435
    1090      2      424      425      426      427
    1091     21      424      425      426      438
    1092      2      424      425      433      432
    1093     21      424      425      433      445
    1094      8      425      424      423      436
    1095      8      425      424      423      437
    1096      5      425      426      427      428
    1097      6      425      426      427      439
    1098      5      425      433      432      428
    1099      6      425      433      432      444
    1100      1      426      425      433      432
    1101      3      426      425      433      445
    1102      2      426      427      428      429
    1103      1      426      427      428      432
    1104      1      427      426      425      433
    1105      4      427      428      429      430
    1106      1      427      428      432      433
    1107      3      427      428      432      444
    1108      6      428      427      426      438
    1109      7      428      429      430      431
    1110      8      428      429      430      440
    1111      8      428      429      430      441
    1112      6      428      432      433      445
    1113     21      429      428      427      439
    1114      2      429      428      432      433
    1115     21      429      428      432      444
    1116     24      429      430      431      442
    1117     24      429      430      431      443
    1118     17      429      430      431      446
    1119      4      430      429      428      432
    1120      9      430      431      446      447
    1121     11      430      431      446      458
    1122     11      430      431      446      459
    1123     17      431      446      447      448
    1124     16      431      446      447      460
    1125     16      431      446      447      461
    1126      3      432      428      427      439
    1127      3      433      425      426      438
    1128     22      434      422      423      436
    1129     22      434      422      423      437
    1130     22      435      422      423      436
    1131     22      435      422      423      437
    1132     20      438      426      427      439
    1133     22      440      430      431      442
    1134     22      440      430      431      443
    1135     16      440      430      431      446
    1136     22      441      430      431      442
    1137     22      441      430      431      443
    1138     16      441      430      431      446
    1139     11      442      431      446      447
    1140     26      442      431      446      458
    1141     26      442      431      446      459
    1142     11      443      431      446      447
    1143     26      443      431      446      458
    1144     26      443      431      446      459
    1145     20      444      432      433      445
    1146      7      446      447      448      449
    1147      4      447      448      449      450
    1148      4      447      448      449      457
    1149     24      448      447      446      458
    1150     24      448      447      446      459
    1151      2      448      449      450      451
    1152     21      448      449      450      462
    1153      2      448      449      457      456
    1154     21      448      449      457      469
    1155      8      449      448      447      460
    1156      8      449      448      447      461
    1157      5      449      450      451      452
    1158      6      449      450      451      463
    1159      5      449      457      456      452
    1160      6      449      457      456      468
    1161      1      450      449      457      456
    1162      3      450      449      457      469
    1163      2      450      451      452      453
    1164      1      450      451      452      456
    1165      1      451      450      449      457
    1166      4      451      452      453      454
    1167      1      451      452      456      457
    1168      3      451      452      456      468
    1169      6      452      451      450      462
    1170      7      452      453      454      455
    1171      8      452      453      454      464
    1172      8      452      453      454      465
    1173      6      452      456      457      469
    1174     21      453      452      451      463
    1175      2      453      452      456      457
    1176     21      453      452      456      468
    1177     24      453      454      455      466
    1178     24      453      454      455      467
    1179     17      453      454      455      470
    1180      4      454      453      452      456
    1181      9      454      455      470      471
    1182     11      454      455      470      482
    1183     11      454      455      470      483
    1184     17      455      470      471      472
    1185     16      455      470      471      484
    1186     16      455      470      471      485
    1187      3      456      452      451      463
    1188      3      457      449      450      462
    1189     22      458      446      447      460
    1190     22      458      446      447      461
    1191     22      459      446      447      460
    1192     22      459      446      447      461
    1193     20      462      450      451      463
    1194     22      464      454      455      466
    1195     22      464      454      455      467
    1196     16      464      454      455      470
    1197     22      465      454      455      466
    1198     22      465      454      455      467
    1199     16      465      454      455      470
    1200     11      466      455      470      471
    1201     26      466      455      470      482
    1202     26      466      455      470      483
    1203     11      467      455      470      471
    1204     26      467      455      470      482
    1205     26      467      455      470      483
    1206     20      468      456      457      469
    1207      7      470      471      472      473
    1208      4      471      472      473      474
    1209      4      471      472      473      481
    1210     24      472      471      470      482
    1211     24      472      471      470      483
    1212      2      472      473      474      475
    1213     21      472      473      474      486
    1214      2      472      473      481      480
    1215     21      472      473      481      493
    1216      8      473      472      471      484
    1217      8      473      472      471      485
    1218      5      473      474      475      476
    1219      6      473      474      475      487
    1220      5      473      481      480      476
    1221      6      473      481      480      492
    1222      1      474      473      481      480
    1223      3      474      473      481      493
    1224      2      474      475      476      477
    1225      1      474      475      476      480
    1226      1      475      474      473      481
    1227      4      475      476      477      478
    1228      1      475      476      480      481
    1229      3      475      476      480      492
    1230      6      476      475      474      486
    1231      7      476      477      478      479
    1232      8      476      477      478      488
    1233      8      476      477      478      489
    1234      6      476      480      481      493
    1235     21      477      476      475      487
    1236      2      477      476      480      481
    1237     21      477      476      480      492
    1238     24      477      478      479      490
    1239     24      477      478      479      491
    1240     17      477      478      479      494
    1241      4      478      477      476      480
    1242      9      478      479      494      495
    1243     11      478      479      494      506
    1244     11      478      479      494      507
    1245     17      479      494      495      496
    1246     16      479      494      495      508
    1247     16      479      494      495      509
    1248      3      480      476      475      487
    1249      3      481      473      474      486
    1250     22      482      470      471      484
    1251     22      482      470      471      485
    1252     22      483      470      471      484
    1253     22      483      470      471      485
    1254     20      486      474      475      487
    1255     22      488      478      479      490
    1256     22      488      478      479      491
    1257     16      488      478      479      494
    1258     22      489      478      479      490
    1259     22      489      478      479      491
    1260     16      489      478      479      494
    1261     11      490      479      494      495
    1262     26      490      479      494      506
    1263     26      490      479      494      507
    1264     11      491      479      494      495
    1265     26      491      479      494      506
    1266     26      491      479      494      507
    1267     20      492      480      481      493
    1268      7      494      495      496      497
    1269      4      495      496      497      498
    1270      4      495      496      497      505
    1271     24      496      495      494      506
    1272     24      496      495      494      507
    1273      2      496      497      498      499
    1274     21      496      497      498      510
    1275      2      496      497      505      504
    1276     21      496      497      505      517
    1277      8      497      496      495      508
    1278      8      497      496      495      509
    1279      5      497      498      499      500
    1280      6      497      498      499      511
    1281      5      497      505      504      500
    1282      6      497      505      504      516
    1283      1      498      497      505      504
    1284      3      498      497      505      517
    1285      2      498      499      500      501
    1286      1      498      499      500      504
    1287      1      499      498      497      505
    1288      4      499      500      501      502
    1289      1      499      500      504      505
    1290      3      499      500      504      516
    1291      6      500      499      498      510
    1292      7      500      501      502      503
    1293      8      500      501      502      512
    1294      8      500      501      502      513
    1295      6      500      504      505      517
    1296     21      501      500      499      511
    1297      2      501      500      504      505
    1298     21      501      500      504      516
    1299     24      501      502      503      514
    1300     24      501      502      503      515
    1301     17      501      502      503      518
    1302      4      502      501      500      504
    1303      9      502      503      518      519
    1304     11      502      503      518      530
    1305     11      502      503      518      531
    1306     17      503      518      519      520
    1307     16      503      518      519      532
    1308     16      503      518      519      533
    1309      3      504      500      499      511
    1310      3      505      497      498      510
    1311     22      506      494      495      508
    1312     22      506      494      495      509
    1313     22      507      494      495      508
    1314     22      507      494      495      509
    1315     20      510      498      499      511
    1316     22      512      502      503      514
    1317     22      512      502      503      515
    1318     16      512      502      503      518
    1319     22      513      502      503      514
    1320     22      513      502      503      515
    1321     16      513      502      503      518
    1322     11      514      503      518      519
    1323     26      514      503      518      530
    1324     26      514      503      518      531
    1325     11      515      503      518      519
    1326     26      515      503      518      530
    1327     26      515      503      518      531
    1328     20      516      504      505      517
    1329      7      518      519      520      521
    1330      4      519      520      521      522
    1331      4      519      520      521      529
    1332     24      520      519      518      530
    1333     24      520      519      518      531
    1334      2      520      521      522      523
    1335     21      520      521      522      534
    1336      2      520      521      529      528
    1337     21      520      521      529      541
    1338      8      521      520      519      532
    1339      8      521      520      519      533
    1340      5      521      522      523      524
    1341      6      521      522      523      535
    1342      5      521      529      528      524
    1343      6      521      529      528      540
    1344      1      522      521      529      528
    1345      3      522      521      529      541
    1346      2      522      523      524      525
    1347      1      522      523      524      528
    1348      1      523      522      521      529
    1349      4      523      524      525      526
    1350      1      523      524      528      529
    1351      3      523      524      528      540
    1352      6      524      523      522      534
    1353      7      524      525      526      527
    1354      8      524      525      526      536
    1355      8      524      525      526      537
    1356      6      524      528      529      541
    1357     21      525      524      523      535
    1358      2      525      524      528      529
    1359     21      525      524      528      540
    1360     24      525      526      527      538
    1361     24      525      526      527      539
    1362     17      525      526      527      542
    1363      4      526      525      524      528
    1364      9      526      527      542      543
    1365     11      526      527      542      554
    1366     11      526      527      542      555
    1367     17      527      542      543      544
    1368     16      527      542      543      556
    1369     16      527      542      543      557
    1370      3      528      524      523      535
    1371      3      529      521      522      534
    1372     22      530      518      519      532
    1373     22      530      518      519      533
    1374     22      531      518      519      532
    1375     22      531      518      519      533
    1376     20      534      522      523      535
    1377     22      536      526      527      538
    1378     22      536      526      527      539
    1379     16      536      526      527      542
    1380     22      537      526      527      538
    1381     22      537      526      527      539
    1382     16      537      526      527      542
    1383     11      538      527      542      543
    1384     26      538      527      542      554
    1385     26      538      527      542      555
    1386     11      539      527      542      543
    1387     26      539      527      542      554
    1388     26      539      527      542      555
    1389     20      540      528      529      541
    1390      7      542      543      544      545
    1391      4      543      544      545      546
    1392      4      543      544      545      553
    1393     24      544      543      542      554
    1394     24      544      543      542      555
    1395      2      544      545      546      547
    1396     21      544      545      546      558
    1397      2      544      545      553      552
    1398     21      544      545      553      565
    1399      8      545      544      543      556
    1400      8      545      544      543      557
    1401      5      545      546      547      548
    1402      6      545      546      547      559
    1403      5      545      553      552      548
    1404      6      545      553      552      564
    1405      1      546      545      553      552
    1406      3      546      545      553      565
    1407      2      546      547      548      549
    1408      1      546      547      548      552
    1409      1      547      546      545      553
    1410      4      547      548      549      550
    1411      1      547      548      552      553
    1412      3      547      548      552      564
    1413      6      548      547      546      558
    1414      7      548      549      550      551
    1415      8      548      549      550      560
    1416      8      548      549      550      561
    1417      6      548      552      553      565
    1418     21      549      548      547      559
    1419      2      549      548      552      553
    1420     21      549      548      552      564
    1421     24      549      550      551      562
    1422     24      549      550      551      563
    1423     17      549      550      551      566
    1424      4      550      549      548      552
    1425      9      550      551      566      567
    1426     11      550      551      566      578
    1427     11      550      551      566      579
    1428     17      551      566      567      568
    1429     16      551      566      567      580
    1430     16      551      566      567      581
    1431      3      552      548      547      559
    1432      3      553      545      546      558
    1433     22      554      542      543      556
    1434     22      554      542      543      557
    1435     22      555      542      543      556
    1436     22      555      542      543      557
    1437     20      558      546      547      559
    1438     22      560      550      551      562
    1439     22      560      550      551      563
    1440     16      560      550      551      566
    1441     22      561      550      551      562
    1442     22      561      550      551      563
    1443     16      561      550      551      566
    1444     11      562      551      566      567
    1445     26      562      551      566      578
    1446     26      562      551      566      579
    1447     11      563      551      566      567
    1448     26      563      551      566      578
    1449     26      563      551      566      579
    1450     20      564      552      553      565
    1451      7      566      567      568      569
    1452      4      567      568      569      570
    1453      4      567      568      569      577
    1454     24      568      567      566      578
    1455     24      568      567      566      579
    1456      2      568      569      570      571
    1457     21      568      569      570      582
    1458      2      568      569      577      576
    1459     21      568      569      577      589
    1460      8      569      568      567      580
    1461      8      569      568      567      581
    1462      5      569      570      571      572
    1463      6      569      570      571      583
    1464      5      569      577      576      572
    1465      6      569      577      576      588
    1466      1      570      569      577      576
    1467      3      570      569      577      589
    1468      2      570      571      572      573
    1469      1      570      571      572      576
    1470      1      571      570      569      577
    1471      4      571      572      573      574
    1472      1      571      572      576      577
    1473      3      571      572      576      588
    1474      6      572      571      570      582
    1475      7      572      573      574      575
    1476      8      572      573      574      584
    1477      8      572      573      574      585
    1478      6      572      576      577      589
    1479     21      573      572      571      583
    1480      2      573      572      576      577
    1481     21      573      572      576      588
    1482     24      573      574      575      586
    1483     24      573      574      575      587
    1484     17      573      574      575      590
    1485      4      574      573      572      576
    1486      9      574      575      590      591
    1487     11      574      575      590      602
    1488     11      574      575      590      603
    1489     17      575      590      591      592
    1490     16      575      590      591      604
    1491     16      575      590      591      605
    1492      3      576      572      571      583
    1493      3      577      569      570      582
    1494     22      578      566      567      580
    1495     22      578      566      567      581
    1496     22      579      566      567      580
    1497     22      579      566      567      581
    1498     20      582      570      571      583
    1499     22      584      574      575      586
    1500     22      584      574      575      587
    1501     16      584      574      575      590
    1502     22      585      574      575      586
    1503     22      585      574      575      587
    1504     16      585      574      575      590
    1505     11      586      575      590      591
    1506     26      586      575      590      602
    1507     26      586      575      590      603
    1508     11      587      575      590      591
    1509     26      587      575      590      602
    1510     26      587      575      590      603
    1511     20      588      576      577      589
    1512      7      590      591      592      593
    1513      4      591      592      593      594
    1514      4      591      592      593      601
    1515     24      592      591      590      602
    1516     24      592      591      590      603
    1517      2      592      593      594      595
    1518     21      592      593      594      606
    1519      2      592      593      601      600
    1520     21      592      593      601      613
    1521      8      593      592      591      604
    1522      8      593      592      591      605
    1523      5      593      594      595      596
    1524      6      593      594      595      607
    1525      5      593      601      600      596
    1526      6      593      601      600      612
    1527      1      594      593      601      600
    1528      3      594      593      601      613
    1529      2      594      595      596      597
    1530      1      594      595      596      600
    1531      1      595      594      593      601
    1532      4      595      596      597      598
    1533      1      595      596      600      601
    1534      3      595      596      600      612
    1535      6      596      595      594      606
    1536      7      596      597      598      599
    1537      8      596      597      598      608
    1538      8      596      597      598      609
    1539      6      596      600      601      613
    1540     21      597      596      595      607
    1541      2      597      596      600      601
    1542     21      597      596      600      612
    1543     24      597      598      599      610
    1544     24      597      598      599      611
    1545     17      597      598      599      614
    1546      4      598      597      596      600
    1547      9      598      599      614      615
    1548     11      598      599      614      626
    1549     11      598      599      614      627
    1550     17      599      614      615      616
    1551     16      599      614      615      628
    1552     16      599      614      615      629
    1553      3      600      596      595      607
    1554      3      601      593      594      606
    1555     22      602      590      591      604
    1556     22      602      590      591      605
    1557     22      603      590      591      604
    1558     22      603      590      591      605
    1559     20      606      594      595      607
    1560     22      608      598      599      610
    1561     22      608      598      599      611
    1562     16      608      598      599      614
    1563     22      609      598      599      610
    1564     22      609      598      599      611
    1565     16      609      598      599      614
    1566     11      610      599      614      615
    1567     26      610      599      614      626
    1568     26      610      599      614      627
    1569     11      611      599      614      615
    1570     26      611      599      614      626
    1571     26      611      599      614      627
    1572     20      612      600      601      613
    1573      7      614      615      616      617
    1574      4      615      616      617      618
    1575      4      615      616      617      625
    1576     24      616      615      614      626
    1577     24      616      615      614      627
    1578      2      616      617      618      619
    1579     21      616      617      618      630
    1580      2      616      617      625      624
    1581     21      616      617      625      637
    1582      8      617      616      615      628
    1583      8      617      616      615      629
    1584      5      617      618      619      620
    1585      6      617      618      619      631
    1586      5      617      625      624      620
    1587      6      617      625      624      636
    1588      1      618      617      625      624
    1589      3      618      617      625      637
    1590      2      618      619      620      621
    1591      1      618      619      620      624
    1592      1      619      618      617      625
    1593      4      619      620      621      622
    1594      1      619      620      624      625
    1595      3      619      620      624      636
    1596      6      620      619      618      630
    1597      7      620      621      622      623
    1598      8      620      621      622      632
    1599      8      620      621      622      633
    1600      6      620      624      625      637
    1601     21      621      620      619      631
    1602      2      621      620      624      625
    1603     21      621      620      624      636
    1604     24      621      622      623      634
    1605     24      621      622      623      635
    1606     17      621      622      623      638
    1607      4      622      621      620      624
    1608      9      622      623      638      639
    1609     11      622      623      638      650
    1610     11      622      623      638      651
    1611     17      623      638      639      640
    1612     16      623      638      639      652
    1613     16      623      638      639      653
    1614      3      624      620      619      631
    1615      3      625      617      618      630
    1616     22      626      614      615      628
    1617     22      626      614      615      629
    1618     22      627      614      615      628
    1619     22      627      614      615      629
    1620     20      630      618      619      631
    1621     22      632      622      623      634
    1622     22      632      622      623      635
    1623     16      632      622      623      638
    1624     22      633      622      623      634
    1625     22      633      622      623      635
    1626     16      633      622      623      638
    1627     11      634      623      638      639
    1628     26      634      623      638      650
    1629     26      634      623      638      651
    1630     11      635      623      638      639
    1631     26      635      623      638      650
    1632     26      635      623      638      651
    1633     20      636      624      625      637
    1634      7      638      639      640      641
    1635      4      639      640      641      642
    1636      4      639      640      641      649
    1637     24      640      639      638      650
    1638     24      640      639      638      651
    1639      2      640      641      642      643
    1640     21      640      641      642      654
    1641      2      640      641      649      648
    1642     21      640      641      649      661
    1643      8      641      640      639      652
    1644      8      641      640      639      653
    1645      5      641      642      643      644
    1646      6      641      642      643      655
    1647      5      641      649      648      644
    1648      6      641      649      648      660
    1649      1      642      641      649      648
    1650      3      642      641      649      661
    1651      2      642      643      644      645
    1652      1      642      643      644      648
    1653      1      643      642      641      649
    1654      4      643      644      645      646
    1655      1      643      644      648      649
    1656      3      643      644      648      660
    1657      6      644      643      642      654
    1658      7      644      645      646      647
    1659      8      644      645      646      656
    1660      8      644      645      646      657
    1661      6      644      648      649      661
    1662     21      645      644      643      655
    1663      2      645      644      648      649
    1664     21      645      644      648      660
    1665     24      645      646      647      658
    1666     24      645      646      647      659
    1667     17      645      646      647      662
    1668      4      646      645      644      648
    1669      9      646      647      662      663
    1670     11      646      647      662      674
    1671     11      646      647      662      675
    1672     17      647      662      663      664
    1673     16      647      662      663      676
    1674     16      647      662      663      677
    1675      3      648      644      643      655
    1676      3      649      641      642      654
    1677     22      650      638      639      652
    1678     22      650      638      639      653
    1679     22      651      638      639      652
    1680     22      651      638      639      653
    1681     20      654      642      643      655
    1682     22      656      646      647      658
    1683     22      656      646      647      659
    1684     16      656      646      647      662
    1685     22      657      646      647      658
    1686     22      657      646      647      659
    1687     16      657      646      647      662
    1688     11      658      647      662      663
    1689     26      658      647      662      674
    1690     26      658      647      662      675
    1691     11      659      647      662      663
    1692     26      659      647      662      674
    1693     26      659      647      662      675
    1694     20      660      648      649      661
    1695      7      662      663      664      665
    1696      4      663      664      665      666
    1697      4      663      664      665      673
    1698     24      664      663      662      674
    1699     24      664      663      662      675
    1700      2      664      665      666      667
    1701     21      664      665      666      678
    1702      2      664      665      673      672
    1703     21      664      665      673      685
    1704      8      665      664      663      676
    1705      8      665      664      663      677
    1706      5      665      666      667      668
    1707      6      665      666      667      679
    1708      5      665      673      672      668
    1709      6      665      673      672      684
    1710      1      666      665      673      672
    1711      3      666      665      673      685
    1712      2      666      667      668      669
    1713      1      666      667      668      672
    1714      1      667      666      665      673
    1715      4      667      668      669      670
    1716      1      667      668      672      673
    1717      3      667      668      672      684
    1718      6      668      667      666      678
    1719      7      668      669      670      671
    1720      8      668      669      670      680
    1721      8      668      669      670      681
    1722      6      668      672      673      685
    1723     21      669      668      667      679
    1724      2      669      668      672      673
    1725     21      669      668      672      684
    1726     24      669      670      671      682
    1727     24      669      670      671      683
    1728     17      669      670      671      686
    1729      4      670      669      668      672
    1730      9      670      671      686      687
    1731     11      670      671      686      698
    1732     11      670      671      686      699
    1733     17      671      686      687      688
    1734     16      671      686      687      700
    1735     16      671      686      687      701
    1736      3      672      668      667      679
    1737      3      673      665      666      678
    1738     22      674      662      663      676
    1739     22      674      662      663      677
    1740     22      675      662      663      676
    1741     22      675      662      663      677
    1742     20      678      666      667      679
    1743     22      680      670      671      682
    1744     22      680      670      671      683
    1745     16      680      670      671      686
    1746     22      681      670      671      682
    1747     22      681      670      671      683
    1748     16      681      670      671      686
    1749     11      682      671      686      687
    1750     26      682      671      686      698
    1751     26      682      671      686      699
    1752     11      683      671      686      687
    1753     26      683      671      686      698
    1754     26      683      671      686      699
    1755     20      684      672      673      685
    1756      7      686      687      688      689
    1757      4      687      688      689      690
    1758      4      687      688      689      697
    1759     24      688      687      686      698
    1760     24      688      687      686      699
    1761      2      688      689      690      691
    1762     21      688      689      690      702
    1763      2      688      689      697      696
    1764     21      688      689      697      709
    1765      8      689      688      687      700
    1766      8      689      688      687      701
    1767      5      689      690      691      692
    1768      6      689      690      691      703
    1769      5      689      697      696      692
    1770      6      689      697      696      708
    1771      1      690      689      697      696
    1772      3      690      689      697      709
    1773      2      690      691      692      693
    1774      1      690      691      692      696
    1775      1      691      690      689      697
    1776      4      691      692      693      694
    1777      1      691      692      696      697
    1778      3      691      692      696      708
    1779      6      692      691      690      702
    1780      7      692      693      694      695
    1781      8      692      693      694      704
    1782      8      692      693      694      705
    1783      6      692      696      697      709
    1784     21      693      692      691      703
    1785      2      693      692      696      697
    1786     21      693      692      696      708
    1787     24      693      694      695      706
    1788     24      693      694      695      707
    1789     17      693      694      695      710
    1790      4      694      693      692      696
    1791      9      694      695      710      711
    1792     11      694      695      710      722
    1793     11      694      695      710      723
    1794     17      695      710      711      712
    1795     16      695      710      711      724
    1796     16      695      710      711      725
    1797      3      696      692      691      703
    1798      3      697      689      690      702
    1799     22      698      686      687      700
    1800     22      698      686      687      701
    1801     22      699      686      687      700
    1802     22      699      686      687      701
    1803     20      702      690      691      703
    1804     22      704      694      695      706
    1805     22      704      694      695      707
    1806     16      704      694      695      710
    1807     22      705      694      695      706
    1808     22      705      694      695      707
    1809     16      705      694      695      710
    1810     11      706      695      710      711
    1811     26      706      695      710      722
    1812     26      706      695      710      723
    1813     11      707      695      710      711
    1814     26      707      695      710      722
    1815     26      707      695      710      723
    1816     20      708      696      697      709
    1817      7      710      711      712      713
    1818      4      711      712      713      714
    1819      4      711      712      713      721
    1820     24      712      711      710      722
    1821     24      712      711      710      723
    1822      2      712      713      714      715
    1823     21      712      713      714      726
    1824      2      712      713      721      720
    1825     21      712      713      721      733
    1826      8      713      712      711      724
    1827      8      713      712      711      725
    1828      5      713      714      715      716
    1829      6      713      714      715      727
    1830      5      713      721      720      716
    1831      6      713      721      720      732
    1832      1      714      713      721      720
    1833      3      714      713      721      733
    1834      2      714      715      716      717
    1835      1      714      715      716      720
    1836      1      715      714      713      721
    1837      4      715      716      717      718
    1838      1      715      716      720      721
    1839      3      715      716      720      732
    1840      6      716      715      714      726
    1841      7      716      717      718      719
    1842      8      716      717      718      728
    1843      8      716      717      718      729
    1844      6      716      720      721      733
    1845     21      717      716      715      727
    1846      2      717      716      720      721
    1847     21      717      716      720      732
    1848     24      717      718      719      730
    1849     24      717      718      719      731
    1850     17      717      718      719      734
    1851      4      718      717      716      720
    1852      9      718      719      734      735
    1853     11      718      719      734      746
    1854     11      718      719      734      747
    1855     17      719      734      735      736
    1856     16      719      734      735      748
    1857     16      719      734      735      749
    1858      3      720      716      715      727
    1859      3      721      713      714      726
    1860     22      722      710      711      724
    1861     22      722      710      711      725
    1862     22      723      710      711      724
    1863     22      723      710      711      725
    1864     20      726      714      715      727
    1865     22      728      718      719      730
    1866     22      728      718      719      731
    1867     16      728      718      719      734
    1868     22      729      718      719      730
    1869     22      729      718      719      731
    1870     16      729      718      719      734
    1871     11      730      719      734      735
    1872     26      730      719      734      746
    1873     26      730      719      734      747
    1874     11      731      719      734      735
    1875     26      731      719      734      746
    1876     26      731      719      734      747
    1877     20      732      720      721      733
    1878      7      734      735      736      737
    1879      4      735      736      737      738
    1880      4      735      736      737      745
    1881     24      736      735      734      746
    1882     24      736      735      734      747
    1883      2      736      737      738      739
    1884     21      736      737      738      750
    1885      2      736      737      745      744
    1886     21      736      737      745      757
    1887      8      737      736      735      748
    1888      8      737      736      735      749
    1889      5      737      738      739      740
    1890      6      737      738      739      751
    1891      5      737      745      744      740
    1892      6      737      745      744      756
    1893      1      738      737      745      744
    1894      3      738      737      745      757
    1895      2      738      739      740      741
    1896      1      738      739      740      744
    1897      1      739      738      737      745
    1898      4      739      740      741      742
    1899      1      739      740      744      745
    1900      3      739      740      744      756
    1901      6      740      739      738      750
    1902      7      740      741      742      743
    1903      8      740      741      742      752
    1904      8      740      741      742      753
    1905      6      740      744      745      757
    1906     21      741      740      739      751
    1907      2      741      740      744      745
    1908     21      741      740      744      756
    1909     24      741      742      743      754
    1910     24      741      742      743      755
    1911     17      741      742      743      758
    1912      4      742      741      740      744
    1913      9      742      743      758      759
    1914     11      742      743      758      770
    1915     11      742      743      758      771
    1916     17      743      758      759      760
    1917     16      743      758      759      772
    1918     16      743      758      759      773
    1919      3      744      740      739      751
    1920      3      745      737      738      750
    1921     22      746      734      735      748
    1922     22      746      734      735      749
    1923     22      747      734      735      748
    1924     22      747      734      735      749
    1925     20      750      738      739      751
    1926     22      752      742      743      754
    1927     22      752      742      743      755
    1928     16      752      742      743      758
    1929     22      753      742      743      754
    1930     22      753      742      743      755
    1931     16      753      742      743      758
    1932     11      754      743      758      759
    1933     26      754      743      758      770
    1934     26      754      743      758      771
    1935     11      755      743      758      759
    1936     26      755      743      758      770
    1937     26      755      743      758      771
    1938     20      756      744      745      757
    1939      7      758      759      760      761
    1940      4      759      760      761      762
    1941      4      759      760      761      769
    1942     24      760      759      758      770
    1943     24      760      759      758      771
    1944      2      760      761      762      763
    1945     21      760      761      762      774
    1946      2      760      761      769      768
    1947     21      760      761      769      781
    1948      8      761      760      759      772
    1949      8      761      760      759      773
    1950      5      761      762      763      764
    1951      6      761      762      763      775
    1952      5      761      769      768      764
    1953      6      761      769      768      780
    1954      1      762      761      769      768
    1955      3      762      761      769      781
    1956      2      762      763      764      765
    1957      1      762      763      764      768
    1958      1      763      762      761      769
    1959      4      763      764      765      766
    1960      1      763      764      768      769
    1961      3      763      764      768      780
    1962      6      764      763      762      774
    1963      7      764      765      766      767
    1964      8      764      765      766      776
    1965      8      764      765      766      777
    1966      6      764      768      769      781
    1967     21      765      764      763      775
    1968      2      765      764      768      769
    1969     21      765      764      768      780
    1970     24      765      766      767      778
    1971     24      765      766      767      779
    1972     17      765      766      767      782
    1973      4      766      765      764      768
    1974      9      766      767      782      783
    1975     11      766      767      782      794
    1976     11      766      767      782      795
    1977     17      767      782      783      784
    1978     16      767      782      783      796
    1979     16      767      782      783      797
    1980      3      768      764      763      775
    1981      3      769      761      762      774
    1982     22      770      758      759      772
    1983     22      770      758      759      773
    1984     22      771      758      759      772
    1985     22      771      758      759      773
    1986     20      774      762      763      775
    1987     22      776      766      767      778
    1988     22      776      766      767      779
    1989     16      776      766      767      782
    1990     22      777      766      767      778
    1991     22      777      766      767      779
    1992     16      777      766      767      782
    1993     11      778      767      782      783
    1994     26      778      767      782      794
    1995     26      778      767      782      795
    1996     11      779      767      782      783
    1997     26      779      767      782      794
    1998     26      779      767      782      795
    1999     20      780      768      769      781
    2000      7      782      783      784      785
    2001      4      783      784      785      786
    2002      4      783      784      785      793
    2003     24      784      783      782      794
    2004     24      784      783      782      795
    2005      2      784      785      786      787
    2006     21      784      785      786      798
    2007      2      784      785      793      792
    2008     21      784      785      793      805
    2009      8      785      784      783      796
    2010      8      785      784      783      797
    2011      5      785      786      787      788
    2012      6      785      786      787      799
    2013      5      785      793      792      788
    2014      6      785      793      792      804
    2015      1      786      785      793      792
    2016      3      786      785      793      805
    2017      2      786      787      788      789
    2018      1      786      787      788      792
    2019      1      787      786      785      793
    2020      4      787      788      789      790
    2021      1      787      788      792      793
    2022      3      787      788      792      804
    2023      6      788      787      786      798
    2024      7      788      789      790      791
    2025      8      788      789      790      800
    2026      8      788      789      790      801
    2027      6      788      792      793      805
    2028     21      789      788      787      799
    2029      2      789      788      792      793
    2030     21      789      788      792      804
    2031     24      789      790      791      802
    2032     24      789      790      791      803
    2033     17      789      790      791      806
    2034      4      790      789      788      792
    2035      9      790      791      806      807
    2036     11      790      791      806      818
    2037     11      790      791      806      819
    2038     17      791      806      807      808
    2039     16      791      806      807      820
    2040     16      791      806      807      821
    2041      3      792      788      787      799
    2042      3      793      785      786      798
    2043     22      794      782      783      796
    2044     22      794      782      783      797
    2045     22      795      782      783      796
    2046     22      795      782      783      797
    2047     20      798      786      787      799
    2048     22      800      790      791      802
    2049     22      800      790      791      803
    2050     16      800      790      791      806
    2051     22      801      790      791      802
    2052     22      801      790      791      803
    2053     16      801      790      791      806
    2054     11      802      791      806      807
    2055     26      802      791      806      818
    2056     26      802      791      806      819
    2057     11      803      791      806      807
    2058     26      803      791      806      818
    2059     26      803      791      806      819
    2060     20      804      792      793      805
    2061      7      806      807      808      809
    2062      4      807      808      809      810
    2063      4      807      808      809      817
    2064     24      808      807      806      818
    2065     24      808      807      806      819
    2066      2      808      809      810      811
    2067     21      808      809      810      822
    2068      2      808      809      817      816
    2069     21      808      809      817      829
    2070      8      809      808      807      820
    2071      8      809      808      807      821
    2072      5      809      810      811      812
    2073      6      809      810      811      823
    2074      5      809      817      816      812
    2075      6      809      817      816      828
    2076      1      810      809      817      816
    2077      3      810      809      817      829
    2078      2      810      811      812      813
    2079      1      810      811      812      816
    2080      1      811      810      809      817
    2081      4      811      812      813      814
    2082      1      811      812      816      817
    2083      3      811      812      816      828
    2084      6      812      811      810      822
    2085      7      812      813      814      815
    2086      8      812      813      814      824
    2087      8      812      813      814      825
    2088      6      812      816      817      829
    2089     21      813      812      811      823
    2090      2      813      812      816      817
    2091     21      813      812      816      828
    2092     24      813      814      815      826
    2093     24      813      814      815      827
    2094     17      813      814      815      830
    2095      4      814      813      812      816
    2096      9      814      815      830      831
    2097     11      814      815      830      842
    2098     11      814      815      830      843
    2099     17      815      830      831      832
    2100     16      815      830      831      844
    2101     16      815      830      831      845
    2102      3      816      812      811      823
    2103      3      817      809      810      822
    2104     22      818      806      807      820
    2105     22      818      806      807      821
    2106     22      819      806      807      820
    2107     22      819      806      807      821
    2108     20      822      810      811      823
    2109     22      824      814      815      826
    2110     22      824      814      815      827
    2111     16      824      814      815      830
    2112     22      825      814      815      826
    2113     22      825      814      815      827
    2114     16      825      814      815      830
    2115     11      826      815      830      831
    2116     26      826      815      830      842
    2117     26      826      815      830      843
    2118     11      827      815      830      831
    2119     26      827      815      830      842
    2120     26      827      815      830      843
    2121     20      828      816      817      829
    2122      7      830      831      832      833
    2123      4      831      832      833      834
    2124      4      831      832      833      841
    2125     24      832      831      830      842
    2126     24      832      831      830      843
    2127      2      832      833      834      835
    2128     21      832      833      834      846
    2129      2      832      833      841      840
    2130     21      832      833      841      853
    2131      8      833      832      831      844
    2132      8      833      832      831      845
    2133      5      833      834      835      836
    2134      6      833      834      835      847
    2135      5      833      841      840      836
    2136      6      833      841      840      852
    2137      1      834      833      841      840
    2138      3      834      833      841      853
    2139      2      834      835      836      837
    2140      1      834      835      836      840
    2141      1      835      834      833      841
    2142      4      835      836      837      838
    2143      1      835      836      840      841
    2144      3      835      836      840      852
    2145      6      836      835      834      846
    2146      7      836      837      838      839
    2147      8      836      837      838      848
    2148      8      836      837      838      849
    2149      6      836      840      841      853
    2150     21      837      836      835      847
    2151      2      837      836      840      841
    2152     21      837      836      840      852
    2153     24      837      838      839      850
    2154     24      837      838      839      851
    2155     17      837      838      839      854
    2156      4      838      837      836      840
    2157      9      838      839      854      855
    2158     11      838      839      854      866
    2159     11      838      839      854      867
    2160     17      839      854      855      856
    2161     16      839      854      855      868
    2162     16      839      854      855      869
    2163      3      840      836      835      847
    2164      3      841      833      834      846
    2165     22      842      830      831      844
    2166     22      842      830      831      845
    2167     22      843      830      831      844
    2168     22      843      830      831      845
    2169     20      846      834      835      847
    2170     22      848      838      839      850
    2171     22      848      838      839      851
    2172     16      848      838      839      854
    2173     22      849      838      839      850
    2174     22      849      838      839      851
    2175     16      849      838      839      854
    2176     11      850      839      854      855
    2177     26      850      839      854      866
    2178     26      850      839      854      867
    2179     11      851      839      854      855
    2180     26      851      839      854      866
    2181     26      851      839      854      867
    2182     20      852      840      841      853
    2183      7      854      855      856      857
    2184      4      855      856      857      858
    2185      4      855      856      857      865
    2186     24      856      855      854      866
    2187     24      856      855      854      867
    2188      2      856      857      858      859
    2189     21      856      857      858      870
    2190      2      856      857      865      864
    2191     21      856      857      865      877
    2192      8      857      856      855      868
    2193      8      857      856      855      869
    2194      5      857      858      859      860
    2195      6      857      858      859      871
    2196      5      857      865      864      860
    2197      6      857      865      864      876
    2198      1      858      857      865      864
    2199      3      858      857      865      877
    2200      2      858      859      860      861
    2201      1      858      859      860      864
    2202      1      859      858      857      865
    2203      4      859      860      861      862
    2204      1      859      860      864      865
    2205      3      859      860      864      876
    2206      6      860      859      858      870
    2207      7      860      861      862      863
    2208      8      860      861      862      872
    2209      8      860      861      862      873
    2210      6      860      864      865      877
    2211     21      861      860      859      871
    2212      2      861      860      864      865
    2213     21      861      860      864      876
    2214     24      861      862      863      874
    2215     24      861      862      863      875
    2216     17      861      862      863      878
    2217      4      862      861      860      864
    2218      9      862      863      878      879
    2219     11      862      863      878      890
    2220     11      862      863      878      891
    2221     17      863      878      879      880
    2222     16      863      878      879      892
    2223     16      863      878      879      893
    2224      3      864      860      859      871
    2225      3      865      857      858      870
    2226     22      866      854      855      868
    2227     22      866      854      855      869
    2228     22      867      854      855      868
    2229     22      867      854      855      869
    2230     20      870      858      859      871
    2231     22      872      862      863      874
    2232     22      872      862      863      875
    2233     16      872      862      863      878
    2234     22      873      862      863      874
    2235     22      873      862      863      875
    2236     16      873      862      863      878
    2237     11      874      863      878      879
    2238     26      874      863      878      890
    2239     26      874      863      878      891
    2240     11      875      863      878      879
    2241     26      875      863      878      890
    2242     26      875      863      878      891
    2243     20      876      864      865      877
    2244      7      878      879      880      881
    2245      4      879      880      881      882
    2246      4      879      880      881      889
    2247     24      880      879      878      890
    2248     24      880      879      878      891
    2249      2      880      881      882      883
    2250     21      880      881      882      894
    2251      2      880      881      889      888
    2252     21      880      881      889      901
    2253      8      881      880      879      892
    2254      8      881      880      879      893
    2255      5      881      882      883      884
    2256      6      881      882      883      895
    2257      5      881      889      888      884
    2258      6      881      889      888      900
    2259      1      882      881      889      888
    2260      3      882      881      889      901
    2261      2      882      883      884      885
    2262      1      882      883      884      888
    2263      1      883      882      881      889
    2264      4      883      884      885      886
    2265      1      883      884      888      889
    2266      3      883      884      888      900
    2267      6      884      883      882      894
    2268      7      884      885      886      887
    2269      8      884      885      886      896
    2270      8      884      885      886      897
    2271      6      884      888      889      901
    2272     21      885      884      883      895
    2273      2      885      884      888      889
    2274     21      885      884      888      900
    2275     24      885      886      887      898
    2276     24      885      886      887      899
    2277     17      885      886      887      902
    2278      4      886      885      884      888
    2279      9      886      887      902      903
    2280     11      886      887      902      914
    2281     11      886      887      902      915
    2282     17      887      902      903      904
    2283     16      887      902      903      916
    2284     16      887      902      903      917
    2285      3      888      884      883      895
    2286      3      889      881      882      894
    2287     22      890      878      879      892
    2288     22      890      878      879      893
    2289     22      891      878      879      892
    2290     22      891      878      879      893
    2291     20      894      882      883      895
    2292     22      896      886      887      898
    2293     22      896      886      887      899
    2294     16      896      886      887      902
    2295     22      897      886      887      898
    2296     22      897      886      887      899
    2297     16      897      886      887      902
    2298     11      898      887      902      903
    2299     26      898      887      902      914
    2300     26      898      887      902      915
    2301     11      899      887      902      903
    2302     26      899      887      902      914
    2303     26      899      887      902      915
    2304     20      900      888      889      901
    2305      7      902      903      904      905
    2306      4      903      904      905      906
    2307      4      903      904      905      913
    2308     24      904      903      902      914
    2309     24      904      903      902      915
    2310      2      904      905      906      907
    2311     21      904      905      906      918
    2312      2      904      905      913      912
    2313     21      904      905      913      925
    2314      8      905      904      903      916
    2315      8      905      904      903      917
    2316      5      905      906      907      908
    2317      6      905      906      907      919
    2318      5      905      913      912      908
    2319      6      905      913      912      924
    2320      1      906      905      913      912
    2321      3      906      905      913      925
    2322      2      906      907      908      909
    2323      1      906      907      908      912
    2324      1      907      906      905      913
    2325      4      907      908      909      910
    2326      1      907      908      912      913
    2327      3      907      908      912      924
    2328      6      908      907      906      918
    2329      7      908      909      910      911
    2330      8      908      909      910      920
    2331      8      908      909      910      921
    2332      6      908      912      913      925
    2333     21      909      908      907      919
    2334      2      909      908      912      913
    2335     21      909      908      912      924
    2336     24      909      910      911      922
    2337     24      909      910      911      923
    2338     17      909      910      911      935
    2339      4      910      909      908      912
    2340      9      910      911      935      934
    2341     11      910      911      935      946
    2342     11      910      911      935      947
    2343     17      911      935      934      933
    2344     16      911      935      934      944
    2345     16      911      935      934      945
    2346      3      912      908      907      919
    2347      3      913      905      906      918
    2348     22      914      902      903      916
    2349     22      914      902      903      917
    2350     22      915      902      903      916
    2351     22      915      902      903      917
    2352     20      918      906      907      919
    2353     22      920      910      911      922
    2354     22      920      910      911      923
    2355     16      920      910      911      935
    2356     22      921      910      911      922
    2357     22      921      910      911      923
    2358     16      921      910      911      935
    2359     11      922      911      935      934
    2360     26      922      911      935      946
    2361     26      922      911      935      947
    2362     11      923      911      935      934
    2363     26      923      911      935      946
    2364     26      923      911      935      947
    2365     20      924      912      913      925
    2366      7      926      927      928      929
    2367      4      927      928      929      930
    2368      4      927      928      929      937
    2369     24      928      927      926      938
    2370     24      928      927      926      939
    2371      2      928      929      930      931
    2372     21      928      929      930      942
    2373      2      928      929      937      936
    2374     21      928      929      937      949
    2375      8      929      928      927      940
    2376      8      929      928      927      941
    2377      5      929      930      931      932
    2378      6      929      930      931      943
    2379      5      929      937      936      932
    2380      6      929      937      936      948
    2381      1      930      929      937      936
    2382      3      930      929      937      949
    2383      2      930      931      932      933
    2384      1      930      931      932      936
    2385      1      931      930      929      937
    2386      4      931      932      933      934
    2387      1      931      932      936      937
    2388      3      931      932      936      948
    2389      6      932      931      930      942
    2390      7      932      933      934      935
    2391      8      932      933      934      944
    2392      8      932      933      934      945
    2393      6      932      936      937      949
    2394     21      933      932      931      943
    2395      2      933      932      936      937
    2396     21      933      932      936      948
    2397     24      933      934      935      946
    2398     24      933      934      935      947
    2399      4      934      933      932      936
    2400      3      936      932      931      943
    2401      3      937      929      930      942
    2402     22      938      926      927      940
    2403     22      938      926      927      941
    2404     22      939      926      927      940
    2405     22      939      926      927      941
    2406     20      942      930      931      943
    2407     22      944      934      935      946
    2408     22      944      934      935      947
    2409     22      945      934      935      946
    2410     22      945      934      935      947
    2411     20      948      936      937      949

Impropers

       1      2      328      329      330      337
       2      1      329      330      331      342
       3      1      330      331      332      343
       4      2      331      332      333      336
       5      1      332      336      337      348
       6      1      329      337      336      349
       7      2      352      353      354      361
       8      1      353      354      355      366
       9      1      354      355      356      367
      10      2      355      356      357      360
      11      1      356      360      361      372
      12      1      353      361      360      373
      13      2      376      377      378      385
      14      1      377      378      379      390
      15      1      378      379      380      391
      16      2      379      380      381      384
      17      1      380      384      385      396
      18      1      377      385      384      397
      19      2      400      401      402      409
      20      1      401      402      403      414
      21      1      402      403      404      415
      22      2      403      404      405      408
      23      1      404      408      409      420
      24      1      401      409      408      421
      25      2      424      425      426      433
      26      1      425      426      427      438
      27      1      426      427      428      439
      28      2      427      428      429      432
      29      1      428      432      433      444
      30      1      425      433      432      445
      31      2      448      449      450      457
      32      1      449      450      451      462
      33      1      450      451      452      463
      34      2      451      452      453      456
      35      1      452      456      457      468
      36      1      449      457      456      469
      37      2      472      473      474      481
      38      1      473      474      475      486
      39      1      474      475      476      487
      40      2      475      476      477      480
      41      1      476      480      481      492
      42      1      473      481      480      493
      43      2      496      497      498      505
      44      1      497      498      499      510
      45      1      498      499      500      511
      46      2      499      500      501      504
      47      1      500      504      505      516
      48      1      497      505      504      517
      49      2      520      521      522      529
      50      1      521      522      523      534
      51      1      522      523      524      535
      52      2      523      524      525      528
      53      1      524      528      529      540
      54      1      521      529      528      541
      55      2      544      545      546      553
      56      1      545      546      547      558
      57      1      546      547      548      559
      58      2      547      548      549      552
      59      1      548      552      553      564
      60      1      545      553      552      565
      61      2      568      569      570      577
      62      1      569      570      571      582
      63      1      570      571      572      583
      64      2      571      572      573      576
      65      1      572      576      577      588
      66      1      569      577      576      589
      67      2      592      593      594      601
      68      1      593      594      595      606
      69      1      594      595      596      607
      70      2      595      596      597      600
      71      1      596      600      601      612
      72      1      593      601      600      613
      73      2      616      617      618      625
      74      1      617      618      619      630
      75      1      618      619      620      631
      76      2      619      620      621      624
      77      1      620      624      625      636
      78      1      617      625      624      637
      79      2      640      641      642      649
      80      1      641      642      643      654
      81      1      642      643      644      655
      82      2      643      644      645      648
      83      1      644      648      649      660
      84      1      641      649      648      661
      85      2      664      665      666      673
      86      1      665      666      667      678
      87      1      666      667      668      679
      88      2      667      668      669      672
      89      1      668      672      673      684
      90      1      665      673      672      685
      91      2      688      689      690      697
      92      1      689      690      691      702
      93      1      690      691      692      703
      94      2      691      692      693      696
      95      1      692      696      697      708
      96      1      689      697      696      709
      97      2      712      713      714      721
      98      1      713      714      715      726
      99      1      714      715      716      727
     100      2      715      716      717      720
     101      1      716      720      721      732
     102      1      713      721      720      733
     103      2      736      737      738      745
     104      1      737      738      739      750
     105      1      738      739      740      751
     106      2      739      740      741      744
     107      1      740      744      745      756
     108      1      737      745      744      757
     109      2      760      761      762      769
     110      1      761      762      763      774
     111      1      762      763      764      775
     112      2      763      764      765      768
     113      1      764      768      769      780
     114      1      761      769      768      781
     115      2      784      785      786      793
     116      1      785      786      787      798
     117      1      786      787      788      799
     118      2      787      788      789      792
     119      1      788      792      793      804
     120      1      785      793      792      805
     121      2      808      809      810      817
     122      1      809      810      811      822
     123      1      810      811      812      823
     124      2      811      812      813      816
     125      1      812      816      817      828
     126      1      809      817      816      829
     127      2      832      833      834      841
     128      1      833      834      835      846
     129      1      834      835      836      847
     130      2      835      836      837      840
     131      1      836      840      841      852
     132      1      833      841      840      853
     133      2      856      857      858      865
     134      1      857      858      859      870
     135      1      858      859      860      871
     136      2      859      860      861      864
     137      1      860      864      865      876
     138      1      857      865      864      877
     139      2      880      881      882      889
     140      1      881      882      883      894
     141      1      882      883      884      895
     142      2      883      884      885      888
     143      1      884      888      889      900
     144      1      881      889      888      901
     145      2      904      905      906      913
     146      1      905      906      907      918
     147      1      906      907      908      919
     148      2      907      908      909      912
     149      1      908      912      913      924
     150      1      905      913      912      925
     151      2      928      929      930      937
     152      1      929      930      931      942
     153      1      930      931      932      943
     154      2      931      932      933      936
     155      1      932      936      937      948
     156      1      929      937      936      949

