LAMMPS data file from Part3 phase8.resolved.q.json (OPLS-AA)
# chain_id=star_orth800_uid000915_sk10_rg1_pl2_block__839323c5d5c3 topology=star
# assumes: units real; atom_style full; bond_style harmonic; angle_style harmonic; dihedral_style opls; improper_style cvff
# special_bonds lj/coul 0.0 0.0 0.5
# cvff improper: K=v2/2, d=-1, n=2

    1066 atoms
    1137 bonds
    1907 angles
    2811 dihedrals
     450 impropers

       9 atom types
      15 bond types
      19 angle types
      23 dihedral types
       2 improper types

    -78.748412       8.561742 xlo xhi
      0.336114      60.742532 ylo yhi
    -30.065790      29.780449 zlo zhi

Masses

       1     1.008000 # boss_type=HA count=270
       2     1.008000 # boss_type=HC count=147
       3    12.011000 # boss_type=CZ count=3
       4    12.011000 # boss_type=CT count=83
       5    12.011000 # boss_type=C count=414
       6    12.011000 # boss_type=CB count=36
       7    14.007000 # boss_type=NZ count=3
       8    15.999000 # boss_type=OS count=56
       9    15.999000 # boss_type=O count=54

Pair Coeffs

       1     0.030000     2.420000 # boss_type=HA count=270
       2     0.030000     2.500000 # boss_type=HC count=147
       3     0.066000     3.300000 # boss_type=CZ count=3
       4     0.066000     3.500000 # boss_type=CT count=83
       5     0.070000     3.550000 # boss_type=C count=414
       6     0.080000     3.500000 # boss_type=CB count=36
       7     0.170000     3.200000 # boss_type=NZ count=3
       8     0.140000     2.900000 # boss_type=OS count=56
       9     0.210000     2.960000 # boss_type=O count=54

Bond Coeffs

       1   650.000000     1.157000 # pattern=CZ-NZ
       2   390.000000     1.470000 # pattern=CT-CZ
       3   268.000000     1.529000 # pattern=CT-CT
       4   340.000000     1.090000 # pattern=CT-HC
       5   214.000000     1.327000 # pattern=C-OS
       6   570.000000     1.229000 # pattern=C-O
       7   400.000000     1.490000 # pattern=C-CA
       8   469.000000     1.400000 # pattern=CA-CA
       9   469.000000     1.404000 # pattern=CA-CB
      10   520.000000     1.370000 # pattern=CB-CB
      11   320.000000     1.410000 # pattern=CT-OS
      12   367.000000     1.080000 # pattern=CA-HA
      13   317.000000     1.522000 # pattern=C-CT
      14   450.000000     1.364000 # pattern=CA-OS
      15   385.000000     1.460000 # pattern=C!-C!

Angle Coeffs

       1   150.000000   180.000000 # pattern=CT-CZ-NZ
       2    58.350000   112.700000 # pattern=CT-CT-CZ
       3    35.000000   108.500000 # pattern=CZ-CT-HC
       4    37.500000   110.700000 # pattern=CT-CT-HC
       5    33.000000   107.800000 # pattern=HC-CT-HC
       6    50.000000   109.500000 # pattern=CT-CT-OS
       7    35.000000   109.500000 # pattern=HC-CT-OS
       8    83.000000   116.900000 # pattern=C-OS-CT
       9    83.000000   123.400000 # pattern=O-C-OS
      10    81.000000   111.400000 # pattern=CA-C-OS
      11    80.000000   120.400000 # pattern=CA-C-O
      12    85.000000   120.000000 # pattern=C-CA-CA
      13    63.000000   120.000000 # pattern=CA-CA-CA
      14    35.000000   120.000000 # pattern=CA-CA-HA
      15    85.000000   117.300000 # pattern=CA-CB-CB
      16    85.000000   134.900000 # pattern=CA-CB-CA
      17    63.000000   111.100000 # pattern=C-CT-CT
      18    70.000000   120.000000 # pattern=CA-CA-OS
      19    60.000000   109.500000 # pattern=CT-OS-CT

Dihedral Coeffs

       1     0.000000     0.000000     0.000000     0.000000 # pattern=CT-CT-CZ-NZ
       2     0.000000     0.000000     0.366000     0.000000 # pattern=CZ-CT-CT-HC
       3     1.300000    -0.500000     0.000000     0.000000 # pattern=CZ-CT-CT-OS
       4     0.000000     0.000000     0.300000     0.000000 # pattern=HC-CT-CT-HC
       5     0.000000     5.000000     0.000000     0.000000 # pattern=CT-OS-C-O
       6     4.000000     5.000000     0.000000     0.000000 # pattern=CA-C-OS-CT
       7     0.000000     2.100000     0.000000     0.000000 # pattern=CA-CA-C-OS
       8     0.000000     7.250000     0.000000     0.000000 # pattern=C-CA-CA-CB
       9    -1.220000    -0.126000     0.422000     0.000000 # pattern=C-OS-CT-CT
      10     0.000000     0.000000     0.198000     0.000000 # pattern=C-OS-CT-HC
      11    -0.550000     0.000000     0.000000     0.000000 # pattern=OS-CT-CT-OS
      12     0.000000     0.000000    -0.100000     0.000000 # pattern=C-CT-CT-HC
      13    -1.697000    -0.456000     0.585000     0.000000 # pattern=C-CT-CT-CT
      14     0.850000    -0.200000     0.200000     0.000000 # pattern=CT-CT-CT-CT
      15    -0.277000     1.228000    -0.694000     0.000000 # pattern=CT-CT-C-O
      16     0.000000     0.000000    -0.553000     0.000000 # pattern=CT-CT-C-OS
      17     0.000000     0.000000     0.132000     0.000000 # pattern=HC-CT-C-OS
      18     1.500000     5.000000     0.000000     0.000000 # pattern=CA-OS-C-CT
      19     0.000000     2.500000     0.000000     0.000000 # pattern=C-OS-CA-CA
      20     0.000000     1.650000     0.000000    -0.050000 # pattern=CA-C!-C!-CA
      21     0.250000    -0.250000     0.500000     0.000000 # pattern=CT-CT-OS-CT
      22     0.000000     0.000000     0.760000     0.000000 # pattern=CT-OS-CT-HC
      23     0.000000    -0.650000     0.000000     0.000000 # pattern=CT-CT-CT-CZ

Improper Coeffs

       1    10.500000  -1   2 # pattern=C-CA-O-OS
       2     2.500000  -1   2 # pattern=CA-C-CA-CA

Atoms

       1      1      7 -0.40411400   -12.040216     7.349056     0.249473
       2      1      3  0.12368300   -11.235303     7.534898    -0.565581
       3      1      4 -0.10628700   -10.202455     7.759257    -1.579339
       4      1      4 -0.02174000    -9.828713     9.233750    -1.656394
       5      1      2  0.11503200    -9.322762     7.148443    -1.349245
       6      1      2  0.11503200   -10.548970     7.419855    -2.562312
       7      1      2  0.08919700    -9.589619     9.651588    -0.673379
       8      1      2  0.08919700   -10.672528     9.817380    -2.042417
       9      1      8 -0.35276500    -8.728909     9.439313    -2.561591
      10      1      5  0.49152100    -7.499975     9.187695    -2.041189
      11      1      9 -0.44027500    -7.280639     8.746469    -0.923888
      12      1      5 -0.12555800    -6.431969     9.489806    -3.031253
      13      1      5 -0.05413800    -5.104707     9.212653    -2.674763
      14      1      6 -0.03570800    -4.050054     9.468043    -3.565966
      15      1      6 -0.03394800    -4.334565    10.014052    -4.838766
      16      1      5 -0.12494100    -5.665906    10.290857    -5.185979
      17      1      5 -0.09102800    -6.707760    10.031775    -4.290899
      18      1      5 -0.05584400    -3.279710    10.271962    -5.729243
      19      1      5 -0.12456700    -1.952269     9.997611    -5.371685
      20      1      5 -0.08586800    -1.676964     9.454019    -4.111892
      21      1      5 -0.13054700    -2.718832     9.191917    -3.218092
      22      1      5  0.49829600    -0.881028    10.321594    -6.352886
      23      1      9 -0.43960400    -1.093331    10.762038    -7.471134
      24      1      8 -0.34898800     0.336358    10.091889    -5.810216
      25      1      4 -0.00318400     1.453269    10.517228    -6.606049
      26      1      4 -0.00300800     2.690505    10.576079    -5.714661
      27      1      1  0.16527500    -4.892612     8.792864    -1.691892
      28      1      1  0.15549000    -5.903659    10.713859    -6.160710
      29      1      1  0.17158400    -7.726664    10.261002    -4.593298
      30      1      1  0.17244200    -3.489293    10.696984    -6.710238
      31      1      1  0.16597400    -0.656645     9.230168    -3.805882
      32      1      1  0.15204700    -2.478006     8.770564    -2.243611
      33      1      2  0.11971200     1.256246    11.513777    -7.018553
      34      1      2  0.11971200     1.606007     9.798997    -7.417898
      35      1      2  0.11895900     2.907571     9.597428    -5.273259
      36      1      2  0.11895900     3.561742    10.876558    -6.305039
      37      1      8 -0.35245300     2.493319    11.583736    -4.703224
      38      1      5  0.49816300     2.087503    11.136768    -3.488731
      39      1      9 -0.43806500     2.005630     9.970701    -3.135911
      40      1      5 -0.12518400     1.716458    12.277210    -2.610053
      41      1      5 -0.05464100     1.554152    13.579973    -3.102076
      42      1      6 -0.03607500     1.144505    14.621578    -2.253060
      43      1      6 -0.03501500     0.902617    14.349205    -0.886089
      44      1      5 -0.12645900     1.079960    13.045025    -0.400972
      45      1      5 -0.09146700     1.478062    12.016081    -1.256584
      46      1      5 -0.05760900     0.476507    15.385000    -0.039753
      47      1      5 -0.12661700     0.276167    16.681374    -0.536707
      48      1      5 -0.08626800     0.524906    16.946782    -1.886976
      49      1      5 -0.13102300     0.958069    15.925919    -2.736790
      50      1      5  0.48931900    -0.224289    17.792028     0.318397
      51      1      9 -0.44570200    -0.420170    18.927649    -0.082891
      52      1      8 -0.33895100    -0.453949    17.343854     1.573091
      53      1      4 -0.02543800    -1.038707    18.303569     2.465989
      54      1      4 -0.02533400    -1.247922    17.635503     3.819882
      55      1      1  0.16516300     1.726813    13.788391    -4.155795
      56      1      1  0.15406600     0.898335    12.816885     0.648147
      57      1      1  0.17056500     1.594410    11.008251    -0.861816
      58      1      1  0.17087800     0.292015    15.169255     1.011638
      59      1      1  0.16709900     0.374801    17.948402    -2.286488
      60      1      1  0.15210600     1.138649    16.158456    -3.784645
      61      1      2  0.13238800    -2.003161    18.624271     2.055812
      62      1      2  0.13238800    -0.368819    19.163475     2.573152
      63      1      2  0.13208300    -0.294903    17.274839     4.218018
      64      1      2  0.13208300    -1.664665    18.353731     4.532785
      65      1      8 -0.35245300    -2.206089    16.564732     3.684820
      66      1      5  0.49816300    -1.700190    15.307940     3.644391
      67      1      9 -0.43806500    -0.530295    14.986789     3.785253
      68      1      5 -0.12518400    -2.781840    14.315303     3.417418
      69      1      5 -0.05464100    -4.039118    14.677838     2.916494
      70      1      6 -0.03607500    -5.027500    13.704540     2.689210
      71      1      6 -0.03501500    -4.746948    12.347567     2.976244
      72      1      5 -0.12645900    -3.484654    11.996594     3.476894
      73      1      5 -0.09146700    -2.508009    12.970875     3.690545
      74      1      5 -0.05760900    -5.734870    11.374390     2.754522
      75      1      5 -0.12661700    -6.993598    11.730925     2.251066
      76      1      5 -0.08626800    -7.263096    13.072323     1.962157
      77      1      5 -0.13102300    -6.289100    14.050228     2.180738
      78      1      5  0.48931900    -8.070164    10.729716     2.019125
      79      1      9 -0.44570200    -9.130992    10.988088     1.471222
      80      1      8 -0.33895100    -7.706627     9.523762     2.521231
      81      1      4 -0.02543800    -8.716817     8.502541     2.477471
      82      1      4 -0.02533400    -9.705438     8.652433     3.633167
      83      1      1  0.16516300    -4.252477    15.720299     2.689876
      84      1      1  0.15406600    -3.249338    10.958072     3.703009
      85      1      1  0.17056500    -1.533035    12.674319     4.072506
      86      1      1  0.17087800    -5.518177    10.332288     2.979559
      87      1      1  0.16709900    -8.238224    13.363715     1.576463
      88      1      1  0.15210600    -6.529033    15.087116     1.953509
      89      1      2  0.13238800    -9.229740     8.508735     1.511035
      90      1      2  0.13238800    -8.188499     7.547151     2.564500
      91      1      2  0.13208300   -10.469221     7.870916     3.565713
      92      1      2  0.13208300   -10.221622     9.618264     3.612345
      93      1      8 -0.35245300    -9.017046     8.456531     4.885842
      94      1      5  0.49816300    -8.559377     9.579192     5.493316
      95      1      9 -0.43806500    -8.743004    10.728253     5.123764
      96      1      5 -0.12518400    -7.745748     9.235428     6.690055
      97      1      5 -0.05464100    -7.106538    10.281392     7.371197
      98      1      6 -0.03607500    -6.310930    10.028371     8.499242
      99      1      6 -0.03501500    -6.153303     8.698410     8.952984
     100      1      5 -0.12645900    -6.798331     7.657488     8.266149
     101      1      5 -0.09146700    -7.588985     7.921778     7.143710
     102      1      5 -0.05760900    -5.353963     8.446365    10.080156
     103      1      5 -0.12661700    -4.718858     9.494955    10.760117
     104      1      5 -0.08626800    -4.876392    10.808107    10.303631
     105      1      5 -0.13102300    -5.666588    11.071014     9.182079
     106      1      5  0.48931900    -3.883490     9.162134    11.945292
     107      1      9 -0.44570200    -3.577335     8.023907    12.264613
     108      1      8 -0.33895100    -3.542764    10.291196    12.616224
     109      1      4 -0.02543800    -2.656079    10.100910    13.731555
     110      1      4 -0.02533400    -1.204355    10.003218    13.266950
     111      1      1  0.16516300    -7.229494    11.303267     7.013417
     112      1      1  0.15406600    -6.688803     6.627160     8.600488
     113      1      1  0.17056500    -8.073609     7.091651     6.635403
     114      1      1  0.17087800    -5.220854     7.425184    10.435155
     115      1      1  0.16709900    -4.381091    11.636777    10.803456
     116      1      1  0.15210600    -5.771697    12.100254     8.843456
     117      1      2  0.13238800    -2.780785    10.978748    14.374188
     118      1      2  0.13238800    -2.948607     9.220963    14.315457
     119      1      2  0.13208300    -0.556683     9.814476    14.129038
     120      1      2  0.13208300    -1.052572     9.184143    12.556031
     121      1      8 -0.35245300    -0.790131    11.265598    12.706843
     122      1      5  0.49816300    -0.893256    11.382845    11.359808
     123      1      9 -0.43806500    -1.242089    10.508493    10.583312
     124      1      5 -0.12518400    -0.531439    12.757500    10.922369
     125      1      5 -0.05464100    -0.469314    13.015453     9.545407
     126      1      6 -0.03607500    -0.154155    14.296214     9.065069
     127      1      6 -0.03501500     0.097263    15.339610     9.985724
     128      1      5 -0.12645900     0.035377    15.071863    11.361959
     129      1      5 -0.09146700    -0.275666    13.791613    11.828718
     130      1      5 -0.05760900     0.402022    16.624726     9.507422
     131      1      5 -0.12661700     0.462896    16.882144     8.130287
     132      1      5 -0.08626800     0.225149    15.842317     7.226975
     133      1      5 -0.13102300    -0.083437    14.561352     7.689624
     134      1      5  0.48931900     0.761384    18.235010     7.586264
     135      1      9 -0.44570200     0.679449    18.530645     6.404595
     136      1      8 -0.33895100     1.131458    19.070254     8.584601
     137      1      4 -0.02543800     1.449278    20.407067     8.172405
     138      1      4 -0.02533400     1.663658    21.267813     9.413531
     139      1      1  0.16516300    -0.669612    12.207770     8.842154
     140      1      1  0.15406600     0.229547    15.863178    12.084545
     141      1      1  0.17056500    -0.319237    13.621083    12.901507
     142      1      1  0.17087800     0.589515    17.426272    10.220222
     143      1      1  0.16709900     0.284484    16.016906     6.155022
     144      1      1  0.15210600    -0.264125    13.773073     6.960853
     145      1      2  0.13238800     2.368517    20.380946     7.577562
     146      1      2  0.13238800     0.624342    20.812974     7.575415
     147      1      2  0.13208300     2.070771    22.240697     9.119704
     148      1      2  0.13208300     2.372351    20.804381    10.109186
     149      1      8 -0.35245300     0.398343    21.530422    10.052025
     150      1      5  0.49816300     0.056032    20.714377    11.078737
     151      1      9 -0.43806500     0.726766    19.802083    11.534653
     152      1      5 -0.12518400    -1.283688    21.085349    11.611260
     153      1      5 -0.05464100    -2.097253    22.047948    10.997098
     154      1      6 -0.03607500    -3.357185    22.370433    11.529475
     155      1      6 -0.03501500    -3.807043    21.714936    12.699071
     156      1      5 -0.12645900    -2.987679    20.750389    13.304350
     157      1      5 -0.09146700    -1.737909    20.436861    12.764681
     158      1      5 -0.05760900    -5.064430    22.042092    13.232605
     159      1      5 -0.12661700    -5.878146    23.005765    12.620528
     160      1      5 -0.08626800    -5.429514    23.648808    11.462025
     161      1      5 -0.13102300    -4.179269    23.332631    10.922877
     162      1      5  0.48931900    -7.196041    23.309137    13.242047
     163      1      9 -0.44570200    -7.587181    22.799990    14.280027
     164      1      8 -0.33895100    -7.881405    24.206939    12.493170
     165      1      4 -0.02543800    -9.158805    24.605444    13.014527
     166      1      4 -0.02533400   -10.238343    23.569790    12.708795
     167      1      1  0.16516300    -1.755508    22.553676    10.096420
     168      1      1  0.15406600    -3.315690    20.233447    14.204497
     169      1      1  0.17056500    -1.119610    19.685584    13.252765
     170      1      1  0.17087800    -5.416566    21.543454    14.135171
     171      1      1  0.16709900    -6.038462    24.401365    10.966324
     172      1      1  0.15210600    -3.852556    23.848695    10.021640
     173      1      2  0.13238800    -9.098062    24.809010    14.091340
     174      1      2  0.13238800    -9.408789    25.564268    12.547499
     175      1      2  0.13208300   -10.268283    23.329080    11.638811
     176      1      2  0.13208300   -10.016101    22.625938    13.217153
     177      1      8 -0.35245300   -11.522634    24.008774    13.179694
     178      1      5  0.49816300   -12.189580    24.847822    12.349408
     179      1      9 -0.43806500   -11.782251    25.258060    11.274342
     180      1      5 -0.12518400   -13.507756    25.225121    12.927554
     181      1      5 -0.05464100   -14.352368    26.043947    12.165135
     182      1      6 -0.03607500   -15.606259    26.443016    12.655171
     183      1      6 -0.03501500   -16.019277    26.014194    13.937864
     184      1      5 -0.12645900   -15.167472    25.192965    14.693222
     185      1      5 -0.09146700   -13.922138    24.800101    14.193849
     186      1      5 -0.05760900   -17.272326    26.417497    14.431073
     187      1      5 -0.12661700   -18.114487    27.236622    13.665849
     188      1      5 -0.08626800   -17.701525    27.651108    12.395250
     189      1      5 -0.13102300   -16.457517    27.259154    11.895586
     190      1      5  0.48931900   -19.447068    27.687827    14.150491
     191      1      9 -0.44570200   -20.233311    28.319154    13.464721
     192      1      8 -0.33895100   -19.636528    27.321984    15.441353
     193      1      4 -0.02543800   -20.906431    27.680921    16.013125
     194      1      4 -0.02533400   -20.981066    29.171214    16.343685
     195      1      1  0.16516300   -14.027228    26.372517    11.178605
     196      1      1  0.15406600   -15.466911    24.850096    15.682046
     197      1      1  0.17056500   -13.288299    24.164145    14.807009
     198      1      1  0.17087800   -17.588745    26.084626    15.417258
     199      1      1  0.16709900   -18.346278    28.283354    11.786720
     200      1      1  0.15210600   -16.160167    27.597386    10.904579
     201      1      2  0.13238800   -21.016146    27.094466    16.931792
     202      1      2  0.13238800   -21.722900    27.364880    15.353468
     203      1      2  0.13208300   -20.027318    29.501968    16.770293
     204      1      2  0.13208300   -21.140428    29.783382    15.448707
     205      1      8 -0.35245300   -21.993984    29.450717    17.325087
     206      1      5  0.49816300   -23.272965    29.422494    16.876978
     207      1      9 -0.43806500   -23.625260    29.146226    15.742040
     208      1      5 -0.12518400   -24.222352    29.755260    17.974115
     209      1      5 -0.05464100   -23.791702    30.160767    19.245963
     210      1      6 -0.03607500   -24.720175    30.463938    20.256666
     211      1      6 -0.03501500   -26.103971    30.356985    19.983489
     212      1      5 -0.12645900   -26.524955    29.953822    18.707425
     213      1      5 -0.09146700   -25.592787    29.657077    17.710645
     214      1      5 -0.05760900   -27.033455    30.655457    20.992969
     215      1      5 -0.12661700   -26.606096    31.058948    22.266007
     216      1      5 -0.08626800   -25.236657    31.166075    22.529660
     217      1      5 -0.13102300   -24.302401    30.870923    21.533822
     218      1      5  0.48931900   -27.560992    31.380747    23.361591
     219      1      9 -0.44570200   -27.222022    31.751506    24.473808
     220      1      8 -0.33895100   -28.834374    31.197691    22.944123
     221      1      4 -0.02543800   -29.842002    31.473075    23.926859
     222      1      4 -0.02533400   -31.214921    31.230249    23.306796
     223      1      1  0.16516300   -22.728026    30.245667    19.458106
     224      1      1  0.15406600   -27.586122    29.866639    18.478477
     225      1      1  0.17056500   -25.943448    29.346925    16.727344
     226      1      1  0.17087800   -28.097461    30.568737    20.777433
     227      1      1  0.16709900   -24.889331    31.479406    23.513150
     228      1      1  0.15210600   -23.242937    30.961783    21.766552
     229      1      2  0.13238800   -29.753430    32.517051    24.248315
     230      1      2  0.13238800   -29.701383    30.801094    24.780449
     231      1      2  0.13208300   -31.981277    31.269451    24.087568
     232      1      2  0.13208300   -31.274047    30.245463    22.829661
     233      1      8 -0.35245300   -31.531635    32.280774    22.372607
     234      1      5  0.49816300   -31.231161    32.045785    21.071540
     235      1      9 -0.43806500   -30.745104    31.024163    20.613352
     236      1      5 -0.12518400   -31.572229    33.231267    20.238268
     237      1      5 -0.05464100   -32.225819    34.355896    20.761920
     238      1      6 -0.03607500   -32.539707    35.452462    19.941763
     239      1      6 -0.03501500   -32.187901    35.419783    18.572294
     240      1      5 -0.12645900   -31.531077    34.291958    18.058108
     241      1      5 -0.09146700   -31.227787    33.206205    18.882738
     242      1      5 -0.05760900   -32.504997    36.513995    17.750646
     243      1      5 -0.12661700   -33.170828    37.633290    18.271155
     244      1      5 -0.08626800   -33.513059    37.660788    19.626958
     245      1      5 -0.13102300   -33.198962    36.580311    20.454673
     246      1      5  0.48931900   -33.545692    38.801974    17.428911
     247      1      9 -0.44570200   -34.123957    39.789336    17.854208
     248      1      8 -0.33895100   -33.171192    38.597093    16.145080
     249      1      4 -0.02543800   -33.541335    39.640457    15.232119
     250      1      4 -0.02533400   -33.107567    39.241892    13.824826
     251      1      1  0.16516300   -32.500201    34.384334    21.813889
     252      1      1  0.15406600   -31.251074    34.248662    17.006931
     253      1      1  0.17056500   -30.720637    32.340823    18.459645
     254      1      1  0.17087800   -32.229609    36.484595    16.697565
     255      1      1  0.16709900   -34.029255    38.523216    20.046058
     256      1      1  0.15210600   -33.478072    36.627707    21.505473
     257      1      2  0.13238800   -34.629318    39.771503    15.261933
     258      1      2  0.13238800   -33.041123    40.570619    15.523974
     259      1      2  0.13208300   -33.306183    40.065009    13.130865
     260      1      2  0.13208300   -32.034143    39.024813    13.785151
     261      1      8 -0.35245300   -33.888799    38.118369    13.371598
     262      1      5  0.49816300   -33.322726    36.895085    13.523336
     263      1      9 -0.43806500   -32.203801    36.663345    13.954064
     264      1      5 -0.12518400   -34.261867    35.825248    13.089683
     265      1      5 -0.05464100   -35.587593    36.090203    12.717403
     266      1      6 -0.03607500   -36.448834    35.047398    12.333765
     267      1      6 -0.03501500   -35.967319    33.717757    12.322175
     268      1      5 -0.12645900   -34.638519    33.463037    12.691890
     269      1      5 -0.09146700   -33.793764    34.506741    13.074586
     270      1      5 -0.05760900   -36.829160    32.675139    11.946535
     271      1      5 -0.12661700   -38.160078    32.932992    11.588512
     272      1      5 -0.08626800   -38.631116    34.249867    11.596127
     273      1      5 -0.13102300   -37.780755    35.296935    11.965369
     274      1      5  0.48931900   -39.021874    31.775417    11.225870
     275      1      9 -0.44570200   -38.611302    30.628712    11.160580
     276      1      8 -0.33895100   -40.302250    32.172475    11.021747
     277      1      4 -0.02543800   -41.235130    31.123232    10.706663
     278      1      4 -0.02533400   -41.623323    30.334326    11.956038
     279      1      1  0.16516300   -35.961591    37.111745    12.731082
     280      1      1  0.15406600   -34.249026    32.446195    12.688746
     281      1      1  0.17056500   -32.767518    34.283351    13.361363
     282      1      1  0.17087800   -36.465136    31.647802    11.938484
     283      1      1  0.16709900   -39.657277    34.479562    11.319315
     284      1      1  0.15210600   -38.171117    36.313190    11.965839
     285      1      2  0.13238800   -42.124740    31.603314    10.283097
     286      1      2  0.13238800   -40.836284    30.475828     9.916803
     287      1      2  0.13208300   -40.809994    29.684322    12.299248
     288      1      2  0.13208300   -41.817938    31.028361    12.781589
     289      1      8 -0.33348200   -42.826429    29.572968    11.762492
     290      1      5  0.49874200   -42.682183    28.412262    11.077930
     291      1      9 -0.43370300   -41.658199    28.019048    10.545216
     292      1      5 -0.11865400   -43.953874    27.639774    11.082332
     293      1      5 -0.04494600   -43.935639    26.336718    10.565340
     294      1      6 -0.02840200   -45.091200    25.539217    10.577789
     295      1      6 -0.02540900   -46.290850    26.063872    11.111781
     296      1      5 -0.11840900   -46.303887    27.375715    11.611440
     297      1      5 -0.08298400   -45.145722    28.158272    11.599084
     298      1      5 -0.05015600   -47.442294    25.259073    11.144760
     299      1      5 -0.11593000   -47.412068    23.943083    10.661628
     300      1      5 -0.07857600   -46.223928    23.433884    10.127533
     301      1      5 -0.12296000   -45.074722    24.226684    10.083140
     302      1      5  0.50287600   -48.591926    23.039519    10.735773
     303      1      9 -0.43677000   -48.552052    21.857976    10.431131
     304      1      8 -0.34643900   -49.673490    23.708744    11.206451
     305      1      4  0.01282100   -50.822559    22.911763    11.516709
     306      1      4 -0.18425200   -51.968714    23.201672    10.554748
     307      1      1  0.17549300   -43.004836    25.936672    10.163787
     308      1      1  0.16276400   -47.217180    27.798923    12.025851
     309      1      1  0.17889800   -45.189355    29.166537    12.003268
     310      1      1  0.18019300   -48.360074    25.661784    11.567951
     311      1      1  0.17392100   -46.181656    22.413052     9.752110
     312      1      1  0.16023000   -44.160685    23.804011     9.669115
     313      1      2  0.11952400   -50.603388    21.839015    11.530218
     314      1      2  0.11952400   -51.134213    23.186256    12.530130
     315      1      2  0.11804300   -52.238591    24.262903    10.616559
     316      1      2  0.11804300   -52.835731    22.625530    10.890033
     317      1      4 -0.16362600   -51.632137    22.872210     9.095524
     318      1      4 -0.11509000   -52.896207    22.763974     8.220693
     319      1      5  0.43981900   -52.594640    22.958873     6.742794
     320      1      9 -0.41884200   -53.325202    23.631445     6.019069
     321      1      8 -0.30530700   -51.464071    22.252963     6.358123
     322      1      5  0.08473000   -51.273262    22.215084     4.973530
     323      1      5 -0.13470200   -51.397384    20.980702     4.343076
     324      1      5 -0.11216300   -51.264811    20.898295     2.955368
     325      1      5 -0.04046300   -50.991255    22.043108     2.189096
     326      1      5 -0.04256200   -50.884126    21.960785     0.725351
     327      1      5 -0.12120600   -49.942753    21.114878     0.117102
     328      1      5 -0.13884900   -49.830640    21.047234    -1.274013
     329      1      5 -0.13150500   -50.670001    21.813731    -2.079612
     330      1      5 -0.13853000   -51.618116    22.650016    -1.495356
     331      1      5 -0.12004700   -51.721094    22.725793    -0.104043
     332      1      5 -0.10802300   -50.828658    23.270463     2.857861
     333      1      5 -0.13570100   -50.956726    23.359000     4.247005
     334      1      2  0.11000200   -50.968730    23.652561     8.701217
     335      1      2  0.11000200   -51.069599    21.931660     9.042668
     336      1      2  0.15629000   -53.553434    23.604798     8.486063
     337      1      1  0.15730400   -51.633940    20.091613     4.920556
     338      1      1  0.14904400   -51.394636    19.932421     2.468926
     339      1      1  0.14272500   -49.279861    20.507489     0.730473
     340      1      1  0.14182900   -49.090714    20.391948    -1.725695
     341      1      1  0.13973200   -50.586788    21.758865    -3.161907
     342      1      1  0.14223200   -52.278699    23.247882    -2.118883
     343      1      1  0.14470400   -52.470845    23.385373     0.329998
     344      1      1  0.14991900   -50.600348    24.171560     2.291321
     345      1      1  0.15828400   -50.840894    24.317983     4.742259
     346      1      4 -0.17972500   -53.665238    21.454804     8.493892
     347      1      4 -0.00050300   -54.730948    21.105222     7.454939
     348      1      8 -0.38182900   -54.071292    20.477964     6.363079
     349      1      4  0.04474000   -54.864862    20.179734     5.202557
     350      1      4 -0.03049700   -56.152118    19.403677     5.513015
     351      1      4  0.00826700   -55.086700    21.425533     4.334301
     352      1      8 -0.38595900   -55.707894    21.065198     3.093930
     353      1      2  0.10515400   -54.159218    21.541707     9.468574
     354      1      2  0.10515400   -52.953972    20.621819     8.565471
     355      1      2  0.07644200   -55.289242    21.991931     7.140020
     356      1      2  0.07644200   -55.421284    20.388304     7.909208
     357      1      2  0.11125200   -54.240597    19.492668     4.617957
     358      1      2  0.13360000   -56.497466    18.898832     4.606350
     359      1      2  0.13360000   -55.948266    18.648655     6.279406
     360      1      2  0.09193100   -55.714740    22.164190     4.844021
     361      1      2  0.09193100   -54.122187    21.903772     4.142486
     362      1      8 -0.32274600   -57.207668    20.297541     5.916594
     363      1      5  0.50619600   -58.083151    19.819349     6.830003
     364      1      9 -0.46537100   -58.017544    18.738530     7.393236
     365      1      5 -0.12064000   -59.194618    20.784451     7.027832
     366      1      5 -0.04556200   -60.354121    20.323919     7.661325
     367      1      6 -0.03809700   -61.445679    21.177094     7.869587
     368      1      6 -0.03639300   -61.370082    22.524625     7.448448
     369      1      5 -0.13412100   -60.201691    22.978193     6.815408
     370      1      5 -0.09181100   -59.121693    22.115350     6.602931
     371      1      5 -0.05770300   -62.462901    23.377709     7.677663
     372      1      5 -0.12853900   -63.621391    22.904692     8.308658
     373      1      5 -0.09245900   -63.690629    21.566143     8.704253
     374      1      5 -0.12661100   -62.612043    20.708844     8.486263
     375      1      5  0.49831000   -64.712278    23.868923     8.614113
     376      1      9 -0.44382200   -64.584066    25.077025     8.496692
     377      1      8 -0.34913600   -65.795575    23.215992     9.103144
     378      1      4 -0.00339800   -66.759626    24.016936     9.813071
     379      1      4 -0.00350400   -66.744619    23.581769    11.276959
     380      1      1  0.17879700   -60.413244    19.286801     7.987202
     381      1      1  0.15073100   -60.126263    24.010030     6.476507
     382      1      1  0.16606400   -58.233526    22.497602     6.105653
     383      1      1  0.16903700   -62.413370    24.421486     7.370699
     384      1      1  0.16288000   -64.581065    21.173793     9.185895
     385      1      1  0.15362400   -62.695565    19.667004     8.793893
     386      1      2  0.11838700   -67.743640    23.832107     9.371511
     387      1      2  0.11838700   -66.543545    25.087772     9.737179
     388      1      2  0.11875000   -67.443850    24.189375    11.860984
     389      1      2  0.11875000   -67.012810    22.521280    11.351124
     390      1      4  0.00873000   -55.519486    22.091074     2.113503
     391      1      4 -0.12917000   -56.299880    21.731645     0.851492
     392      1      5  0.43937800   -56.426924    22.973260    -0.009585
     393      1      9 -0.41704600   -55.546588    23.808330    -0.165048
     394      1      8 -0.30969200   -57.691102    22.967231    -0.604217
     395      1      5  0.07090900   -58.085781    24.000706    -1.472565
     396      1      5 -0.13671300   -58.837075    23.619391    -2.581830
     397      1      5 -0.11799200   -59.298034    24.592791    -3.472380
     398      1      5 -0.03937800   -59.031711    25.955914    -3.257902
     399      1      5 -0.05081700   -59.502074    26.982584    -4.203938
     400      1      5 -0.12606000   -60.226089    28.102616    -3.760993
     401      1      5 -0.14409200   -60.649816    29.088639    -4.656412
     402      1      5 -0.13580300   -60.356174    28.971234    -6.012413
     403      1      5 -0.14366700   -59.645233    27.866857    -6.473884
     404      1      5 -0.12454000   -59.225083    26.880570    -5.577654
     405      1      5 -0.11568300   -58.291665    26.311691    -2.115013
     406      1      5 -0.13683800   -57.825335    25.343299    -1.219908
     407      1      2  0.08922700   -55.879797    23.042186     2.525472
     408      1      2  0.08922700   -54.450211    22.194760     1.893646
     409      1      2  0.14995700   -57.310964    21.445240     1.159534
     410      1      1  0.15143200   -59.067113    22.572828    -2.763745
     411      1      1  0.14476500   -59.880504    24.275432    -4.336549
     412      1      1  0.13702000   -60.470949    28.211456    -2.706521
     413      1      1  0.13686900   -61.208101    29.947404    -4.293610
     414      1      1  0.13487300   -60.685908    29.735628    -6.710995
     415      1      1  0.13740500   -59.417255    27.770067    -7.532186
     416      1      1  0.13932500   -58.661853    26.030671    -5.958910
     417      1      1  0.14563600   -58.056590    27.356875    -1.922106
     418      1      1  0.15273800   -57.260003    25.655051    -0.347139
     419      1      8 -0.35245300   -65.408130    23.751649    11.776150
     420      1      5  0.49816300   -65.209334    23.359114    13.054941
     421      1      9 -0.43806500   -66.070079    22.988414    13.834789
     422      1      5 -0.12518400   -63.759867    23.445765    13.381206
     423      1      5 -0.05464100   -62.784353    23.585022    12.381834
     424      1      6 -0.03607500   -61.422624    23.667764    12.708617
     425      1      6 -0.03501500   -61.034578    23.615278    14.066499
     426      1      5 -0.12645900   -62.015246    23.455154    15.060079
     427      1      5 -0.09146700   -63.368130    23.366700    14.720497
     428      1      5 -0.05760900   -59.674563    23.729677    14.391370
     429      1      5 -0.12661700   -58.703053    23.878315    13.389330
     430      1      5 -0.08626800   -59.090180    23.912405    12.047682
     431      1      5 -0.13102300   -60.442545    23.809930    11.711867
     432      1      5  0.48931900   -57.284704    23.989530    13.810215
     433      1      9 -0.44570200   -56.956731    24.257025    14.954989
     434      1      8 -0.33895100   -56.448267    23.675522    12.787104
     435      1      4 -0.02543800   -55.072523    23.451589    13.160227
     436      1      4 -0.02533400   -54.794422    21.945606    13.179056
     437      1      1  0.16516300   -63.080980    23.636887    11.336943
     438      1      1  0.15406600   -61.731904    23.405877    16.110293
     439      1      1  0.17056500   -64.113434    23.247022    15.505233
     440      1      1  0.17087800   -59.363406    23.701070    15.435591
     441      1      1  0.16709900   -58.355483    24.031627    11.255717
     442      1      1  0.15210600   -60.727348    23.848101    10.661339
     443      1      2  0.13238800   -54.828452    23.910394    14.124021
     444      1      2  0.13238800   -54.444350    23.937041    12.406768
     445      1      2  0.13208300   -53.776463    21.723639    13.513819
     446      1      2  0.13208300   -54.901744    21.546631    12.164743
     447      1      4 -0.15516200   -55.653074    20.617106     0.008284
     448      1      4 -0.12204400   -55.725237    19.183743     0.581122
     449      1      5  0.43960400   -54.896063    18.313124    -0.357964
     450      1      9 -0.41105600   -55.294985    17.935843    -1.453658
     451      1      8 -0.31160400   -53.651983    18.073728     0.206869
     452      1      5  0.08092300   -52.836777    17.294552    -0.612708
     453      1      5 -0.13667100   -52.835579    15.911911    -0.465645
     454      1      5 -0.11234400   -51.982140    15.140303    -1.254662
     455      1      5 -0.03890200   -51.121081    15.739708    -2.190096
     456      1      5 -0.04613900   -50.230505    14.917153    -3.021477
     457      1      5 -0.12204700   -50.748365    13.910463    -3.852775
     458      1      5 -0.13968300   -49.904707    13.112788    -4.629536
     459      1      5 -0.13132600   -48.527155    13.310494    -4.587314
     460      1      5 -0.13902800   -47.994045    14.308813    -3.775314
     461      1      5 -0.12039100   -48.839653    15.107637    -3.001199
     462      1      5 -0.10737000   -51.132326    17.141585    -2.303607
     463      1      5 -0.13816200   -51.982613    17.920026    -1.514204
     464      1      2  0.11973200   -56.117455    20.612674    -0.988694
     465      1      2  0.11973200   -54.600741    20.878828    -0.173141
     466      1      2  0.15223200   -55.272550    19.149857     1.577345
     467      1      1  0.15485900   -53.485874    15.426353     0.255221
     468      1      1  0.14910100   -51.984227    14.060761    -1.119866
     469      1      1  0.14113900   -51.823319    13.751858    -3.909738
     470      1      1  0.14128900   -50.326214    12.342983    -5.270546
     471      1      1  0.13945200   -47.869389    12.691166    -5.191672
     472      1      1  0.14205800   -46.919197    14.466366    -3.742744
     473      1      1  0.14385800   -48.403504    15.875494    -2.366024
     474      1      1  0.15082900   -50.482674    17.636441    -3.022129
     475      1      1  0.15712100   -51.983819    19.000620    -1.609985
     476      1      8 -0.35245300   -55.766699    21.251715    13.976222
     477      1      5  0.49816300   -55.641333    21.395249    15.319699
     478      1      9 -0.43806500   -54.664839    21.836028    15.901242
     479      1      5 -0.12518400   -56.943133    21.064797    15.957878
     480      1      5 -0.05464100   -57.210566    21.588976    17.228330
     481      1      6 -0.03607500   -58.465617    21.402866    17.829279
     482      1      6 -0.03501500   -59.459976    20.669007    17.141478
     483      1      5 -0.12645900   -59.176444    20.134996    15.878571
     484      1      5 -0.09146700   -57.927343    20.327335    15.289854
     485      1      5 -0.05760900   -60.723929    20.499642    17.722645
     486      1      5 -0.12661700   -61.012405    21.052718    18.976309
     487      1      5 -0.08626800   -60.030343    21.780998    19.654251
     488      1      5 -0.13102300   -58.764438    21.949247    19.086843
     489      1      5  0.48931900   -62.359670    20.933940    19.588244
     490      1      9 -0.44570200   -62.764029    21.657837    20.482832
     491      1      8 -0.33895100   -63.053506    19.933040    18.995559
     492      1      4 -0.02543800   -64.433982    19.813679    19.386381
     493      1      4 -0.02533400   -65.285350    20.795290    18.583566
     494      1      1  0.16516300   -56.442453    22.173165    17.733156
     495      1      1  0.15406600   -59.935144    19.576522    15.335221
     496      1      1  0.17056500   -57.741280    19.909855    14.304016
     497      1      1  0.17087800   -61.491195    19.948830    17.181425
     498      1      1  0.16709900   -60.247613    22.227143    20.623267
     499      1      1  0.15210600   -58.015929    22.524302    19.629308
     500      1      2  0.13238800   -64.549953    19.973426    20.464203
     501      1      2  0.13238800   -64.724782    18.780570    19.173498
     502      1      2  0.13208300   -64.919559    21.818780    18.711881
     503      1      2  0.13208300   -66.330104    20.777492    18.913983
     504      1      4 -0.15516200   -57.179578    18.661691     0.658567
     505      1      4 -0.12204400   -57.386071    17.445472     1.586802
     506      1      5  0.43960400   -56.723854    16.198731     1.030152
     507      1      9 -0.41105600   -55.609606    15.847969     1.405759
     508      1      8 -0.31160400   -57.489962    15.624667     0.030233
     509      1      5  0.08092300   -56.869970    14.496435    -0.503609
     510      1      5 -0.13667100   -56.996112    13.271625     0.141547
     511      1      5 -0.11234400   -56.354037    12.150874    -0.387928
     512      1      5 -0.03890200   -55.584689    12.238101    -1.562890
     513      1      5 -0.04613900   -54.856851    11.064155    -2.078969
     514      1      5 -0.12204700   -53.493673    11.146741    -2.411311
     515      1      5 -0.13968300   -52.791073    10.031811    -2.876159
     516      1      5 -0.13132600   -53.440219     8.808065    -3.012023
     517      1      5 -0.13902800   -54.789515     8.700595    -2.685170
     518      1      5 -0.12039100   -55.490205     9.819379    -2.225380
     519      1      5 -0.10737000   -55.512109    13.484411    -2.212305
     520      1      5 -0.13816200   -56.158714    14.609518    -1.693083
     521      1      2  0.11973200   -57.827029    19.459859     1.032594
     522      1      2  0.11973200   -57.547058    18.421257    -0.347566
     523      1      2  0.15223200   -56.870974    17.638155     2.536820
     524      1      1  0.15485900   -57.558649    13.190313     1.065469
     525      1      1  0.14910100   -56.431475    11.207595     0.149385
     526      1      1  0.14113900   -52.958768    12.084674    -2.284800
     527      1      1  0.14128900   -51.735904    10.120830    -3.120620
     528      1      1  0.13945200   -52.895041     7.937936    -3.367764
     529      1      1  0.14205800   -55.299524     7.745728    -2.781973
     530      1      1  0.14385800   -56.544303     9.712577    -1.979535
     531      1      1  0.15082900   -54.942406    13.590974    -3.133111
     532      1      1  0.15712100   -56.079845    15.565513    -2.202816
     533      1      8 -0.35245300   -65.193388    20.510960    17.173037
     534      1      5  0.49816300   -66.012067    19.526560    16.729273
     535      1      9 -0.43806500   -66.777609    18.866199    17.413412
     536      1      5 -0.12518400   -65.885035    19.365536    15.260452
     537      1      5 -0.05464100   -66.965346    18.808320    14.563571
     538      1      6 -0.03607500   -66.916472    18.652444    13.170180
     539      1      6 -0.03501500   -65.750715    19.041271    12.471970
     540      1      5 -0.12645900   -64.659504    19.565455    13.184579
     541      1      5 -0.09146700   -64.727081    19.733255    14.569956
     542      1      5 -0.05760900   -65.716979    18.913027    11.075124
     543      1      5 -0.12661700   -66.828027    18.434873    10.363735
     544      1      5 -0.08626800   -67.969072    18.030534    11.061483
     545      1      5 -0.13102300   -68.007997    18.133012    12.455174
     546      1      5  0.48931900   -66.769108    18.459203     8.878168
     547      1      9 -0.44570200   -65.856226    18.984886     8.259980
     548      1      8 -0.33895100   -67.869923    17.887816     8.326061
     549      1      4 -0.02543800   -68.020563    18.123480     6.917735
     550      1      4 -0.02533400   -67.156365    17.206032     6.057550
     551      1      1  0.16516300   -67.859222    18.517724    15.114067
     552      1      1  0.15406600   -63.749894    19.861085    12.664796
     553      1      1  0.17056500   -63.871599    20.146724    15.098497
     554      1      1  0.17087800   -64.822706    19.209686    10.531361
     555      1      1  0.16709900   -68.844826    17.655190    10.537551
     556      1      1  0.15210600   -68.911279    17.824298    12.979371
     557      1      2  0.13238800   -69.076382    17.961435     6.671212
     558      1      2  0.13238800   -67.830076    19.179312     6.690282
     559      1      2  0.13208300   -67.582683    16.196659     6.041865
     560      1      2  0.13208300   -66.137888    17.141847     6.456029
     561      1      4 -0.15516200   -58.892110    17.245757     1.887467
     562      1      4 -0.12204400   -59.292132    17.923167     3.212902
     563      1      5  0.43960400   -60.735815    18.395123     3.190187
     564      1      9 -0.41105600   -61.653649    17.777572     2.671307
     565      1      8 -0.31160400   -60.815201    19.596623     3.887887
     566      1      5  0.08092300   -62.098333    20.119534     4.061079
     567      1      5 -0.13667100   -62.374789    21.358824     3.497742
     568      1      5 -0.11234400   -63.621149    21.949799     3.721668
     569      1      5 -0.03890200   -64.600739    21.321079     4.514317
     570      1      5 -0.04613900   -65.928668    21.939027     4.729905
     571      1      5 -0.12204700   -66.592655    22.626037     3.697378
     572      1      5 -0.13968300   -67.851046    23.203561     3.894442
     573      1      5 -0.13132600   -68.475859    23.106539     5.133322
     574      1      5 -0.13902800   -67.843131    22.432130     6.171729
     575      1      5 -0.12039100   -66.584944    21.856335     5.969820
     576      1      5 -0.10737000   -64.268820    20.080158     5.091304
     577      1      5 -0.13816200   -63.026640    19.478819     4.872156
     578      1      2  0.11973200   -59.478628    17.674023     1.063084
     579      1      2  0.11973200   -59.169510    16.189192     1.900453
     580      1      2  0.15223200   -58.689416    18.839162     3.297651
     581      1      1  0.15485900   -61.630978    21.869425     2.894589
     582      1      1  0.14910100   -63.815510    22.924611     3.280294
     583      1      1  0.14113900   -66.138203    22.705314     2.712215
     584      1      1  0.14128900   -68.340200    23.728433     3.078312
     585      1      1  0.13945200   -69.452034    23.557460     5.289293
     586      1      1  0.14205800   -68.321766    22.353773     7.143740
     587      1      1  0.14385800   -66.115267    21.342946     6.806104
     588      1      1  0.15082900   -64.984578    19.556602     5.721288
     589      1      1  0.15712100   -62.800723    18.525296     5.339459
     590      1      8 -0.35245300   -67.138018    17.745271     4.727234
     591      1      5  0.49816300   -66.200524    17.205341     3.909498
     592      1      9 -0.43806500   -65.527966    16.217140     4.155453
     593      1      5 -0.12518400   -66.038673    18.047523     2.692580
     594      1      5 -0.05464100   -64.891944    17.861722     1.911295
     595      1      6 -0.03607500   -64.619738    18.699740     0.817982
     596      1      6 -0.03501500   -65.527485    19.731178     0.487767
     597      1      5 -0.12645900   -66.698924    19.878323     1.247390
     598      1      5 -0.09146700   -66.950741    19.049345     2.345311
     599      1      5 -0.05760900   -65.229101    20.596704    -0.580110
     600      1      5 -0.12661700   -64.040831    20.450812    -1.311572
     601      1      5 -0.08626800   -63.157862    19.415563    -0.990045
     602      1      5 -0.13102300   -63.449018    18.545757     0.061495
     603      1      5  0.48931900   -63.663139    21.366466    -2.422126
     604      1      9 -0.44570200   -62.612545    21.281586    -3.036492
     605      1      8 -0.33895100   -64.632994    22.288855    -2.634586
     606      1      4 -0.02543800   -64.406122    23.183234    -3.735501
     607      1      4 -0.02533400   -63.448277    24.314388    -3.364309
     608      1      1  0.16516300   -64.178257    17.085983     2.187597
     609      1      1  0.15406600   -67.416051    20.661515     1.009844
     610      1      1  0.17056500   -67.848171    19.217834     2.935262
     611      1      1  0.17087800   -65.925206    21.394974    -0.827610
     612      1      1  0.16709900   -62.234820    19.281917    -1.551512
     613      1      1  0.15210600   -62.741761    17.752996     0.300416
     614      1      2  0.13238800   -64.064497    22.631392    -4.619460
     615      1      2  0.13238800   -65.380661    23.604438    -4.007580
     616      1      2  0.13208300   -63.731322    24.733159    -2.392160
     617      1      2  0.13208300   -62.417291    23.960945    -3.251562
     618      1      4 -0.15516200   -59.055400    17.094844     4.493591
     619      1      4 -0.12204400   -59.808129    15.746254     4.610211
     620      1      5  0.43960400   -59.038701    14.590731     3.987719
     621      1      9 -0.41105600   -57.924940    14.692189     3.495148
     622      1      8 -0.31160400   -59.842342    13.452617     4.011070
     623      1      5  0.08092300   -59.382497    12.275060     3.404638
     624      1      5 -0.13667100   -60.291032    11.604333     2.590120
     625      1      5 -0.11234400   -59.913481    10.409563     1.971252
     626      1      5 -0.03890200   -58.632260     9.864373     2.164222
     627      1      5 -0.04613900   -58.216205     8.619416     1.488036
     628      1      5 -0.12204700   -58.491271     8.404160     0.125974
     629      1      5 -0.13968300   -58.090173     7.230320    -0.519004
     630      1      5 -0.13132600   -57.401014     6.248170     0.186403
     631      1      5 -0.13902800   -57.115651     6.438100     1.535394
     632      1      5 -0.12039100   -57.520779     7.611378     2.178502
     633      1      5 -0.10737000   -57.752578    10.553777     3.018382
     634      1      5 -0.13816200   -58.119823    11.748501     3.644021
     635      1      2  0.11973200   -57.977867    16.937830     4.620376
     636      1      2  0.11973200   -59.375628    17.730755     5.327565
     637      1      2  0.15223200   -60.736297    15.815242     4.029817
     638      1      1  0.15485900   -61.287360    12.006409     2.429052
     639      1      1  0.14910100   -60.636491     9.899018     1.338283
     640      1      1  0.14113900   -59.010548     9.164510    -0.454197
     641      1      1  0.14128900   -58.313045     7.088525    -1.573225
     642      1      1  0.13945200   -57.086745     5.336114    -0.313543
     643      1      1  0.14205800   -56.578725     5.674466     2.092022
     644      1      1  0.14385800   -57.290403     7.730691     3.235472
     645      1      1  0.15082900   -56.748047    10.172974     3.183963
     646      1      1  0.15712100   -57.402871    12.255200     4.284395
     647      1      8 -0.35245300   -63.525210    25.383285    -4.322189
     648      1      5  0.49816300   -62.851898    25.179879    -5.481359
     649      1      9 -0.43806500   -62.176391    24.200435    -5.752980
     650      1      5 -0.12518400   -63.106252    26.289732    -6.437772
     651      1      5 -0.05464100   -62.642120    26.143006    -7.752356
     652      1      6 -0.03607500   -62.876943    27.136757    -8.714984
     653      1      6 -0.03501500   -63.588241    28.302879    -8.349894
     654      1      5 -0.12645900   -64.039561    28.446503    -7.028432
     655      1      5 -0.09146700   -63.802647    27.448131    -6.078912
     656      1      5 -0.05760900   -63.835968    29.288979    -9.319022
     657      1      5 -0.12661700   -63.398448    29.124245   -10.640919
     658      1      5 -0.08626800   -62.685322    27.973355   -10.992692
     659      1      5 -0.13102300   -62.425469    26.989721   -10.035091
     660      1      5  0.48931900   -63.731787    30.185438   -11.628883
     661      1      9 -0.44570200   -64.213557    31.265674   -11.327852
     662      1      8 -0.33895100   -63.459732    29.762440   -12.888201
     663      1      4 -0.02543800   -63.855189    30.658857   -13.934744
     664      1      4 -0.02533400   -62.793135    31.718239   -14.198982
     665      1      1  0.16516300   -62.097096    25.240172    -8.025529
     666      1      1  0.15406600   -64.584623    29.338923    -6.725962
     667      1      1  0.17056500   -64.163805    27.591172    -5.063576
     668      1      1  0.17087800   -64.388664    30.188101    -9.048895
     669      1      1  0.16709900   -62.328821    27.822244   -12.008872
     670      1      1  0.15210600   -61.873762    26.099260   -10.332299
     671      1      2  0.13238800   -64.830714    31.114898   -13.721893
     672      1      2  0.13238800   -64.004902    30.057550   -14.839014
     673      1      2  0.13208300   -61.851029    31.233203   -14.481374
     674      1      2  0.13208300   -62.614465    32.318141   -13.299681
     675      1      4 -0.15516200   -60.220391    15.437834     6.070402
     676      1      4 -0.12204400   -59.114850    15.566778     7.155119
     677      1      5  0.43960400   -59.779108    16.078012     8.450692
     678      1      9 -0.41105600   -60.749952    16.826157     8.481933
     679      1      8 -0.31160400   -59.107672    15.595358     9.564416
     680      1      5  0.08092300   -59.735207    15.884425    10.775889
     681      1      5 -0.13667100   -59.450659    17.073227    11.437689
     682      1      5 -0.11234400   -59.995315    17.288512    12.705635
     683      1      5 -0.03890200   -60.815575    16.322022    13.316212
     684      1      5 -0.04613900   -61.352121    16.523384    14.669216
     685      1      5 -0.12204700   -62.735800    16.533172    14.906795
     686      1      5 -0.13968300   -63.240998    16.693549    16.199773
     687      1      5 -0.13132600   -62.369461    16.848867    17.274396
     688      1      5 -0.13902800   -60.993751    16.840532    17.059017
     689      1      5 -0.12039100   -60.489775    16.678847    15.766242
     690      1      5 -0.10737000   -61.088102    15.134731    12.614409
     691      1      5 -0.13816200   -60.544459    14.908758    11.350068
     692      1      2  0.11973200   -60.678779    14.443008     6.141812
     693      1      2  0.11973200   -61.040460    16.135245     6.285231
     694      1      2  0.15223200   -58.392140    16.333614     6.869658
     695      1      1  0.15485900   -58.802606    17.817233    10.984859
     696      1      1  0.14910100   -59.766615    18.215395    13.224685
     697      1      1  0.14113900   -63.433511    16.413857    14.079964
     698      1      1  0.14128900   -64.315267    16.689567    16.367692
     699      1      1  0.13945200   -62.762385    16.971956    18.280456
     700      1      1  0.14205800   -60.312238    16.956324    17.897678
     701      1      1  0.14385800   -59.411685    16.660229    15.617451
     702      1      1  0.15082900   -61.707903    14.363959    13.069270
     703      1      1  0.15712100   -60.741858    13.975058    10.833426
     704      1      8 -0.33348200   -63.258105    32.559621   -15.260882
     705      1      5  0.49874200   -62.380590    33.516686   -15.648074
     706      1      9 -0.43370300   -61.256692    33.682680   -15.203337
     707      1      5 -0.11865400   -62.967397    34.330059   -16.743590
     708      1      5 -0.04494600   -64.348811    34.372698   -16.975715
     709      1      6 -0.02840200   -64.876136    35.143010   -18.023237
     710      1      6 -0.02540900   -64.000418    35.883599   -18.851346
     711      1      5 -0.11840900   -62.619044    35.840974   -18.603058
     712      1      5 -0.08298400   -62.106083    35.075573   -17.553351
     713      1      5 -0.05015600   -64.530272    36.652520   -19.900989
     714      1      5 -0.11593000   -65.913001    36.696367   -20.130314
     715      1      5 -0.07857600   -66.772834    35.965877   -19.303669
     716      1      5 -0.12296000   -66.257705    35.192679   -18.261361
     717      1      5  0.50287600   -66.515147    37.531396   -21.203349
     718      1      9 -0.43677000   -67.711266    37.758089   -21.286941
     719      1      8 -0.34643900   -65.551567    38.015173   -22.024770
     720      1      4  0.01282100   -65.985022    38.971728   -23.006719
     721      1      4 -0.18425200   -66.069470    40.364847   -22.380224
     722      1      1  0.17549300   -65.023022    33.814481   -16.328969
     723      1      1  0.16276400   -61.926941    36.407793   -19.223623
     724      1      1  0.17889800   -61.032104    35.058653   -17.375383
     725      1      1  0.18019300   -63.855424    37.225627   -20.533594
     726      1      1  0.17392100   -67.849105    35.995417   -19.466394
     727      1      1  0.16023000   -66.947121    34.631761   -17.632799
     728      1      2  0.11952400   -65.244752    38.964564   -23.813929
     729      1      2  0.11952400   -66.944386    38.673835   -23.445485
     730      1      2  0.11804300   -66.427507    41.075550   -23.132656
     731      1      2  0.11804300   -66.803994    40.347729   -21.566706
     732      1      4 -0.15516200   -58.360471    14.225493     7.354119
     733      1      4 -0.12204400   -56.914497    14.421212     7.874249
     734      1      5  0.43960400   -55.957958    14.644495     6.710160
     735      1      9 -0.41105600   -55.831347    13.863406     5.777795
     736      1      8 -0.31160400   -55.249374    15.820456     6.924725
     737      1      5  0.08092300   -54.160413    16.063568     6.080131
     738      1      5 -0.13667100   -52.930822    16.276744     6.694310
     739      1      5 -0.11234400   -51.808182    16.561523     5.911510
     740      1      5 -0.03890200   -51.896329    16.663517     4.510000
     741      1      5 -0.04613900   -50.703492    16.962960     3.681061
     742      1      5 -0.12204700   -50.545000    16.409737     2.398883
     743      1      5 -0.13968300   -49.444480    16.722460     1.593674
     744      1      5 -0.13132600   -48.459463    17.583442     2.062294
     745      1      5 -0.13902800   -48.576514    18.130487     3.335180
     746      1      5 -0.12039100   -49.684103    17.821423     4.133001
     747      1      5 -0.10737000   -53.166418    16.467561     3.928316
     748      1      5 -0.13816200   -54.293472    16.167722     4.702031
     749      1      2  0.11973200   -58.932250    13.593179     8.043666
     750      1      2  0.11973200   -58.324505    13.672146     6.410906
     751      1      2  0.15223200   -56.866329    15.303168     8.520879
     752      1      1  0.15485900   -52.837739    16.202247     7.773837
     753      1      1  0.14910100   -50.850543    16.681982     6.412507
     754      1      1  0.14113900   -51.279734    15.709386     2.007052
     755      1      1  0.14128900   -49.364543    16.285602     0.601627
     756      1      1  0.13945200   -47.603571    17.825776     1.438929
     757      1      1  0.14205800   -47.813440    18.808627     3.709207
     758      1      1  0.14385800   -49.749892    18.290353     5.112014
     759      1      1  0.15082900   -53.299971    16.544968     2.850176
     760      1      1  0.15712100   -55.250137    16.002226     4.213419
     761      1      4 -0.16834700   -64.715079    40.825900   -21.824398
     762      1      4 -0.11997400   -64.838728    41.992471   -20.825468
     763      1      5  0.43817900   -63.511100    42.125995   -20.086979
     764      1      9 -0.42319300   -62.692089    43.014594   -20.261880
     765      1      8 -0.29494300   -63.416758    41.066323   -19.177242
     766      1      5  0.07185100   -62.356695    40.812486   -18.277915
     767      1      5 -0.13577200   -61.349719    41.716309   -17.967575
     768      1      5 -0.11639400   -60.373988    41.356960   -17.029961
     769      1      5 -0.03535600   -60.397095    40.104003   -16.390351
     770      1      5 -0.04175000   -59.375580    39.739032   -15.395733
     771      1      5 -0.12190100   -58.006519    39.829581   -15.696861
     772      1      5 -0.13944600   -57.036837    39.478314   -14.754115
     773      1      5 -0.13214700   -57.420617    39.031331   -13.492324
     774      1      5 -0.13624100   -58.772392    38.935192   -13.172459
     775      1      5 -0.12070800   -59.740731    39.286026   -14.116549
     776      1      5 -0.11195700   -61.429345    39.212765   -16.722733
     777      1      5 -0.12198300   -62.402441    39.563636   -17.659347
     778      1      2  0.11194300   -64.221246    39.983351   -21.326003
     779      1      2  0.11194300   -64.054691    41.107164   -22.654902
     780      1      2  0.13478300   -65.595632    41.737305   -20.074846
     781      1      1  0.15394900   -61.297063    42.700376   -18.419912
     782      1      1  0.14810500   -59.594883    42.077389   -16.785475
     783      1      1  0.14147700   -57.684249    40.163994   -16.680956
     784      1      1  0.14130200   -55.982679    39.550389   -15.008374
     785      1      1  0.13921800   -56.666884    38.756359   -12.759405
     786      1      1  0.14635200   -59.075138    38.587176   -12.188242
     787      1      1  0.14890800   -60.790995    39.212513   -13.842029
     788      1      1  0.15302500   -61.482415    38.232525   -16.252989
     789      1      1  0.17907700   -63.203081    38.866511   -17.887697
     790      1      4 -0.15516200   -56.379604    13.189763     8.640594
     791      1      4 -0.12204400   -56.884513    13.077390    10.091473
     792      1      5  0.43960400   -56.351602    14.206098    10.964441
     793      1      9 -0.41105600   -55.413097    14.930151    10.661948
     794      1      8 -0.31160400   -57.074439    14.235731    12.155536
     795      1      5  0.08092300   -56.701057    15.082367    13.216241
     796      1      5 -0.13667100   -56.229797    16.378696    13.042991
     797      1      5 -0.11234400   -55.901534    17.145029    14.166177
     798      1      5 -0.03890200   -56.057256    16.636753    15.468875
     799      1      5 -0.04613900   -55.715500    17.447582    16.650339
     800      1      5 -0.12204700   -54.478374    18.104366    16.743900
     801      1      5 -0.13968300   -54.147840    18.868641    17.865986
     802      1      5 -0.13132600   -55.052271    18.992078    18.916356
     803      1      5 -0.13902800   -56.286013    18.351774    18.845458
     804      1      5 -0.12039100   -56.613095    17.586441    17.722757
     805      1      5 -0.10737000   -56.550713    15.328526    15.610702
     806      1      5 -0.13816200   -56.877643    14.557022    14.493914
     807      1      2  0.11973200   -55.282262    13.223865     8.643888
     808      1      2  0.11973200   -56.655672    12.283740     8.086220
     809      1      2  0.15223200   -57.975785    13.183724    10.075572
     810      1      1  0.15485900   -56.110379    16.810981    12.054820
     811      1      1  0.14910100   -55.523148    18.154423    14.015820
     812      1      1  0.14113900   -53.749002    18.010725    15.943132
     813      1      1  0.14128900   -53.181862    19.364886    17.917522
     814      1      1  0.13945200   -54.795404    19.590052    19.786547
     815      1      1  0.14205800   -56.999046    18.454620    19.658943
     816      1      1  0.14385800   -57.588408    17.107381    17.685651
     817      1      1  0.15082900   -56.671688    14.892454    16.600655
     818      1      1  0.15712100   -57.258371    13.548211    14.626684
     819      1      4 -0.15516200   -65.253829    43.304342   -21.519013
     820      1      4 -0.12204400   -65.496413    44.504410   -20.574155
     821      1      5  0.43960400   -65.816815    45.749518   -21.398554
     822      1      9 -0.41105600   -66.169223    45.748496   -22.568968
     823      1      8 -0.31160400   -65.647012    46.865968   -20.578388
     824      1      5  0.08092300   -65.966460    48.124445   -21.107124
     825      1      5 -0.13667100   -65.025618    49.136107   -20.938023
     826      1      5 -0.11234400   -65.325651    50.432007   -21.365422
     827      1      5 -0.03890200   -66.568957    50.734777   -21.950398
     828      1      5 -0.04613900   -66.892328    52.106919   -22.379062
     829      1      5 -0.12204700   -66.716613    53.197948   -21.510821
     830      1      5 -0.13968300   -67.036330    54.498454   -21.910810
     831      1      5 -0.13132600   -67.536144    54.731542   -23.188978
     832      1      5 -0.13902800   -67.717761    53.665908   -24.065925
     833      1      5 -0.12039100   -67.398570    52.365944   -23.663734
     834      1      5 -0.10737000   -67.501552    49.691403   -22.098895
     835      1      5 -0.13816200   -67.208377    48.392285   -21.674724
     836      1      2  0.11973200   -64.483615    43.584041   -22.251014
     837      1      2  0.11973200   -66.169661    43.132452   -22.098463
     838      1      2  0.15223200   -64.552026    44.733181   -20.067288
     839      1      1  0.15485900   -64.064998    48.924747   -20.477889
     840      1      1  0.14910100   -64.575370    51.211443   -21.243474
     841      1      1  0.14113900   -66.342331    53.039005   -20.501725
     842      1      1  0.14128900   -66.898264    55.326585   -21.220888
     843      1      1  0.13945200   -67.783770    55.742532   -23.501459
     844      1      1  0.14205800   -68.105401    53.843311   -25.065790
     845      1      1  0.14385800   -67.539794    51.549757   -24.369749
     846      1      1  0.15082900   -68.484289    49.891116   -22.523508
     847      1      1  0.15712100   -67.958766    47.614158   -21.779291
     848      1      4 -0.15516200   -56.571791    11.695337    10.708427
     849      1      4 -0.12204400   -55.084540    11.256459    10.784405
     850      1      5  0.43960400   -55.081374     9.748067    11.046340
     851      1      9 -0.41105600   -55.596739     9.258785    12.049131
     852      1      8 -0.31160400   -54.393456     8.950567    10.139568
     853      1      5  0.08092300   -54.341160     9.222276     8.758856
     854      1      5 -0.13667100   -55.506508     9.402682     8.018290
     855      1      5 -0.11234400   -55.408802     9.642737     6.646543
     856      1      5 -0.03890200   -54.157144     9.667985     6.009461
     857      1      5 -0.04613900   -54.057744     9.915797     4.569997
     858      1      5 -0.12204700   -54.086259    11.224262     4.065718
     859      1      5 -0.13968300   -54.001883    11.461530     2.692615
     860      1      5 -0.13132600   -53.891537    10.390946     1.808446
     861      1      5 -0.13902800   -53.866165     9.084796     2.291584
     862      1      5 -0.12039100   -53.944086     8.848850     3.665460
     863      1      5 -0.10737000   -53.003609     9.434825     6.774837
     864      1      5 -0.13816200   -53.091390     9.207184     8.148781
     865      1      2  0.11973200   -57.008660    11.644488    11.715519
     866      1      2  0.11973200   -57.129444    10.950925    10.124633
     867      1      2  0.15223200   -54.587033    11.468119     9.838017
     868      1      1  0.15485900   -56.484456     9.343561     8.483854
     869      1      1  0.14910100   -56.314344     9.800593     6.063698
     870      1      1  0.14113900   -54.172237    12.071792     4.743675
     871      1      1  0.14128900   -54.025518    12.481758     2.315810
     872      1      1  0.13945200   -53.817065    10.576858     0.740725
     873      1      1  0.14205800   -53.785481     8.253221     1.596693
     874      1      1  0.14385800   -53.922099     7.824836     4.030991
     875      1      1  0.15082900   -52.028275     9.437232     6.292195
     876      1      1  0.15712100   -52.192310     9.020839     8.727268
     877      1      4 -0.15516200   -66.641324    44.261750   -19.559637
     878      1      4 -0.12204400   -66.134367    44.138129   -18.100918
     879      1      5  0.43960400   -66.502772    42.785793   -17.505018
     880      1      9 -0.41105600   -67.605396    42.265231   -17.601684
     881      1      8 -0.31160400   -65.399535    42.282200   -16.823017
     882      1      5  0.08092300   -65.440068    41.017288   -16.208612
     883      1      5 -0.13667100   -66.052046    39.908030   -16.783327
     884      1      5 -0.11234400   -65.966008    38.668199   -16.140281
     885      1      5 -0.03890200   -65.260078    38.516718   -14.933120
     886      1      5 -0.04613900   -65.162305    37.207761   -14.260887
     887      1      5 -0.12204700   -66.304079    36.420830   -14.030814
     888      1      5 -0.13968300   -66.215383    35.194192   -13.365127
     889      1      5 -0.13132600   -64.981417    34.732353   -12.915397
     890      1      5 -0.13902800   -63.835714    35.491023   -13.139533
     891      1      5 -0.12039100   -63.925513    36.714138   -13.809999
     892      1      5 -0.10737000   -64.645668    39.656348   -14.384243
     893      1      5 -0.13816200   -64.727380    40.897815   -15.018754
     894      1      2  0.11973200   -67.207053    43.369824   -19.853912
     895      1      2  0.11973200   -67.365295    45.082306   -19.623630
     896      1      2  0.15223200   -65.037816    44.188157   -18.106138
     897      1      1  0.15485900   -66.582737    39.977499   -17.727536
     898      1      1  0.14910100   -66.442350    37.807163   -16.603736
     899      1      1  0.14113900   -67.283506    36.772556   -14.348525
     900      1      1  0.14128900   -67.112999    34.608487   -13.183160
     901      1      1  0.13945200   -64.912368    33.784799   -12.384745
     902      1      1  0.14205800   -62.868693    35.132258   -12.793461
     903      1      1  0.14385800   -63.012784    37.281725   -13.980203
     904      1      1  0.15082900   -64.096836    39.584182   -13.447260
     905      1      1  0.15712100   -64.226377    41.759463   -14.587296
     906      1      4 -0.15516200   -54.316089    11.944406    11.942363
     907      1      4 -0.12204400   -53.096427    12.788524    11.483841
     908      1      5  0.43960400   -52.844284    13.818857    12.578002
     909      1      9 -0.41105600   -52.746466    13.539418    13.764840
     910      1      8 -0.31160400   -52.709718    15.082335    12.004984
     911      1      5  0.08092300   -52.300526    16.259032    12.675674
     912      1      5 -0.13667100   -52.390326    17.428327    11.919535
     913      1      5 -0.11234400   -51.892981    18.627555    12.434813
     914      1      5 -0.03890200   -51.306494    18.669147    13.709051
     915      1      5 -0.04613900   -50.746592    19.913499    14.240406
     916      1      5 -0.12204700   -49.468562    20.346892    13.855841
     917      1      5 -0.13968300   -48.929723    21.529231    14.369882
     918      1      5 -0.13132600   -49.664945    22.296245    15.271219
     919      1      5 -0.13902800   -50.936187    21.880403    15.660483
     920      1      5 -0.12039100   -51.469869    20.694405    15.151625
     921      1      5 -0.10737000   -51.247680    17.485796    14.460624
     922      1      5 -0.13816200   -51.740238    16.282837    13.947380
     923      1      2  0.11973200   -55.001884    12.572814    12.519037
     924      1      2  0.11973200   -53.959358    11.200704    12.668946
     925      1      2  0.15223200   -53.356187    13.316935    10.563256
     926      1      1  0.15485900   -52.824477    17.400856    10.923535
     927      1      1  0.14910100   -51.947814    19.529826    11.830544
     928      1      1  0.14113900   -48.882114    19.761926    13.149847
     929      1      1  0.14128900   -47.936288    21.848223    14.064756
     930      1      1  0.13945200   -49.246460    23.215201    15.673357
     931      1      1  0.14205800   -51.517934    22.472586    16.363568
     932      1      1  0.14385800   -52.462755    20.385751    15.471811
     933      1      1  0.15082900   -50.798227    17.490433    15.453115
     934      1      1  0.15712100   -51.644286    15.389740    14.552909
     935      1      4 -0.15516200   -66.622279    45.281705   -17.186122
     936      1      4 -0.12204400   -68.147290    45.322509   -16.937846
     937      1      5  0.43960400   -68.624566    46.765832   -17.058639
     938      1      9 -0.41105600   -68.650715    47.563914   -16.132152
     939      1      8 -0.31160400   -69.004755    46.995222   -18.375643
     940      1      5  0.08092300   -69.532935    48.264373   -18.623290
     941      1      5 -0.13667100   -70.870749    48.347599   -18.994200
     942      1      5 -0.11234400   -71.411776    49.591875   -19.325766
     943      1      5 -0.03890200   -70.621719    50.755177   -19.305261
     944      1      5 -0.04613900   -71.190321    52.061624   -19.673521
     945      1      5 -0.12204700   -72.330216    52.565612   -19.025906
     946      1      5 -0.13968300   -72.867837    53.807638   -19.376240
     947      1      5 -0.13132600   -72.273896    54.566388   -20.381989
     948      1      5 -0.13902800   -71.144118    54.084145   -21.037404
     949      1      5 -0.12039100   -70.608964    52.842367   -20.685685
     950      1      5 -0.10737000   -69.270064    50.634545   -18.935045
     951      1      5 -0.13816200   -68.721894    49.394599   -18.598470
     952      1      2  0.11973200   -66.098981    45.205836   -16.223535
     953      1      2  0.11973200   -66.283608    46.226636   -17.632233
     954      1      2  0.15223200   -68.675509    44.743445   -17.702069
     955      1      1  0.15485900   -71.492853    47.457643   -19.031676
     956      1      1  0.14910100   -72.457994    49.647052   -19.621523
     957      1      1  0.14113900   -72.802620    51.993183   -18.229870
     958      1      1  0.14128900   -73.748412    54.181444   -18.860352
     959      1      1  0.13945200   -72.691250    55.532052   -20.654594
     960      1      1  0.14205800   -70.675767    54.669147   -21.824174
     961      1      1  0.14385800   -69.732911    52.480082   -21.219196
     962      1      1  0.15082900   -68.631681    51.515474   -18.908948
     963      1      1  0.15712100   -67.672486    49.322020   -18.330984
     964      1      4 -0.15516200   -51.855037    11.887395    11.289551
     965      1      4 -0.12204400   -50.742605    12.339018    10.317260
     966      1      5  0.43960400   -51.214369    12.283920     8.866249
     967      1      9 -0.41105600   -52.349816    12.538147     8.492915
     968      1      8 -0.31160400   -50.125216    11.928828     8.067832
     969      1      5  0.08092300   -50.163517    11.911126     6.659565
     970      1      5 -0.13667100   -49.299641    11.005337     6.045369
     971      1      5 -0.11234400   -49.218240    10.963143     4.652277
     972      1      5 -0.03890200   -49.979491    11.838735     3.862625
     973      1      5 -0.04613900   -49.871622    11.813665     2.399751
     974      1      5 -0.12204700   -49.285102    12.881932     1.705629
     975      1      5 -0.13968300   -49.183541    12.862123     0.312711
     976      1      5 -0.13132600   -49.672225    11.775054    -0.407826
     977      1      5 -0.13902800   -50.255200    10.704217     0.265102
     978      1      5 -0.12039100   -50.346923    10.721511     1.659483
     979      1      5 -0.10737000   -50.833657    12.749113     4.506761
     980      1      5 -0.13816200   -50.929955    12.787505     5.900950
     981      1      2  0.11973200   -52.196937    10.906907    10.931652
     982      1      2  0.11973200   -51.392746    11.696279    12.265899
     983      1      2  0.15223200   -49.971790    11.560466    10.400393
     984      1      1  0.15485900   -48.684286    10.339988     6.644016
     985      1      1  0.14910100   -48.539626    10.256334     4.179285
     986      1      1  0.14113900   -48.895677    13.736346     2.255383
     987      1      1  0.14128900   -48.724002    13.696547    -0.208920
     988      1      1  0.13945200   -49.598033    11.766143    -1.492132
     989      1      1  0.14205800   -50.646671     9.856479    -0.290641
     990      1      1  0.14385800   -50.814061     9.882576     2.171451
     991      1      1  0.15082900   -51.441532    13.433863     3.917611
     992      1      1  0.15712100   -51.598914    13.506558     6.360151
     993      1      4 -0.16378100   -68.516496    44.759790   -15.545387
     994      1      4 -0.12702400   -70.038404    44.609331   -15.323477
     995      1      5  0.44011500   -70.312202    44.504949   -13.825566
     996      1      9 -0.41678600   -70.659604    43.480477   -13.253559
     997      1      8 -0.30163400   -70.127374    45.756752   -13.245644
     998      1      5  0.07393300   -70.324181    45.854471   -11.861767
     999      1      5 -0.13409800   -71.195270    46.842675   -11.413644
    1000      1      5 -0.11066100   -71.388917    47.016386   -10.040912
    1001      1      5 -0.03475200   -70.707474    46.217381    -9.105173
    1002      1      5 -0.04624200   -70.915072    46.399935    -7.658452
    1003      1      5 -0.12107000   -70.767240    47.661237    -7.058014
    1004      1      5 -0.13894900   -70.962372    47.833559    -5.684783
    1005      1      5 -0.13056700   -71.310201    46.746068    -4.887742
    1006      1      5 -0.13861100   -71.463007    45.487361    -5.462417
    1007      1      5 -0.11987100   -71.266511    45.316695    -6.835548
    1008      1      5 -0.11293700   -69.817248    45.241644    -9.590006
    1009      1      5 -0.13158500   -69.615771    45.064272   -10.961211
    1010      1      2  0.12216300   -68.039427    43.784202   -15.392586
    1011      1      2  0.12216300   -68.088920    45.414770   -14.774311
    1012      1      2  0.14396300   -70.561969    45.504933   -15.677798
    1013      1      1  0.15468200   -71.722672    47.474602   -12.122235
    1014      1      1  0.15023300   -72.086149    47.780113    -9.701553
    1015      1      1  0.14173400   -70.484317    48.522523    -7.659771
    1016      1      1  0.14194200   -70.839594    48.817317    -5.239440
    1017      1      1  0.14004800   -71.461665    46.879862    -3.819696
    1018      1      1  0.14235600   -71.737652    44.636483    -4.844697
    1019      1      1  0.14319700   -71.401734    44.326421    -7.266241
    1020      1      1  0.15110000   -69.259735    44.618255    -8.893552
    1021      1      1  0.16093900   -68.913828    44.312864   -11.309308
    1022      1      4 -0.16378100   -50.080105    13.709571    10.545048
    1023      1      4 -0.12702400   -49.353045    13.919478    11.899097
    1024      1      5  0.44011500   -48.261329    12.874501    12.115663
    1025      1      9 -0.41678600   -47.660826    12.371565    11.168010
    1026      1      8 -0.30163400   -47.936672    12.527576    13.423899
    1027      1      5  0.07393300   -48.615698    13.018932    14.552542
    1028      1      5 -0.13409800   -49.780212    12.391099    14.975847
    1029      1      5 -0.11066100   -50.461539    12.903776    16.081218
    1030      1      5 -0.03475200   -49.979400    14.026231    16.779992
    1031      1      5 -0.04624200   -50.735049    14.595140    17.910809
    1032      1      5 -0.12107000   -52.108772    14.873335    17.795796
    1033      1      5 -0.13894900   -52.826677    15.421087    18.862139
    1034      1      5 -0.13056700   -52.184339    15.702055    20.064406
    1035      1      5 -0.13861100   -50.825526    15.432090    20.202330
    1036      1      5 -0.11987100   -50.108234    14.883657    19.134861
    1037      1      5 -0.11293700   -48.763765    14.596376    16.356610
    1038      1      5 -0.13158500   -48.072891    14.088437    15.253981
    1039      1      2  0.12216300   -50.832620    14.494216    10.405463
    1040      1      2  0.12216300   -49.358243    13.873799     9.733676
    1041      1      2  0.14396300   -50.118385    13.808588    12.667143
    1042      1      1  0.15468200   -50.170858    11.523757    14.454135
    1043      1      1  0.15023300   -51.387993    12.423368    16.392485
    1044      1      1  0.14173400   -52.634889    14.674466    16.863129
    1045      1      1  0.14194200   -53.886768    15.633678    18.748646
    1046      1      1  0.14004800   -52.744250    16.129838    20.891730
    1047      1      1  0.14235600   -50.321459    15.644530    21.141481
    1048      1      1  0.14319700   -49.050134    14.669587    19.271444
    1049      1      1  0.15110000   -48.353243    15.458831    16.878480
    1050      1      1  0.16093900   -47.131668    14.535584    14.945768
    1051      1      7 -0.38962400   -73.058756    45.200030   -17.704439
    1052      1      3  0.15031400   -72.670412    44.362004   -17.002034
    1053      1      4 -0.07936400   -72.131387    43.320513   -16.115147
    1054      1      4 -0.15965800   -70.598414    43.372633   -16.065928
    1055      1      2  0.13200800   -72.562615    43.419128   -15.113860
    1056      1      2  0.13200800   -72.437508    42.338946   -16.495883
    1057      1      2  0.10715800   -70.235325    42.457798   -15.579724
    1058      1      2  0.10715800   -70.219657    43.343842   -17.093922
    1059      1      7 -0.38962400   -45.357837    15.195822    12.583965
    1060      1      3  0.15031400   -46.299646    15.384413    11.933331
    1061      1      4 -0.07936400   -47.518065    15.643802    11.152905
    1062      1      4 -0.15965800   -48.787973    15.360448    11.969350
    1063      1      2  0.13200800   -47.504085    15.079428    10.216054
    1064      1      2  0.13200800   -47.517709    16.705408    10.875967
    1065      1      2  0.10715800   -48.621953    15.639557    13.015488
    1066      1      2  0.10715800   -49.565120    16.043523    11.605935

Bonds

       1      1        1        2
       2      2        2        3
       3      3        3        4
       4      4        3        5
       5      4        3        6
       6      4        4        7
       7      4        4        8
       8      5        9       10
       9      6       10       11
      10      7       10       12
      11      8       12       13
      12      9       13       14
      13     10       14       15
      14      9       15       16
      15      8       16       17
      16      9       15       18
      17      8       18       19
      18      8       19       20
      19      8       20       21
      20      7       19       22
      21      6       22       23
      22      5       22       24
      23     11       24       25
      24      3       25       26
      25      8       17       12
      26      9       21       14
      27     12       13       27
      28     12       16       28
      29     12       17       29
      30     12       18       30
      31     12       20       31
      32     12       21       32
      33      4       25       33
      34      4       25       34
      35      4       26       35
      36      4       26       36
      37     11        4        9
      38      5       37       38
      39      6       38       39
      40      7       38       40
      41      8       40       41
      42      9       41       42
      43     10       42       43
      44      9       43       44
      45      8       44       45
      46      9       43       46
      47      8       46       47
      48      8       47       48
      49      8       48       49
      50      7       47       50
      51      6       50       51
      52      5       50       52
      53     11       52       53
      54      3       53       54
      55      8       45       40
      56      9       49       42
      57     12       41       55
      58     12       44       56
      59     12       45       57
      60     12       46       58
      61     12       48       59
      62     12       49       60
      63      4       53       61
      64      4       53       62
      65      4       54       63
      66      4       54       64
      67     11       26       37
      68      5       65       66
      69      6       66       67
      70      7       66       68
      71      8       68       69
      72      9       69       70
      73     10       70       71
      74      9       71       72
      75      8       72       73
      76      9       71       74
      77      8       74       75
      78      8       75       76
      79      8       76       77
      80      7       75       78
      81      6       78       79
      82      5       78       80
      83     11       80       81
      84      3       81       82
      85      8       73       68
      86      9       77       70
      87     12       69       83
      88     12       72       84
      89     12       73       85
      90     12       74       86
      91     12       76       87
      92     12       77       88
      93      4       81       89
      94      4       81       90
      95      4       82       91
      96      4       82       92
      97     11       54       65
      98      5       93       94
      99      6       94       95
     100      7       94       96
     101      8       96       97
     102      9       97       98
     103     10       98       99
     104      9       99      100
     105      8      100      101
     106      9       99      102
     107      8      102      103
     108      8      103      104
     109      8      104      105
     110      7      103      106
     111      6      106      107
     112      5      106      108
     113     11      108      109
     114      3      109      110
     115      8      101       96
     116      9      105       98
     117     12       97      111
     118     12      100      112
     119     12      101      113
     120     12      102      114
     121     12      104      115
     122     12      105      116
     123      4      109      117
     124      4      109      118
     125      4      110      119
     126      4      110      120
     127     11       82       93
     128      5      121      122
     129      6      122      123
     130      7      122      124
     131      8      124      125
     132      9      125      126
     133     10      126      127
     134      9      127      128
     135      8      128      129
     136      9      127      130
     137      8      130      131
     138      8      131      132
     139      8      132      133
     140      7      131      134
     141      6      134      135
     142      5      134      136
     143     11      136      137
     144      3      137      138
     145      8      129      124
     146      9      133      126
     147     12      125      139
     148     12      128      140
     149     12      129      141
     150     12      130      142
     151     12      132      143
     152     12      133      144
     153      4      137      145
     154      4      137      146
     155      4      138      147
     156      4      138      148
     157     11      110      121
     158      5      149      150
     159      6      150      151
     160      7      150      152
     161      8      152      153
     162      9      153      154
     163     10      154      155
     164      9      155      156
     165      8      156      157
     166      9      155      158
     167      8      158      159
     168      8      159      160
     169      8      160      161
     170      7      159      162
     171      6      162      163
     172      5      162      164
     173     11      164      165
     174      3      165      166
     175      8      157      152
     176      9      161      154
     177     12      153      167
     178     12      156      168
     179     12      157      169
     180     12      158      170
     181     12      160      171
     182     12      161      172
     183      4      165      173
     184      4      165      174
     185      4      166      175
     186      4      166      176
     187     11      138      149
     188      5      177      178
     189      6      178      179
     190      7      178      180
     191      8      180      181
     192      9      181      182
     193     10      182      183
     194      9      183      184
     195      8      184      185
     196      9      183      186
     197      8      186      187
     198      8      187      188
     199      8      188      189
     200      7      187      190
     201      6      190      191
     202      5      190      192
     203     11      192      193
     204      3      193      194
     205      8      185      180
     206      9      189      182
     207     12      181      195
     208     12      184      196
     209     12      185      197
     210     12      186      198
     211     12      188      199
     212     12      189      200
     213      4      193      201
     214      4      193      202
     215      4      194      203
     216      4      194      204
     217     11      166      177
     218      5      205      206
     219      6      206      207
     220      7      206      208
     221      8      208      209
     222      9      209      210
     223     10      210      211
     224      9      211      212
     225      8      212      213
     226      9      211      214
     227      8      214      215
     228      8      215      216
     229      8      216      217
     230      7      215      218
     231      6      218      219
     232      5      218      220
     233     11      220      221
     234      3      221      222
     235      8      213      208
     236      9      217      210
     237     12      209      223
     238     12      212      224
     239     12      213      225
     240     12      214      226
     241     12      216      227
     242     12      217      228
     243      4      221      229
     244      4      221      230
     245      4      222      231
     246      4      222      232
     247     11      194      205
     248      5      233      234
     249      6      234      235
     250      7      234      236
     251      8      236      237
     252      9      237      238
     253     10      238      239
     254      9      239      240
     255      8      240      241
     256      9      239      242
     257      8      242      243
     258      8      243      244
     259      8      244      245
     260      7      243      246
     261      6      246      247
     262      5      246      248
     263     11      248      249
     264      3      249      250
     265      8      241      236
     266      9      245      238
     267     12      237      251
     268     12      240      252
     269     12      241      253
     270     12      242      254
     271     12      244      255
     272     12      245      256
     273      4      249      257
     274      4      249      258
     275      4      250      259
     276      4      250      260
     277     11      222      233
     278      5      261      262
     279      6      262      263
     280      7      262      264
     281      8      264      265
     282      9      265      266
     283     10      266      267
     284      9      267      268
     285      8      268      269
     286      9      267      270
     287      8      270      271
     288      8      271      272
     289      8      272      273
     290      7      271      274
     291      6      274      275
     292      5      274      276
     293     11      276      277
     294      3      277      278
     295      8      269      264
     296      9      273      266
     297     12      265      279
     298     12      268      280
     299     12      269      281
     300     12      270      282
     301     12      272      283
     302     12      273      284
     303      4      277      285
     304      4      277      286
     305      4      278      287
     306      4      278      288
     307     11      250      261
     308      5      289      290
     309      6      290      291
     310      7      290      292
     311      8      292      293
     312      9      293      294
     313     10      294      295
     314      9      295      296
     315      8      296      297
     316      9      295      298
     317      8      298      299
     318      8      299      300
     319      8      300      301
     320      7      299      302
     321      6      302      303
     322      5      302      304
     323     11      304      305
     324      3      305      306
     325      8      297      292
     326      9      301      294
     327     12      293      307
     328     12      296      308
     329     12      297      309
     330     12      298      310
     331     12      300      311
     332     12      301      312
     333      4      305      313
     334      4      305      314
     335      4      306      315
     336      4      306      316
     337     11      278      289
     338      3      317      318
     339     13      318      319
     340      6      319      320
     341      5      319      321
     342     14      321      322
     343      8      322      323
     344      8      323      324
     345      8      324      325
     346     15      325      326
     347      8      326      327
     348      8      327      328
     349      8      328      329
     350      8      329      330
     351      8      330      331
     352      8      325      332
     353      8      332      333
     354      8      333      322
     355      8      331      326
     356      4      317      334
     357      4      317      335
     358      4      318      336
     359     12      323      337
     360     12      324      338
     361     12      327      339
     362     12      328      340
     363     12      329      341
     364     12      330      342
     365     12      331      343
     366     12      332      344
     367     12      333      345
     368      3      306      317
     369      3      346      347
     370     11      347      348
     371     11      348      349
     372      3      349      350
     373      3      349      351
     374     11      351      352
     375      4      346      353
     376      4      346      354
     377      4      347      355
     378      4      347      356
     379      4      349      357
     380      4      350      358
     381      4      350      359
     382      4      351      360
     383      4      351      361
     384      3      318      346
     385      5      362      363
     386      6      363      364
     387      7      363      365
     388      8      365      366
     389      9      366      367
     390     10      367      368
     391      9      368      369
     392      8      369      370
     393      9      368      371
     394      8      371      372
     395      8      372      373
     396      8      373      374
     397      7      372      375
     398      6      375      376
     399      5      375      377
     400     11      377      378
     401      3      378      379
     402      8      370      365
     403      9      374      367
     404     12      366      380
     405     12      369      381
     406     12      370      382
     407     12      371      383
     408     12      373      384
     409     12      374      385
     410      4      378      386
     411      4      378      387
     412      4      379      388
     413      4      379      389
     414     11      350      362
     415      3      390      391
     416     13      391      392
     417      6      392      393
     418      5      392      394
     419     14      394      395
     420      8      395      396
     421      8      396      397
     422      8      397      398
     423     15      398      399
     424      8      399      400
     425      8      400      401
     426      8      401      402
     427      8      402      403
     428      8      403      404
     429      8      398      405
     430      8      405      406
     431      8      406      395
     432      8      404      399
     433      4      390      407
     434      4      390      408
     435      4      391      409
     436     12      396      410
     437     12      397      411
     438     12      400      412
     439     12      401      413
     440     12      402      414
     441     12      403      415
     442     12      404      416
     443     12      405      417
     444     12      406      418
     445     11      352      390
     446      5      419      420
     447      6      420      421
     448      7      420      422
     449      8      422      423
     450      9      423      424
     451     10      424      425
     452      9      425      426
     453      8      426      427
     454      9      425      428
     455      8      428      429
     456      8      429      430
     457      8      430      431
     458      7      429      432
     459      6      432      433
     460      5      432      434
     461     11      434      435
     462      3      435      436
     463      8      427      422
     464      9      431      424
     465     12      423      437
     466     12      426      438
     467     12      427      439
     468     12      428      440
     469     12      430      441
     470     12      431      442
     471      4      435      443
     472      4      435      444
     473      4      436      445
     474      4      436      446
     475     11      379      419
     476      3      447      448
     477     13      448      449
     478      6      449      450
     479      5      449      451
     480     14      451      452
     481      8      452      453
     482      8      453      454
     483      8      454      455
     484     15      455      456
     485      8      456      457
     486      8      457      458
     487      8      458      459
     488      8      459      460
     489      8      460      461
     490      8      455      462
     491      8      462      463
     492      8      463      452
     493      8      461      456
     494      4      447      464
     495      4      447      465
     496      4      448      466
     497     12      453      467
     498     12      454      468
     499     12      457      469
     500     12      458      470
     501     12      459      471
     502     12      460      472
     503     12      461      473
     504     12      462      474
     505     12      463      475
     506      3      391      447
     507      5      476      477
     508      6      477      478
     509      7      477      479
     510      8      479      480
     511      9      480      481
     512     10      481      482
     513      9      482      483
     514      8      483      484
     515      9      482      485
     516      8      485      486
     517      8      486      487
     518      8      487      488
     519      7      486      489
     520      6      489      490
     521      5      489      491
     522     11      491      492
     523      3      492      493
     524      8      484      479
     525      9      488      481
     526     12      480      494
     527     12      483      495
     528     12      484      496
     529     12      485      497
     530     12      487      498
     531     12      488      499
     532      4      492      500
     533      4      492      501
     534      4      493      502
     535      4      493      503
     536     11      436      476
     537      3      504      505
     538     13      505      506
     539      6      506      507
     540      5      506      508
     541     14      508      509
     542      8      509      510
     543      8      510      511
     544      8      511      512
     545     15      512      513
     546      8      513      514
     547      8      514      515
     548      8      515      516
     549      8      516      517
     550      8      517      518
     551      8      512      519
     552      8      519      520
     553      8      520      509
     554      8      518      513
     555      4      504      521
     556      4      504      522
     557      4      505      523
     558     12      510      524
     559     12      511      525
     560     12      514      526
     561     12      515      527
     562     12      516      528
     563     12      517      529
     564     12      518      530
     565     12      519      531
     566     12      520      532
     567      3      448      504
     568      5      533      534
     569      6      534      535
     570      7      534      536
     571      8      536      537
     572      9      537      538
     573     10      538      539
     574      9      539      540
     575      8      540      541
     576      9      539      542
     577      8      542      543
     578      8      543      544
     579      8      544      545
     580      7      543      546
     581      6      546      547
     582      5      546      548
     583     11      548      549
     584      3      549      550
     585      8      541      536
     586      9      545      538
     587     12      537      551
     588     12      540      552
     589     12      541      553
     590     12      542      554
     591     12      544      555
     592     12      545      556
     593      4      549      557
     594      4      549      558
     595      4      550      559
     596      4      550      560
     597     11      493      533
     598      3      561      562
     599     13      562      563
     600      6      563      564
     601      5      563      565
     602     14      565      566
     603      8      566      567
     604      8      567      568
     605      8      568      569
     606     15      569      570
     607      8      570      571
     608      8      571      572
     609      8      572      573
     610      8      573      574
     611      8      574      575
     612      8      569      576
     613      8      576      577
     614      8      577      566
     615      8      575      570
     616      4      561      578
     617      4      561      579
     618      4      562      580
     619     12      567      581
     620     12      568      582
     621     12      571      583
     622     12      572      584
     623     12      573      585
     624     12      574      586
     625     12      575      587
     626     12      576      588
     627     12      577      589
     628      3      505      561
     629      5      590      591
     630      6      591      592
     631      7      591      593
     632      8      593      594
     633      9      594      595
     634     10      595      596
     635      9      596      597
     636      8      597      598
     637      9      596      599
     638      8      599      600
     639      8      600      601
     640      8      601      602
     641      7      600      603
     642      6      603      604
     643      5      603      605
     644     11      605      606
     645      3      606      607
     646      8      598      593
     647      9      602      595
     648     12      594      608
     649     12      597      609
     650     12      598      610
     651     12      599      611
     652     12      601      612
     653     12      602      613
     654      4      606      614
     655      4      606      615
     656      4      607      616
     657      4      607      617
     658     11      550      590
     659      3      618      619
     660     13      619      620
     661      6      620      621
     662      5      620      622
     663     14      622      623
     664      8      623      624
     665      8      624      625
     666      8      625      626
     667     15      626      627
     668      8      627      628
     669      8      628      629
     670      8      629      630
     671      8      630      631
     672      8      631      632
     673      8      626      633
     674      8      633      634
     675      8      634      623
     676      8      632      627
     677      4      618      635
     678      4      618      636
     679      4      619      637
     680     12      624      638
     681     12      625      639
     682     12      628      640
     683     12      629      641
     684     12      630      642
     685     12      631      643
     686     12      632      644
     687     12      633      645
     688     12      634      646
     689      3      562      618
     690      5      647      648
     691      6      648      649
     692      7      648      650
     693      8      650      651
     694      9      651      652
     695     10      652      653
     696      9      653      654
     697      8      654      655
     698      9      653      656
     699      8      656      657
     700      8      657      658
     701      8      658      659
     702      7      657      660
     703      6      660      661
     704      5      660      662
     705     11      662      663
     706      3      663      664
     707      8      655      650
     708      9      659      652
     709     12      651      665
     710     12      654      666
     711     12      655      667
     712     12      656      668
     713     12      658      669
     714     12      659      670
     715      4      663      671
     716      4      663      672
     717      4      664      673
     718      4      664      674
     719     11      607      647
     720      3      675      676
     721     13      676      677
     722      6      677      678
     723      5      677      679
     724     14      679      680
     725      8      680      681
     726      8      681      682
     727      8      682      683
     728     15      683      684
     729      8      684      685
     730      8      685      686
     731      8      686      687
     732      8      687      688
     733      8      688      689
     734      8      683      690
     735      8      690      691
     736      8      691      680
     737      8      689      684
     738      4      675      692
     739      4      675      693
     740      4      676      694
     741     12      681      695
     742     12      682      696
     743     12      685      697
     744     12      686      698
     745     12      687      699
     746     12      688      700
     747     12      689      701
     748     12      690      702
     749     12      691      703
     750      3      619      675
     751      5      704      705
     752      6      705      706
     753      7      705      707
     754      8      707      708
     755      9      708      709
     756     10      709      710
     757      9      710      711
     758      8      711      712
     759      9      710      713
     760      8      713      714
     761      8      714      715
     762      8      715      716
     763      7      714      717
     764      6      717      718
     765      5      717      719
     766     11      719      720
     767      3      720      721
     768      8      712      707
     769      9      716      709
     770     12      708      722
     771     12      711      723
     772     12      712      724
     773     12      713      725
     774     12      715      726
     775     12      716      727
     776      4      720      728
     777      4      720      729
     778      4      721      730
     779      4      721      731
     780     11      664      704
     781      3      732      733
     782     13      733      734
     783      6      734      735
     784      5      734      736
     785     14      736      737
     786      8      737      738
     787      8      738      739
     788      8      739      740
     789     15      740      741
     790      8      741      742
     791      8      742      743
     792      8      743      744
     793      8      744      745
     794      8      745      746
     795      8      740      747
     796      8      747      748
     797      8      748      737
     798      8      746      741
     799      4      732      749
     800      4      732      750
     801      4      733      751
     802     12      738      752
     803     12      739      753
     804     12      742      754
     805     12      743      755
     806     12      744      756
     807     12      745      757
     808     12      746      758
     809     12      747      759
     810     12      748      760
     811      3      676      732
     812      3      761      762
     813     13      762      763
     814      6      763      764
     815      5      763      765
     816     14      765      766
     817      8      766      767
     818      8      767      768
     819      8      768      769
     820     15      769      770
     821      8      770      771
     822      8      771      772
     823      8      772      773
     824      8      773      774
     825      8      774      775
     826      8      769      776
     827      8      776      777
     828      8      777      766
     829      8      775      770
     830      4      761      778
     831      4      761      779
     832      4      762      780
     833     12      767      781
     834     12      768      782
     835     12      771      783
     836     12      772      784
     837     12      773      785
     838     12      774      786
     839     12      775      787
     840     12      776      788
     841     12      777      789
     842      3      721      761
     843      3      790      791
     844     13      791      792
     845      6      792      793
     846      5      792      794
     847     14      794      795
     848      8      795      796
     849      8      796      797
     850      8      797      798
     851     15      798      799
     852      8      799      800
     853      8      800      801
     854      8      801      802
     855      8      802      803
     856      8      803      804
     857      8      798      805
     858      8      805      806
     859      8      806      795
     860      8      804      799
     861      4      790      807
     862      4      790      808
     863      4      791      809
     864     12      796      810
     865     12      797      811
     866     12      800      812
     867     12      801      813
     868     12      802      814
     869     12      803      815
     870     12      804      816
     871     12      805      817
     872     12      806      818
     873      3      733      790
     874      3      819      820
     875     13      820      821
     876      6      821      822
     877      5      821      823
     878     14      823      824
     879      8      824      825
     880      8      825      826
     881      8      826      827
     882     15      827      828
     883      8      828      829
     884      8      829      830
     885      8      830      831
     886      8      831      832
     887      8      832      833
     888      8      827      834
     889      8      834      835
     890      8      835      824
     891      8      833      828
     892      4      819      836
     893      4      819      837
     894      4      820      838
     895     12      825      839
     896     12      826      840
     897     12      829      841
     898     12      830      842
     899     12      831      843
     900     12      832      844
     901     12      833      845
     902     12      834      846
     903     12      835      847
     904      3      762      819
     905      3      848      849
     906     13      849      850
     907      6      850      851
     908      5      850      852
     909     14      852      853
     910      8      853      854
     911      8      854      855
     912      8      855      856
     913     15      856      857
     914      8      857      858
     915      8      858      859
     916      8      859      860
     917      8      860      861
     918      8      861      862
     919      8      856      863
     920      8      863      864
     921      8      864      853
     922      8      862      857
     923      4      848      865
     924      4      848      866
     925      4      849      867
     926     12      854      868
     927     12      855      869
     928     12      858      870
     929     12      859      871
     930     12      860      872
     931     12      861      873
     932     12      862      874
     933     12      863      875
     934     12      864      876
     935      3      791      848
     936      3      877      878
     937     13      878      879
     938      6      879      880
     939      5      879      881
     940     14      881      882
     941      8      882      883
     942      8      883      884
     943      8      884      885
     944     15      885      886
     945      8      886      887
     946      8      887      888
     947      8      888      889
     948      8      889      890
     949      8      890      891
     950      8      885      892
     951      8      892      893
     952      8      893      882
     953      8      891      886
     954      4      877      894
     955      4      877      895
     956      4      878      896
     957     12      883      897
     958     12      884      898
     959     12      887      899
     960     12      888      900
     961     12      889      901
     962     12      890      902
     963     12      891      903
     964     12      892      904
     965     12      893      905
     966      3      820      877
     967      3      906      907
     968     13      907      908
     969      6      908      909
     970      5      908      910
     971     14      910      911
     972      8      911      912
     973      8      912      913
     974      8      913      914
     975     15      914      915
     976      8      915      916
     977      8      916      917
     978      8      917      918
     979      8      918      919
     980      8      919      920
     981      8      914      921
     982      8      921      922
     983      8      922      911
     984      8      920      915
     985      4      906      923
     986      4      906      924
     987      4      907      925
     988     12      912      926
     989     12      913      927
     990     12      916      928
     991     12      917      929
     992     12      918      930
     993     12      919      931
     994     12      920      932
     995     12      921      933
     996     12      922      934
     997      3      849      906
     998      3      935      936
     999     13      936      937
    1000      6      937      938
    1001      5      937      939
    1002     14      939      940
    1003      8      940      941
    1004      8      941      942
    1005      8      942      943
    1006     15      943      944
    1007      8      944      945
    1008      8      945      946
    1009      8      946      947
    1010      8      947      948
    1011      8      948      949
    1012      8      943      950
    1013      8      950      951
    1014      8      951      940
    1015      8      949      944
    1016      4      935      952
    1017      4      935      953
    1018      4      936      954
    1019     12      941      955
    1020     12      942      956
    1021     12      945      957
    1022     12      946      958
    1023     12      947      959
    1024     12      948      960
    1025     12      949      961
    1026     12      950      962
    1027     12      951      963
    1028      3      878      935
    1029      3      964      965
    1030     13      965      966
    1031      6      966      967
    1032      5      966      968
    1033     14      968      969
    1034      8      969      970
    1035      8      970      971
    1036      8      971      972
    1037     15      972      973
    1038      8      973      974
    1039      8      974      975
    1040      8      975      976
    1041      8      976      977
    1042      8      977      978
    1043      8      972      979
    1044      8      979      980
    1045      8      980      969
    1046      8      978      973
    1047      4      964      981
    1048      4      964      982
    1049      4      965      983
    1050     12      970      984
    1051     12      971      985
    1052     12      974      986
    1053     12      975      987
    1054     12      976      988
    1055     12      977      989
    1056     12      978      990
    1057     12      979      991
    1058     12      980      992
    1059      3      907      964
    1060      3      993      994
    1061     13      994      995
    1062      6      995      996
    1063      5      995      997
    1064     14      997      998
    1065      8      998      999
    1066      8      999     1000
    1067      8     1000     1001
    1068     15     1001     1002
    1069      8     1002     1003
    1070      8     1003     1004
    1071      8     1004     1005
    1072      8     1005     1006
    1073      8     1006     1007
    1074      8     1001     1008
    1075      8     1008     1009
    1076      8     1009      998
    1077      8     1007     1002
    1078      4      993     1010
    1079      4      993     1011
    1080      4      994     1012
    1081     12      999     1013
    1082     12     1000     1014
    1083     12     1003     1015
    1084     12     1004     1016
    1085     12     1005     1017
    1086     12     1006     1018
    1087     12     1007     1019
    1088     12     1008     1020
    1089     12     1009     1021
    1090      3      936      993
    1091      3     1022     1023
    1092     13     1023     1024
    1093      6     1024     1025
    1094      5     1024     1026
    1095     14     1026     1027
    1096      8     1027     1028
    1097      8     1028     1029
    1098      8     1029     1030
    1099     15     1030     1031
    1100      8     1031     1032
    1101      8     1032     1033
    1102      8     1033     1034
    1103      8     1034     1035
    1104      8     1035     1036
    1105      8     1030     1037
    1106      8     1037     1038
    1107      8     1038     1027
    1108      8     1036     1031
    1109      4     1022     1039
    1110      4     1022     1040
    1111      4     1023     1041
    1112     12     1028     1042
    1113     12     1029     1043
    1114     12     1032     1044
    1115     12     1033     1045
    1116     12     1034     1046
    1117     12     1035     1047
    1118     12     1036     1048
    1119     12     1037     1049
    1120     12     1038     1050
    1121      3      965     1022
    1122      1     1051     1052
    1123      2     1052     1053
    1124      3     1053     1054
    1125      4     1053     1055
    1126      4     1053     1056
    1127      4     1054     1057
    1128      4     1054     1058
    1129      3      994     1054
    1130      1     1059     1060
    1131      2     1060     1061
    1132      3     1061     1062
    1133      4     1061     1063
    1134      4     1061     1064
    1135      4     1062     1065
    1136      4     1062     1066
    1137      3     1023     1062

Angles

       1      1        1        2        3
       2      2        2        3        4
       3      3        2        3        5
       4      3        2        3        6
       5      4        4        3        5
       6      4        4        3        6
       7      5        5        3        6
       8      4        3        4        7
       9      4        3        4        8
      10      6        3        4        9
      11      5        7        4        8
      12      7        7        4        9
      13      7        8        4        9
      14      8       10        9        4
      15      9        9       10       11
      16     10        9       10       12
      17     11       11       10       12
      18     12       10       12       13
      19     12       10       12       17
      20     13       13       12       17
      21     13       12       13       14
      22     14       12       13       27
      23     14       14       13       27
      24     15       13       14       15
      25     16       13       14       21
      26     15       15       14       21
      27     15       14       15       16
      28     15       14       15       18
      29     16       16       15       18
      30     13       15       16       17
      31     14       15       16       28
      32     14       17       16       28
      33     13       16       17       12
      34     14       16       17       29
      35     14       12       17       29
      36     13       15       18       19
      37     14       15       18       30
      38     14       19       18       30
      39     13       18       19       20
      40     12       18       19       22
      41     12       20       19       22
      42     13       19       20       21
      43     14       19       20       31
      44     14       21       20       31
      45     13       20       21       14
      46     14       20       21       32
      47     14       14       21       32
      48     11       19       22       23
      49     10       19       22       24
      50      9       23       22       24
      51      8       22       24       25
      52      6       24       25       26
      53      7       24       25       33
      54      7       24       25       34
      55      4       26       25       33
      56      4       26       25       34
      57      5       33       25       34
      58      4       25       26       35
      59      4       25       26       36
      60      6       25       26       37
      61      5       35       26       36
      62      7       35       26       37
      63      7       36       26       37
      64      8       38       37       26
      65      9       37       38       39
      66     10       37       38       40
      67     11       39       38       40
      68     12       38       40       41
      69     12       38       40       45
      70     13       41       40       45
      71     13       40       41       42
      72     14       40       41       55
      73     14       42       41       55
      74     15       41       42       43
      75     16       41       42       49
      76     15       43       42       49
      77     15       42       43       44
      78     15       42       43       46
      79     16       44       43       46
      80     13       43       44       45
      81     14       43       44       56
      82     14       45       44       56
      83     13       44       45       40
      84     14       44       45       57
      85     14       40       45       57
      86     13       43       46       47
      87     14       43       46       58
      88     14       47       46       58
      89     13       46       47       48
      90     12       46       47       50
      91     12       48       47       50
      92     13       47       48       49
      93     14       47       48       59
      94     14       49       48       59
      95     13       48       49       42
      96     14       48       49       60
      97     14       42       49       60
      98     11       47       50       51
      99     10       47       50       52
     100      9       51       50       52
     101      8       50       52       53
     102      6       52       53       54
     103      7       52       53       61
     104      7       52       53       62
     105      4       54       53       61
     106      4       54       53       62
     107      5       61       53       62
     108      4       53       54       63
     109      4       53       54       64
     110      6       53       54       65
     111      5       63       54       64
     112      7       63       54       65
     113      7       64       54       65
     114      8       66       65       54
     115      9       65       66       67
     116     10       65       66       68
     117     11       67       66       68
     118     12       66       68       69
     119     12       66       68       73
     120     13       69       68       73
     121     13       68       69       70
     122     14       68       69       83
     123     14       70       69       83
     124     15       69       70       71
     125     16       69       70       77
     126     15       71       70       77
     127     15       70       71       72
     128     15       70       71       74
     129     16       72       71       74
     130     13       71       72       73
     131     14       71       72       84
     132     14       73       72       84
     133     13       72       73       68
     134     14       72       73       85
     135     14       68       73       85
     136     13       71       74       75
     137     14       71       74       86
     138     14       75       74       86
     139     13       74       75       76
     140     12       74       75       78
     141     12       76       75       78
     142     13       75       76       77
     143     14       75       76       87
     144     14       77       76       87
     145     13       76       77       70
     146     14       76       77       88
     147     14       70       77       88
     148     11       75       78       79
     149     10       75       78       80
     150      9       79       78       80
     151      8       78       80       81
     152      6       80       81       82
     153      7       80       81       89
     154      7       80       81       90
     155      4       82       81       89
     156      4       82       81       90
     157      5       89       81       90
     158      4       81       82       91
     159      4       81       82       92
     160      6       81       82       93
     161      5       91       82       92
     162      7       91       82       93
     163      7       92       82       93
     164      8       94       93       82
     165      9       93       94       95
     166     10       93       94       96
     167     11       95       94       96
     168     12       94       96       97
     169     12       94       96      101
     170     13       97       96      101
     171     13       96       97       98
     172     14       96       97      111
     173     14       98       97      111
     174     15       97       98       99
     175     16       97       98      105
     176     15       99       98      105
     177     15       98       99      100
     178     15       98       99      102
     179     16      100       99      102
     180     13       99      100      101
     181     14       99      100      112
     182     14      101      100      112
     183     13      100      101       96
     184     14      100      101      113
     185     14       96      101      113
     186     13       99      102      103
     187     14       99      102      114
     188     14      103      102      114
     189     13      102      103      104
     190     12      102      103      106
     191     12      104      103      106
     192     13      103      104      105
     193     14      103      104      115
     194     14      105      104      115
     195     13      104      105       98
     196     14      104      105      116
     197     14       98      105      116
     198     11      103      106      107
     199     10      103      106      108
     200      9      107      106      108
     201      8      106      108      109
     202      6      108      109      110
     203      7      108      109      117
     204      7      108      109      118
     205      4      110      109      117
     206      4      110      109      118
     207      5      117      109      118
     208      4      109      110      119
     209      4      109      110      120
     210      6      109      110      121
     211      5      119      110      120
     212      7      119      110      121
     213      7      120      110      121
     214      8      122      121      110
     215      9      121      122      123
     216     10      121      122      124
     217     11      123      122      124
     218     12      122      124      125
     219     12      122      124      129
     220     13      125      124      129
     221     13      124      125      126
     222     14      124      125      139
     223     14      126      125      139
     224     15      125      126      127
     225     16      125      126      133
     226     15      127      126      133
     227     15      126      127      128
     228     15      126      127      130
     229     16      128      127      130
     230     13      127      128      129
     231     14      127      128      140
     232     14      129      128      140
     233     13      128      129      124
     234     14      128      129      141
     235     14      124      129      141
     236     13      127      130      131
     237     14      127      130      142
     238     14      131      130      142
     239     13      130      131      132
     240     12      130      131      134
     241     12      132      131      134
     242     13      131      132      133
     243     14      131      132      143
     244     14      133      132      143
     245     13      132      133      126
     246     14      132      133      144
     247     14      126      133      144
     248     11      131      134      135
     249     10      131      134      136
     250      9      135      134      136
     251      8      134      136      137
     252      6      136      137      138
     253      7      136      137      145
     254      7      136      137      146
     255      4      138      137      145
     256      4      138      137      146
     257      5      145      137      146
     258      4      137      138      147
     259      4      137      138      148
     260      6      137      138      149
     261      5      147      138      148
     262      7      147      138      149
     263      7      148      138      149
     264      8      150      149      138
     265      9      149      150      151
     266     10      149      150      152
     267     11      151      150      152
     268     12      150      152      153
     269     12      150      152      157
     270     13      153      152      157
     271     13      152      153      154
     272     14      152      153      167
     273     14      154      153      167
     274     15      153      154      155
     275     16      153      154      161
     276     15      155      154      161
     277     15      154      155      156
     278     15      154      155      158
     279     16      156      155      158
     280     13      155      156      157
     281     14      155      156      168
     282     14      157      156      168
     283     13      156      157      152
     284     14      156      157      169
     285     14      152      157      169
     286     13      155      158      159
     287     14      155      158      170
     288     14      159      158      170
     289     13      158      159      160
     290     12      158      159      162
     291     12      160      159      162
     292     13      159      160      161
     293     14      159      160      171
     294     14      161      160      171
     295     13      160      161      154
     296     14      160      161      172
     297     14      154      161      172
     298     11      159      162      163
     299     10      159      162      164
     300      9      163      162      164
     301      8      162      164      165
     302      6      164      165      166
     303      7      164      165      173
     304      7      164      165      174
     305      4      166      165      173
     306      4      166      165      174
     307      5      173      165      174
     308      4      165      166      175
     309      4      165      166      176
     310      6      165      166      177
     311      5      175      166      176
     312      7      175      166      177
     313      7      176      166      177
     314      8      178      177      166
     315      9      177      178      179
     316     10      177      178      180
     317     11      179      178      180
     318     12      178      180      181
     319     12      178      180      185
     320     13      181      180      185
     321     13      180      181      182
     322     14      180      181      195
     323     14      182      181      195
     324     15      181      182      183
     325     16      181      182      189
     326     15      183      182      189
     327     15      182      183      184
     328     15      182      183      186
     329     16      184      183      186
     330     13      183      184      185
     331     14      183      184      196
     332     14      185      184      196
     333     13      184      185      180
     334     14      184      185      197
     335     14      180      185      197
     336     13      183      186      187
     337     14      183      186      198
     338     14      187      186      198
     339     13      186      187      188
     340     12      186      187      190
     341     12      188      187      190
     342     13      187      188      189
     343     14      187      188      199
     344     14      189      188      199
     345     13      188      189      182
     346     14      188      189      200
     347     14      182      189      200
     348     11      187      190      191
     349     10      187      190      192
     350      9      191      190      192
     351      8      190      192      193
     352      6      192      193      194
     353      7      192      193      201
     354      7      192      193      202
     355      4      194      193      201
     356      4      194      193      202
     357      5      201      193      202
     358      4      193      194      203
     359      4      193      194      204
     360      6      193      194      205
     361      5      203      194      204
     362      7      203      194      205
     363      7      204      194      205
     364      8      206      205      194
     365      9      205      206      207
     366     10      205      206      208
     367     11      207      206      208
     368     12      206      208      209
     369     12      206      208      213
     370     13      209      208      213
     371     13      208      209      210
     372     14      208      209      223
     373     14      210      209      223
     374     15      209      210      211
     375     16      209      210      217
     376     15      211      210      217
     377     15      210      211      212
     378     15      210      211      214
     379     16      212      211      214
     380     13      211      212      213
     381     14      211      212      224
     382     14      213      212      224
     383     13      212      213      208
     384     14      212      213      225
     385     14      208      213      225
     386     13      211      214      215
     387     14      211      214      226
     388     14      215      214      226
     389     13      214      215      216
     390     12      214      215      218
     391     12      216      215      218
     392     13      215      216      217
     393     14      215      216      227
     394     14      217      216      227
     395     13      216      217      210
     396     14      216      217      228
     397     14      210      217      228
     398     11      215      218      219
     399     10      215      218      220
     400      9      219      218      220
     401      8      218      220      221
     402      6      220      221      222
     403      7      220      221      229
     404      7      220      221      230
     405      4      222      221      229
     406      4      222      221      230
     407      5      229      221      230
     408      4      221      222      231
     409      4      221      222      232
     410      6      221      222      233
     411      5      231      222      232
     412      7      231      222      233
     413      7      232      222      233
     414      8      234      233      222
     415      9      233      234      235
     416     10      233      234      236
     417     11      235      234      236
     418     12      234      236      237
     419     12      234      236      241
     420     13      237      236      241
     421     13      236      237      238
     422     14      236      237      251
     423     14      238      237      251
     424     15      237      238      239
     425     16      237      238      245
     426     15      239      238      245
     427     15      238      239      240
     428     15      238      239      242
     429     16      240      239      242
     430     13      239      240      241
     431     14      239      240      252
     432     14      241      240      252
     433     13      240      241      236
     434     14      240      241      253
     435     14      236      241      253
     436     13      239      242      243
     437     14      239      242      254
     438     14      243      242      254
     439     13      242      243      244
     440     12      242      243      246
     441     12      244      243      246
     442     13      243      244      245
     443     14      243      244      255
     444     14      245      244      255
     445     13      244      245      238
     446     14      244      245      256
     447     14      238      245      256
     448     11      243      246      247
     449     10      243      246      248
     450      9      247      246      248
     451      8      246      248      249
     452      6      248      249      250
     453      7      248      249      257
     454      7      248      249      258
     455      4      250      249      257
     456      4      250      249      258
     457      5      257      249      258
     458      4      249      250      259
     459      4      249      250      260
     460      6      249      250      261
     461      5      259      250      260
     462      7      259      250      261
     463      7      260      250      261
     464      8      262      261      250
     465      9      261      262      263
     466     10      261      262      264
     467     11      263      262      264
     468     12      262      264      265
     469     12      262      264      269
     470     13      265      264      269
     471     13      264      265      266
     472     14      264      265      279
     473     14      266      265      279
     474     15      265      266      267
     475     16      265      266      273
     476     15      267      266      273
     477     15      266      267      268
     478     15      266      267      270
     479     16      268      267      270
     480     13      267      268      269
     481     14      267      268      280
     482     14      269      268      280
     483     13      268      269      264
     484     14      268      269      281
     485     14      264      269      281
     486     13      267      270      271
     487     14      267      270      282
     488     14      271      270      282
     489     13      270      271      272
     490     12      270      271      274
     491     12      272      271      274
     492     13      271      272      273
     493     14      271      272      283
     494     14      273      272      283
     495     13      272      273      266
     496     14      272      273      284
     497     14      266      273      284
     498     11      271      274      275
     499     10      271      274      276
     500      9      275      274      276
     501      8      274      276      277
     502      6      276      277      278
     503      7      276      277      285
     504      7      276      277      286
     505      4      278      277      285
     506      4      278      277      286
     507      5      285      277      286
     508      4      277      278      287
     509      4      277      278      288
     510      6      277      278      289
     511      5      287      278      288
     512      7      287      278      289
     513      7      288      278      289
     514      8      290      289      278
     515      9      289      290      291
     516     10      289      290      292
     517     11      291      290      292
     518     12      290      292      293
     519     12      290      292      297
     520     13      293      292      297
     521     13      292      293      294
     522     14      292      293      307
     523     14      294      293      307
     524     15      293      294      295
     525     16      293      294      301
     526     15      295      294      301
     527     15      294      295      296
     528     15      294      295      298
     529     16      296      295      298
     530     13      295      296      297
     531     14      295      296      308
     532     14      297      296      308
     533     13      296      297      292
     534     14      296      297      309
     535     14      292      297      309
     536     13      295      298      299
     537     14      295      298      310
     538     14      299      298      310
     539     13      298      299      300
     540     12      298      299      302
     541     12      300      299      302
     542     13      299      300      301
     543     14      299      300      311
     544     14      301      300      311
     545     13      300      301      294
     546     14      300      301      312
     547     14      294      301      312
     548     11      299      302      303
     549     10      299      302      304
     550      9      303      302      304
     551      8      302      304      305
     552      6      304      305      306
     553      7      304      305      313
     554      7      304      305      314
     555      4      306      305      313
     556      4      306      305      314
     557      5      313      305      314
     558      4      305      306      315
     559      4      305      306      316
     560      2      305      306      317
     561      5      315      306      316
     562      4      315      306      317
     563      4      316      306      317
     564      4      318      317      334
     565      4      318      317      335
     566      2      318      317      306
     567      5      334      317      335
     568      4      334      317      306
     569      4      335      317      306
     570     17      317      318      319
     571      4      317      318      336
     572      2      317      318      346
     573      7      319      318      336
     574     17      319      318      346
     575      4      336      318      346
     576     11      318      319      320
     577     10      318      319      321
     578      9      320      319      321
     579      8      319      321      322
     580     18      321      322      323
     581     18      321      322      333
     582     13      323      322      333
     583     13      322      323      324
     584     14      322      323      337
     585     14      324      323      337
     586     13      323      324      325
     587     14      323      324      338
     588     14      325      324      338
     589     13      324      325      326
     590     13      324      325      332
     591     13      326      325      332
     592     13      325      326      327
     593     13      325      326      331
     594     13      327      326      331
     595     13      326      327      328
     596     14      326      327      339
     597     14      328      327      339
     598     13      327      328      329
     599     14      327      328      340
     600     14      329      328      340
     601     13      328      329      330
     602     14      328      329      341
     603     14      330      329      341
     604     13      329      330      331
     605     14      329      330      342
     606     14      331      330      342
     607     13      330      331      326
     608     14      330      331      343
     609     14      326      331      343
     610     13      325      332      333
     611     14      325      332      344
     612     14      333      332      344
     613     13      332      333      322
     614     14      332      333      345
     615     14      322      333      345
     616      4      347      346      353
     617      4      347      346      354
     618      2      347      346      318
     619      5      353      346      354
     620      4      353      346      318
     621      4      354      346      318
     622      6      346      347      348
     623      4      346      347      355
     624      4      346      347      356
     625      7      348      347      355
     626      7      348      347      356
     627      5      355      347      356
     628     19      347      348      349
     629      6      348      349      350
     630      6      348      349      351
     631      7      348      349      357
     632      2      350      349      351
     633      4      350      349      357
     634      4      351      349      357
     635      4      349      350      358
     636      4      349      350      359
     637      6      349      350      362
     638      5      358      350      359
     639      7      358      350      362
     640      7      359      350      362
     641      6      349      351      352
     642      4      349      351      360
     643      4      349      351      361
     644      7      352      351      360
     645      7      352      351      361
     646      5      360      351      361
     647     19      351      352      390
     648      8      363      362      350
     649      9      362      363      364
     650     10      362      363      365
     651     11      364      363      365
     652     12      363      365      366
     653     12      363      365      370
     654     13      366      365      370
     655     13      365      366      367
     656     14      365      366      380
     657     14      367      366      380
     658     15      366      367      368
     659     16      366      367      374
     660     15      368      367      374
     661     15      367      368      369
     662     15      367      368      371
     663     16      369      368      371
     664     13      368      369      370
     665     14      368      369      381
     666     14      370      369      381
     667     13      369      370      365
     668     14      369      370      382
     669     14      365      370      382
     670     13      368      371      372
     671     14      368      371      383
     672     14      372      371      383
     673     13      371      372      373
     674     12      371      372      375
     675     12      373      372      375
     676     13      372      373      374
     677     14      372      373      384
     678     14      374      373      384
     679     13      373      374      367
     680     14      373      374      385
     681     14      367      374      385
     682     11      372      375      376
     683     10      372      375      377
     684      9      376      375      377
     685      8      375      377      378
     686      6      377      378      379
     687      7      377      378      386
     688      7      377      378      387
     689      4      379      378      386
     690      4      379      378      387
     691      5      386      378      387
     692      4      378      379      388
     693      4      378      379      389
     694      6      378      379      419
     695      5      388      379      389
     696      7      388      379      419
     697      7      389      379      419
     698      4      391      390      407
     699      4      391      390      408
     700      6      391      390      352
     701      5      407      390      408
     702      7      407      390      352
     703      7      408      390      352
     704     17      390      391      392
     705      4      390      391      409
     706      2      390      391      447
     707      7      392      391      409
     708     17      392      391      447
     709      4      409      391      447
     710     11      391      392      393
     711     10      391      392      394
     712      9      393      392      394
     713      8      392      394      395
     714     18      394      395      396
     715     18      394      395      406
     716     13      396      395      406
     717     13      395      396      397
     718     14      395      396      410
     719     14      397      396      410
     720     13      396      397      398
     721     14      396      397      411
     722     14      398      397      411
     723     13      397      398      399
     724     13      397      398      405
     725     13      399      398      405
     726     13      398      399      400
     727     13      398      399      404
     728     13      400      399      404
     729     13      399      400      401
     730     14      399      400      412
     731     14      401      400      412
     732     13      400      401      402
     733     14      400      401      413
     734     14      402      401      413
     735     13      401      402      403
     736     14      401      402      414
     737     14      403      402      414
     738     13      402      403      404
     739     14      402      403      415
     740     14      404      403      415
     741     13      403      404      399
     742     14      403      404      416
     743     14      399      404      416
     744     13      398      405      406
     745     14      398      405      417
     746     14      406      405      417
     747     13      405      406      395
     748     14      405      406      418
     749     14      395      406      418
     750      8      420      419      379
     751      9      419      420      421
     752     10      419      420      422
     753     11      421      420      422
     754     12      420      422      423
     755     12      420      422      427
     756     13      423      422      427
     757     13      422      423      424
     758     14      422      423      437
     759     14      424      423      437
     760     15      423      424      425
     761     16      423      424      431
     762     15      425      424      431
     763     15      424      425      426
     764     15      424      425      428
     765     16      426      425      428
     766     13      425      426      427
     767     14      425      426      438
     768     14      427      426      438
     769     13      426      427      422
     770     14      426      427      439
     771     14      422      427      439
     772     13      425      428      429
     773     14      425      428      440
     774     14      429      428      440
     775     13      428      429      430
     776     12      428      429      432
     777     12      430      429      432
     778     13      429      430      431
     779     14      429      430      441
     780     14      431      430      441
     781     13      430      431      424
     782     14      430      431      442
     783     14      424      431      442
     784     11      429      432      433
     785     10      429      432      434
     786      9      433      432      434
     787      8      432      434      435
     788      6      434      435      436
     789      7      434      435      443
     790      7      434      435      444
     791      4      436      435      443
     792      4      436      435      444
     793      5      443      435      444
     794      4      435      436      445
     795      4      435      436      446
     796      6      435      436      476
     797      5      445      436      446
     798      7      445      436      476
     799      7      446      436      476
     800      4      448      447      464
     801      4      448      447      465
     802      2      448      447      391
     803      5      464      447      465
     804      4      464      447      391
     805      4      465      447      391
     806     17      447      448      449
     807      4      447      448      466
     808      2      447      448      504
     809      7      449      448      466
     810     17      449      448      504
     811      4      466      448      504
     812     11      448      449      450
     813     10      448      449      451
     814      9      450      449      451
     815      8      449      451      452
     816     18      451      452      453
     817     18      451      452      463
     818     13      453      452      463
     819     13      452      453      454
     820     14      452      453      467
     821     14      454      453      467
     822     13      453      454      455
     823     14      453      454      468
     824     14      455      454      468
     825     13      454      455      456
     826     13      454      455      462
     827     13      456      455      462
     828     13      455      456      457
     829     13      455      456      461
     830     13      457      456      461
     831     13      456      457      458
     832     14      456      457      469
     833     14      458      457      469
     834     13      457      458      459
     835     14      457      458      470
     836     14      459      458      470
     837     13      458      459      460
     838     14      458      459      471
     839     14      460      459      471
     840     13      459      460      461
     841     14      459      460      472
     842     14      461      460      472
     843     13      460      461      456
     844     14      460      461      473
     845     14      456      461      473
     846     13      455      462      463
     847     14      455      462      474
     848     14      463      462      474
     849     13      462      463      452
     850     14      462      463      475
     851     14      452      463      475
     852      8      477      476      436
     853      9      476      477      478
     854     10      476      477      479
     855     11      478      477      479
     856     12      477      479      480
     857     12      477      479      484
     858     13      480      479      484
     859     13      479      480      481
     860     14      479      480      494
     861     14      481      480      494
     862     15      480      481      482
     863     16      480      481      488
     864     15      482      481      488
     865     15      481      482      483
     866     15      481      482      485
     867     16      483      482      485
     868     13      482      483      484
     869     14      482      483      495
     870     14      484      483      495
     871     13      483      484      479
     872     14      483      484      496
     873     14      479      484      496
     874     13      482      485      486
     875     14      482      485      497
     876     14      486      485      497
     877     13      485      486      487
     878     12      485      486      489
     879     12      487      486      489
     880     13      486      487      488
     881     14      486      487      498
     882     14      488      487      498
     883     13      487      488      481
     884     14      487      488      499
     885     14      481      488      499
     886     11      486      489      490
     887     10      486      489      491
     888      9      490      489      491
     889      8      489      491      492
     890      6      491      492      493
     891      7      491      492      500
     892      7      491      492      501
     893      4      493      492      500
     894      4      493      492      501
     895      5      500      492      501
     896      4      492      493      502
     897      4      492      493      503
     898      6      492      493      533
     899      5      502      493      503
     900      7      502      493      533
     901      7      503      493      533
     902      4      505      504      521
     903      4      505      504      522
     904      2      505      504      448
     905      5      521      504      522
     906      4      521      504      448
     907      4      522      504      448
     908     17      504      505      506
     909      4      504      505      523
     910      2      504      505      561
     911      7      506      505      523
     912     17      506      505      561
     913      4      523      505      561
     914     11      505      506      507
     915     10      505      506      508
     916      9      507      506      508
     917      8      506      508      509
     918     18      508      509      510
     919     18      508      509      520
     920     13      510      509      520
     921     13      509      510      511
     922     14      509      510      524
     923     14      511      510      524
     924     13      510      511      512
     925     14      510      511      525
     926     14      512      511      525
     927     13      511      512      513
     928     13      511      512      519
     929     13      513      512      519
     930     13      512      513      514
     931     13      512      513      518
     932     13      514      513      518
     933     13      513      514      515
     934     14      513      514      526
     935     14      515      514      526
     936     13      514      515      516
     937     14      514      515      527
     938     14      516      515      527
     939     13      515      516      517
     940     14      515      516      528
     941     14      517      516      528
     942     13      516      517      518
     943     14      516      517      529
     944     14      518      517      529
     945     13      517      518      513
     946     14      517      518      530
     947     14      513      518      530
     948     13      512      519      520
     949     14      512      519      531
     950     14      520      519      531
     951     13      519      520      509
     952     14      519      520      532
     953     14      509      520      532
     954      8      534      533      493
     955      9      533      534      535
     956     10      533      534      536
     957     11      535      534      536
     958     12      534      536      537
     959     12      534      536      541
     960     13      537      536      541
     961     13      536      537      538
     962     14      536      537      551
     963     14      538      537      551
     964     15      537      538      539
     965     16      537      538      545
     966     15      539      538      545
     967     15      538      539      540
     968     15      538      539      542
     969     16      540      539      542
     970     13      539      540      541
     971     14      539      540      552
     972     14      541      540      552
     973     13      540      541      536
     974     14      540      541      553
     975     14      536      541      553
     976     13      539      542      543
     977     14      539      542      554
     978     14      543      542      554
     979     13      542      543      544
     980     12      542      543      546
     981     12      544      543      546
     982     13      543      544      545
     983     14      543      544      555
     984     14      545      544      555
     985     13      544      545      538
     986     14      544      545      556
     987     14      538      545      556
     988     11      543      546      547
     989     10      543      546      548
     990      9      547      546      548
     991      8      546      548      549
     992      6      548      549      550
     993      7      548      549      557
     994      7      548      549      558
     995      4      550      549      557
     996      4      550      549      558
     997      5      557      549      558
     998      4      549      550      559
     999      4      549      550      560
    1000      6      549      550      590
    1001      5      559      550      560
    1002      7      559      550      590
    1003      7      560      550      590
    1004      4      562      561      578
    1005      4      562      561      579
    1006      2      562      561      505
    1007      5      578      561      579
    1008      4      578      561      505
    1009      4      579      561      505
    1010     17      561      562      563
    1011      4      561      562      580
    1012      2      561      562      618
    1013      7      563      562      580
    1014     17      563      562      618
    1015      4      580      562      618
    1016     11      562      563      564
    1017     10      562      563      565
    1018      9      564      563      565
    1019      8      563      565      566
    1020     18      565      566      567
    1021     18      565      566      577
    1022     13      567      566      577
    1023     13      566      567      568
    1024     14      566      567      581
    1025     14      568      567      581
    1026     13      567      568      569
    1027     14      567      568      582
    1028     14      569      568      582
    1029     13      568      569      570
    1030     13      568      569      576
    1031     13      570      569      576
    1032     13      569      570      571
    1033     13      569      570      575
    1034     13      571      570      575
    1035     13      570      571      572
    1036     14      570      571      583
    1037     14      572      571      583
    1038     13      571      572      573
    1039     14      571      572      584
    1040     14      573      572      584
    1041     13      572      573      574
    1042     14      572      573      585
    1043     14      574      573      585
    1044     13      573      574      575
    1045     14      573      574      586
    1046     14      575      574      586
    1047     13      574      575      570
    1048     14      574      575      587
    1049     14      570      575      587
    1050     13      569      576      577
    1051     14      569      576      588
    1052     14      577      576      588
    1053     13      576      577      566
    1054     14      576      577      589
    1055     14      566      577      589
    1056      8      591      590      550
    1057      9      590      591      592
    1058     10      590      591      593
    1059     11      592      591      593
    1060     12      591      593      594
    1061     12      591      593      598
    1062     13      594      593      598
    1063     13      593      594      595
    1064     14      593      594      608
    1065     14      595      594      608
    1066     15      594      595      596
    1067     16      594      595      602
    1068     15      596      595      602
    1069     15      595      596      597
    1070     15      595      596      599
    1071     16      597      596      599
    1072     13      596      597      598
    1073     14      596      597      609
    1074     14      598      597      609
    1075     13      597      598      593
    1076     14      597      598      610
    1077     14      593      598      610
    1078     13      596      599      600
    1079     14      596      599      611
    1080     14      600      599      611
    1081     13      599      600      601
    1082     12      599      600      603
    1083     12      601      600      603
    1084     13      600      601      602
    1085     14      600      601      612
    1086     14      602      601      612
    1087     13      601      602      595
    1088     14      601      602      613
    1089     14      595      602      613
    1090     11      600      603      604
    1091     10      600      603      605
    1092      9      604      603      605
    1093      8      603      605      606
    1094      6      605      606      607
    1095      7      605      606      614
    1096      7      605      606      615
    1097      4      607      606      614
    1098      4      607      606      615
    1099      5      614      606      615
    1100      4      606      607      616
    1101      4      606      607      617
    1102      6      606      607      647
    1103      5      616      607      617
    1104      7      616      607      647
    1105      7      617      607      647
    1106      4      619      618      635
    1107      4      619      618      636
    1108      2      619      618      562
    1109      5      635      618      636
    1110      4      635      618      562
    1111      4      636      618      562
    1112     17      618      619      620
    1113      4      618      619      637
    1114      2      618      619      675
    1115      7      620      619      637
    1116     17      620      619      675
    1117      4      637      619      675
    1118     11      619      620      621
    1119     10      619      620      622
    1120      9      621      620      622
    1121      8      620      622      623
    1122     18      622      623      624
    1123     18      622      623      634
    1124     13      624      623      634
    1125     13      623      624      625
    1126     14      623      624      638
    1127     14      625      624      638
    1128     13      624      625      626
    1129     14      624      625      639
    1130     14      626      625      639
    1131     13      625      626      627
    1132     13      625      626      633
    1133     13      627      626      633
    1134     13      626      627      628
    1135     13      626      627      632
    1136     13      628      627      632
    1137     13      627      628      629
    1138     14      627      628      640
    1139     14      629      628      640
    1140     13      628      629      630
    1141     14      628      629      641
    1142     14      630      629      641
    1143     13      629      630      631
    1144     14      629      630      642
    1145     14      631      630      642
    1146     13      630      631      632
    1147     14      630      631      643
    1148     14      632      631      643
    1149     13      631      632      627
    1150     14      631      632      644
    1151     14      627      632      644
    1152     13      626      633      634
    1153     14      626      633      645
    1154     14      634      633      645
    1155     13      633      634      623
    1156     14      633      634      646
    1157     14      623      634      646
    1158      8      648      647      607
    1159      9      647      648      649
    1160     10      647      648      650
    1161     11      649      648      650
    1162     12      648      650      651
    1163     12      648      650      655
    1164     13      651      650      655
    1165     13      650      651      652
    1166     14      650      651      665
    1167     14      652      651      665
    1168     15      651      652      653
    1169     16      651      652      659
    1170     15      653      652      659
    1171     15      652      653      654
    1172     15      652      653      656
    1173     16      654      653      656
    1174     13      653      654      655
    1175     14      653      654      666
    1176     14      655      654      666
    1177     13      654      655      650
    1178     14      654      655      667
    1179     14      650      655      667
    1180     13      653      656      657
    1181     14      653      656      668
    1182     14      657      656      668
    1183     13      656      657      658
    1184     12      656      657      660
    1185     12      658      657      660
    1186     13      657      658      659
    1187     14      657      658      669
    1188     14      659      658      669
    1189     13      658      659      652
    1190     14      658      659      670
    1191     14      652      659      670
    1192     11      657      660      661
    1193     10      657      660      662
    1194      9      661      660      662
    1195      8      660      662      663
    1196      6      662      663      664
    1197      7      662      663      671
    1198      7      662      663      672
    1199      4      664      663      671
    1200      4      664      663      672
    1201      5      671      663      672
    1202      4      663      664      673
    1203      4      663      664      674
    1204      6      663      664      704
    1205      5      673      664      674
    1206      7      673      664      704
    1207      7      674      664      704
    1208      4      676      675      692
    1209      4      676      675      693
    1210      2      676      675      619
    1211      5      692      675      693
    1212      4      692      675      619
    1213      4      693      675      619
    1214     17      675      676      677
    1215      4      675      676      694
    1216      2      675      676      732
    1217      7      677      676      694
    1218     17      677      676      732
    1219      4      694      676      732
    1220     11      676      677      678
    1221     10      676      677      679
    1222      9      678      677      679
    1223      8      677      679      680
    1224     18      679      680      681
    1225     18      679      680      691
    1226     13      681      680      691
    1227     13      680      681      682
    1228     14      680      681      695
    1229     14      682      681      695
    1230     13      681      682      683
    1231     14      681      682      696
    1232     14      683      682      696
    1233     13      682      683      684
    1234     13      682      683      690
    1235     13      684      683      690
    1236     13      683      684      685
    1237     13      683      684      689
    1238     13      685      684      689
    1239     13      684      685      686
    1240     14      684      685      697
    1241     14      686      685      697
    1242     13      685      686      687
    1243     14      685      686      698
    1244     14      687      686      698
    1245     13      686      687      688
    1246     14      686      687      699
    1247     14      688      687      699
    1248     13      687      688      689
    1249     14      687      688      700
    1250     14      689      688      700
    1251     13      688      689      684
    1252     14      688      689      701
    1253     14      684      689      701
    1254     13      683      690      691
    1255     14      683      690      702
    1256     14      691      690      702
    1257     13      690      691      680
    1258     14      690      691      703
    1259     14      680      691      703
    1260      8      705      704      664
    1261      9      704      705      706
    1262     10      704      705      707
    1263     11      706      705      707
    1264     12      705      707      708
    1265     12      705      707      712
    1266     13      708      707      712
    1267     13      707      708      709
    1268     14      707      708      722
    1269     14      709      708      722
    1270     15      708      709      710
    1271     16      708      709      716
    1272     15      710      709      716
    1273     15      709      710      711
    1274     15      709      710      713
    1275     16      711      710      713
    1276     13      710      711      712
    1277     14      710      711      723
    1278     14      712      711      723
    1279     13      711      712      707
    1280     14      711      712      724
    1281     14      707      712      724
    1282     13      710      713      714
    1283     14      710      713      725
    1284     14      714      713      725
    1285     13      713      714      715
    1286     12      713      714      717
    1287     12      715      714      717
    1288     13      714      715      716
    1289     14      714      715      726
    1290     14      716      715      726
    1291     13      715      716      709
    1292     14      715      716      727
    1293     14      709      716      727
    1294     11      714      717      718
    1295     10      714      717      719
    1296      9      718      717      719
    1297      8      717      719      720
    1298      6      719      720      721
    1299      7      719      720      728
    1300      7      719      720      729
    1301      4      721      720      728
    1302      4      721      720      729
    1303      5      728      720      729
    1304      4      720      721      730
    1305      4      720      721      731
    1306      2      720      721      761
    1307      5      730      721      731
    1308      4      730      721      761
    1309      4      731      721      761
    1310      4      733      732      749
    1311      4      733      732      750
    1312      2      733      732      676
    1313      5      749      732      750
    1314      4      749      732      676
    1315      4      750      732      676
    1316     17      732      733      734
    1317      4      732      733      751
    1318      2      732      733      790
    1319      7      734      733      751
    1320     17      734      733      790
    1321      4      751      733      790
    1322     11      733      734      735
    1323     10      733      734      736
    1324      9      735      734      736
    1325      8      734      736      737
    1326     18      736      737      738
    1327     18      736      737      748
    1328     13      738      737      748
    1329     13      737      738      739
    1330     14      737      738      752
    1331     14      739      738      752
    1332     13      738      739      740
    1333     14      738      739      753
    1334     14      740      739      753
    1335     13      739      740      741
    1336     13      739      740      747
    1337     13      741      740      747
    1338     13      740      741      742
    1339     13      740      741      746
    1340     13      742      741      746
    1341     13      741      742      743
    1342     14      741      742      754
    1343     14      743      742      754
    1344     13      742      743      744
    1345     14      742      743      755
    1346     14      744      743      755
    1347     13      743      744      745
    1348     14      743      744      756
    1349     14      745      744      756
    1350     13      744      745      746
    1351     14      744      745      757
    1352     14      746      745      757
    1353     13      745      746      741
    1354     14      745      746      758
    1355     14      741      746      758
    1356     13      740      747      748
    1357     14      740      747      759
    1358     14      748      747      759
    1359     13      747      748      737
    1360     14      747      748      760
    1361     14      737      748      760
    1362      4      762      761      778
    1363      4      762      761      779
    1364      2      762      761      721
    1365      5      778      761      779
    1366      4      778      761      721
    1367      4      779      761      721
    1368     17      761      762      763
    1369      4      761      762      780
    1370      2      761      762      819
    1371      7      763      762      780
    1372     17      763      762      819
    1373      4      780      762      819
    1374     11      762      763      764
    1375     10      762      763      765
    1376      9      764      763      765
    1377      8      763      765      766
    1378     18      765      766      767
    1379     18      765      766      777
    1380     13      767      766      777
    1381     13      766      767      768
    1382     14      766      767      781
    1383     14      768      767      781
    1384     13      767      768      769
    1385     14      767      768      782
    1386     14      769      768      782
    1387     13      768      769      770
    1388     13      768      769      776
    1389     13      770      769      776
    1390     13      769      770      771
    1391     13      769      770      775
    1392     13      771      770      775
    1393     13      770      771      772
    1394     14      770      771      783
    1395     14      772      771      783
    1396     13      771      772      773
    1397     14      771      772      784
    1398     14      773      772      784
    1399     13      772      773      774
    1400     14      772      773      785
    1401     14      774      773      785
    1402     13      773      774      775
    1403     14      773      774      786
    1404     14      775      774      786
    1405     13      774      775      770
    1406     14      774      775      787
    1407     14      770      775      787
    1408     13      769      776      777
    1409     14      769      776      788
    1410     14      777      776      788
    1411     13      776      777      766
    1412     14      776      777      789
    1413     14      766      777      789
    1414      4      791      790      807
    1415      4      791      790      808
    1416      2      791      790      733
    1417      5      807      790      808
    1418      4      807      790      733
    1419      4      808      790      733
    1420     17      790      791      792
    1421      4      790      791      809
    1422      2      790      791      848
    1423      7      792      791      809
    1424     17      792      791      848
    1425      4      809      791      848
    1426     11      791      792      793
    1427     10      791      792      794
    1428      9      793      792      794
    1429      8      792      794      795
    1430     18      794      795      796
    1431     18      794      795      806
    1432     13      796      795      806
    1433     13      795      796      797
    1434     14      795      796      810
    1435     14      797      796      810
    1436     13      796      797      798
    1437     14      796      797      811
    1438     14      798      797      811
    1439     13      797      798      799
    1440     13      797      798      805
    1441     13      799      798      805
    1442     13      798      799      800
    1443     13      798      799      804
    1444     13      800      799      804
    1445     13      799      800      801
    1446     14      799      800      812
    1447     14      801      800      812
    1448     13      800      801      802
    1449     14      800      801      813
    1450     14      802      801      813
    1451     13      801      802      803
    1452     14      801      802      814
    1453     14      803      802      814
    1454     13      802      803      804
    1455     14      802      803      815
    1456     14      804      803      815
    1457     13      803      804      799
    1458     14      803      804      816
    1459     14      799      804      816
    1460     13      798      805      806
    1461     14      798      805      817
    1462     14      806      805      817
    1463     13      805      806      795
    1464     14      805      806      818
    1465     14      795      806      818
    1466      4      820      819      836
    1467      4      820      819      837
    1468      2      820      819      762
    1469      5      836      819      837
    1470      4      836      819      762
    1471      4      837      819      762
    1472     17      819      820      821
    1473      4      819      820      838
    1474      2      819      820      877
    1475      7      821      820      838
    1476     17      821      820      877
    1477      4      838      820      877
    1478     11      820      821      822
    1479     10      820      821      823
    1480      9      822      821      823
    1481      8      821      823      824
    1482     18      823      824      825
    1483     18      823      824      835
    1484     13      825      824      835
    1485     13      824      825      826
    1486     14      824      825      839
    1487     14      826      825      839
    1488     13      825      826      827
    1489     14      825      826      840
    1490     14      827      826      840
    1491     13      826      827      828
    1492     13      826      827      834
    1493     13      828      827      834
    1494     13      827      828      829
    1495     13      827      828      833
    1496     13      829      828      833
    1497     13      828      829      830
    1498     14      828      829      841
    1499     14      830      829      841
    1500     13      829      830      831
    1501     14      829      830      842
    1502     14      831      830      842
    1503     13      830      831      832
    1504     14      830      831      843
    1505     14      832      831      843
    1506     13      831      832      833
    1507     14      831      832      844
    1508     14      833      832      844
    1509     13      832      833      828
    1510     14      832      833      845
    1511     14      828      833      845
    1512     13      827      834      835
    1513     14      827      834      846
    1514     14      835      834      846
    1515     13      834      835      824
    1516     14      834      835      847
    1517     14      824      835      847
    1518      4      849      848      865
    1519      4      849      848      866
    1520      2      849      848      791
    1521      5      865      848      866
    1522      4      865      848      791
    1523      4      866      848      791
    1524     17      848      849      850
    1525      4      848      849      867
    1526      2      848      849      906
    1527      7      850      849      867
    1528     17      850      849      906
    1529      4      867      849      906
    1530     11      849      850      851
    1531     10      849      850      852
    1532      9      851      850      852
    1533      8      850      852      853
    1534     18      852      853      854
    1535     18      852      853      864
    1536     13      854      853      864
    1537     13      853      854      855
    1538     14      853      854      868
    1539     14      855      854      868
    1540     13      854      855      856
    1541     14      854      855      869
    1542     14      856      855      869
    1543     13      855      856      857
    1544     13      855      856      863
    1545     13      857      856      863
    1546     13      856      857      858
    1547     13      856      857      862
    1548     13      858      857      862
    1549     13      857      858      859
    1550     14      857      858      870
    1551     14      859      858      870
    1552     13      858      859      860
    1553     14      858      859      871
    1554     14      860      859      871
    1555     13      859      860      861
    1556     14      859      860      872
    1557     14      861      860      872
    1558     13      860      861      862
    1559     14      860      861      873
    1560     14      862      861      873
    1561     13      861      862      857
    1562     14      861      862      874
    1563     14      857      862      874
    1564     13      856      863      864
    1565     14      856      863      875
    1566     14      864      863      875
    1567     13      863      864      853
    1568     14      863      864      876
    1569     14      853      864      876
    1570      4      878      877      894
    1571      4      878      877      895
    1572      2      878      877      820
    1573      5      894      877      895
    1574      4      894      877      820
    1575      4      895      877      820
    1576     17      877      878      879
    1577      4      877      878      896
    1578      2      877      878      935
    1579      7      879      878      896
    1580     17      879      878      935
    1581      4      896      878      935
    1582     11      878      879      880
    1583     10      878      879      881
    1584      9      880      879      881
    1585      8      879      881      882
    1586     18      881      882      883
    1587     18      881      882      893
    1588     13      883      882      893
    1589     13      882      883      884
    1590     14      882      883      897
    1591     14      884      883      897
    1592     13      883      884      885
    1593     14      883      884      898
    1594     14      885      884      898
    1595     13      884      885      886
    1596     13      884      885      892
    1597     13      886      885      892
    1598     13      885      886      887
    1599     13      885      886      891
    1600     13      887      886      891
    1601     13      886      887      888
    1602     14      886      887      899
    1603     14      888      887      899
    1604     13      887      888      889
    1605     14      887      888      900
    1606     14      889      888      900
    1607     13      888      889      890
    1608     14      888      889      901
    1609     14      890      889      901
    1610     13      889      890      891
    1611     14      889      890      902
    1612     14      891      890      902
    1613     13      890      891      886
    1614     14      890      891      903
    1615     14      886      891      903
    1616     13      885      892      893
    1617     14      885      892      904
    1618     14      893      892      904
    1619     13      892      893      882
    1620     14      892      893      905
    1621     14      882      893      905
    1622      4      907      906      923
    1623      4      907      906      924
    1624      2      907      906      849
    1625      5      923      906      924
    1626      4      923      906      849
    1627      4      924      906      849
    1628     17      906      907      908
    1629      4      906      907      925
    1630      2      906      907      964
    1631      7      908      907      925
    1632     17      908      907      964
    1633      4      925      907      964
    1634     11      907      908      909
    1635     10      907      908      910
    1636      9      909      908      910
    1637      8      908      910      911
    1638     18      910      911      912
    1639     18      910      911      922
    1640     13      912      911      922
    1641     13      911      912      913
    1642     14      911      912      926
    1643     14      913      912      926
    1644     13      912      913      914
    1645     14      912      913      927
    1646     14      914      913      927
    1647     13      913      914      915
    1648     13      913      914      921
    1649     13      915      914      921
    1650     13      914      915      916
    1651     13      914      915      920
    1652     13      916      915      920
    1653     13      915      916      917
    1654     14      915      916      928
    1655     14      917      916      928
    1656     13      916      917      918
    1657     14      916      917      929
    1658     14      918      917      929
    1659     13      917      918      919
    1660     14      917      918      930
    1661     14      919      918      930
    1662     13      918      919      920
    1663     14      918      919      931
    1664     14      920      919      931
    1665     13      919      920      915
    1666     14      919      920      932
    1667     14      915      920      932
    1668     13      914      921      922
    1669     14      914      921      933
    1670     14      922      921      933
    1671     13      921      922      911
    1672     14      921      922      934
    1673     14      911      922      934
    1674      4      936      935      952
    1675      4      936      935      953
    1676      2      936      935      878
    1677      5      952      935      953
    1678      4      952      935      878
    1679      4      953      935      878
    1680     17      935      936      937
    1681      4      935      936      954
    1682      2      935      936      993
    1683      7      937      936      954
    1684     17      937      936      993
    1685      4      954      936      993
    1686     11      936      937      938
    1687     10      936      937      939
    1688      9      938      937      939
    1689      8      937      939      940
    1690     18      939      940      941
    1691     18      939      940      951
    1692     13      941      940      951
    1693     13      940      941      942
    1694     14      940      941      955
    1695     14      942      941      955
    1696     13      941      942      943
    1697     14      941      942      956
    1698     14      943      942      956
    1699     13      942      943      944
    1700     13      942      943      950
    1701     13      944      943      950
    1702     13      943      944      945
    1703     13      943      944      949
    1704     13      945      944      949
    1705     13      944      945      946
    1706     14      944      945      957
    1707     14      946      945      957
    1708     13      945      946      947
    1709     14      945      946      958
    1710     14      947      946      958
    1711     13      946      947      948
    1712     14      946      947      959
    1713     14      948      947      959
    1714     13      947      948      949
    1715     14      947      948      960
    1716     14      949      948      960
    1717     13      948      949      944
    1718     14      948      949      961
    1719     14      944      949      961
    1720     13      943      950      951
    1721     14      943      950      962
    1722     14      951      950      962
    1723     13      950      951      940
    1724     14      950      951      963
    1725     14      940      951      963
    1726      4      965      964      981
    1727      4      965      964      982
    1728      2      965      964      907
    1729      5      981      964      982
    1730      4      981      964      907
    1731      4      982      964      907
    1732     17      964      965      966
    1733      4      964      965      983
    1734      2      964      965     1022
    1735      7      966      965      983
    1736     17      966      965     1022
    1737      4      983      965     1022
    1738     11      965      966      967
    1739     10      965      966      968
    1740      9      967      966      968
    1741      8      966      968      969
    1742     18      968      969      970
    1743     18      968      969      980
    1744     13      970      969      980
    1745     13      969      970      971
    1746     14      969      970      984
    1747     14      971      970      984
    1748     13      970      971      972
    1749     14      970      971      985
    1750     14      972      971      985
    1751     13      971      972      973
    1752     13      971      972      979
    1753     13      973      972      979
    1754     13      972      973      974
    1755     13      972      973      978
    1756     13      974      973      978
    1757     13      973      974      975
    1758     14      973      974      986
    1759     14      975      974      986
    1760     13      974      975      976
    1761     14      974      975      987
    1762     14      976      975      987
    1763     13      975      976      977
    1764     14      975      976      988
    1765     14      977      976      988
    1766     13      976      977      978
    1767     14      976      977      989
    1768     14      978      977      989
    1769     13      977      978      973
    1770     14      977      978      990
    1771     14      973      978      990
    1772     13      972      979      980
    1773     14      972      979      991
    1774     14      980      979      991
    1775     13      979      980      969
    1776     14      979      980      992
    1777     14      969      980      992
    1778      4      994      993     1010
    1779      4      994      993     1011
    1780      2      994      993      936
    1781      5     1010      993     1011
    1782      4     1010      993      936
    1783      4     1011      993      936
    1784     17      993      994      995
    1785      4      993      994     1012
    1786      2      993      994     1054
    1787      7      995      994     1012
    1788     17      995      994     1054
    1789      4     1012      994     1054
    1790     11      994      995      996
    1791     10      994      995      997
    1792      9      996      995      997
    1793      8      995      997      998
    1794     18      997      998      999
    1795     18      997      998     1009
    1796     13      999      998     1009
    1797     13      998      999     1000
    1798     14      998      999     1013
    1799     14     1000      999     1013
    1800     13      999     1000     1001
    1801     14      999     1000     1014
    1802     14     1001     1000     1014
    1803     13     1000     1001     1002
    1804     13     1000     1001     1008
    1805     13     1002     1001     1008
    1806     13     1001     1002     1003
    1807     13     1001     1002     1007
    1808     13     1003     1002     1007
    1809     13     1002     1003     1004
    1810     14     1002     1003     1015
    1811     14     1004     1003     1015
    1812     13     1003     1004     1005
    1813     14     1003     1004     1016
    1814     14     1005     1004     1016
    1815     13     1004     1005     1006
    1816     14     1004     1005     1017
    1817     14     1006     1005     1017
    1818     13     1005     1006     1007
    1819     14     1005     1006     1018
    1820     14     1007     1006     1018
    1821     13     1006     1007     1002
    1822     14     1006     1007     1019
    1823     14     1002     1007     1019
    1824     13     1001     1008     1009
    1825     14     1001     1008     1020
    1826     14     1009     1008     1020
    1827     13     1008     1009      998
    1828     14     1008     1009     1021
    1829     14      998     1009     1021
    1830      4     1023     1022     1039
    1831      4     1023     1022     1040
    1832      2     1023     1022      965
    1833      5     1039     1022     1040
    1834      4     1039     1022      965
    1835      4     1040     1022      965
    1836     17     1022     1023     1024
    1837      4     1022     1023     1041
    1838      2     1022     1023     1062
    1839      7     1024     1023     1041
    1840     17     1024     1023     1062
    1841      4     1041     1023     1062
    1842     11     1023     1024     1025
    1843     10     1023     1024     1026
    1844      9     1025     1024     1026
    1845      8     1024     1026     1027
    1846     18     1026     1027     1028
    1847     18     1026     1027     1038
    1848     13     1028     1027     1038
    1849     13     1027     1028     1029
    1850     14     1027     1028     1042
    1851     14     1029     1028     1042
    1852     13     1028     1029     1030
    1853     14     1028     1029     1043
    1854     14     1030     1029     1043
    1855     13     1029     1030     1031
    1856     13     1029     1030     1037
    1857     13     1031     1030     1037
    1858     13     1030     1031     1032
    1859     13     1030     1031     1036
    1860     13     1032     1031     1036
    1861     13     1031     1032     1033
    1862     14     1031     1032     1044
    1863     14     1033     1032     1044
    1864     13     1032     1033     1034
    1865     14     1032     1033     1045
    1866     14     1034     1033     1045
    1867     13     1033     1034     1035
    1868     14     1033     1034     1046
    1869     14     1035     1034     1046
    1870     13     1034     1035     1036
    1871     14     1034     1035     1047
    1872     14     1036     1035     1047
    1873     13     1035     1036     1031
    1874     14     1035     1036     1048
    1875     14     1031     1036     1048
    1876     13     1030     1037     1038
    1877     14     1030     1037     1049
    1878     14     1038     1037     1049
    1879     13     1037     1038     1027
    1880     14     1037     1038     1050
    1881     14     1027     1038     1050
    1882      1     1051     1052     1053
    1883      2     1052     1053     1054
    1884      3     1052     1053     1055
    1885      3     1052     1053     1056
    1886      4     1054     1053     1055
    1887      4     1054     1053     1056
    1888      5     1055     1053     1056
    1889      4     1053     1054     1057
    1890      4     1053     1054     1058
    1891      2     1053     1054      994
    1892      5     1057     1054     1058
    1893      4     1057     1054      994
    1894      4     1058     1054      994
    1895      1     1059     1060     1061
    1896      2     1060     1061     1062
    1897      3     1060     1061     1063
    1898      3     1060     1061     1064
    1899      4     1062     1061     1063
    1900      4     1062     1061     1064
    1901      5     1063     1061     1064
    1902      4     1061     1062     1065
    1903      4     1061     1062     1066
    1904      2     1061     1062     1023
    1905      5     1065     1062     1066
    1906      4     1065     1062     1023
    1907      4     1066     1062     1023

Dihedrals

       1      1        1        2        3        4
       2      1        1        2        3        5
       3      1        1        2        3        6
       4      2        2        3        4        7
       5      2        2        3        4        8
       6      3        2        3        4        9
       7      4        5        3        4        7
       8      4        5        3        4        8
       9      4        5        3        4        9
      10      4        6        3        4        7
      11      4        6        3        4        8
      12      4        6        3        4        9
      13      5        4        9       10       11
      14      6        4        9       10       12
      15      7        9       10       12       13
      16      7        9       10       12       17
      17      7       11       10       12       13
      18      7       11       10       12       17
      19      8       10       12       13       14
      20      8       10       12       13       27
      21      8       17       12       13       14
      22      8       17       12       13       27
      23      8       12       13       14       15
      24      8       12       13       14       21
      25      8       27       13       14       15
      26      8       27       13       14       21
      27      8       13       14       15       16
      28      8       13       14       15       18
      29      8       21       14       15       16
      30      8       21       14       15       18
      31      8       14       15       16       17
      32      8       14       15       16       28
      33      8       18       15       16       17
      34      8       18       15       16       28
      35      8       15       16       17       12
      36      8       15       16       17       29
      37      8       28       16       17       12
      38      8       28       16       17       29
      39      8       14       15       18       19
      40      8       14       15       18       30
      41      8       16       15       18       19
      42      8       16       15       18       30
      43      8       15       18       19       20
      44      8       15       18       19       22
      45      8       30       18       19       20
      46      8       30       18       19       22
      47      8       18       19       20       21
      48      8       18       19       20       31
      49      8       22       19       20       21
      50      8       22       19       20       31
      51      8       19       20       21       14
      52      8       19       20       21       32
      53      8       31       20       21       14
      54      8       31       20       21       32
      55      7       18       19       22       23
      56      7       18       19       22       24
      57      7       20       19       22       23
      58      7       20       19       22       24
      59      6       19       22       24       25
      60      5       23       22       24       25
      61      9       22       24       25       26
      62     10       22       24       25       33
      63     10       22       24       25       34
      64      4       24       25       26       35
      65      4       24       25       26       36
      66     11       24       25       26       37
      67      4       33       25       26       35
      68      4       33       25       26       36
      69      4       33       25       26       37
      70      4       34       25       26       35
      71      4       34       25       26       36
      72      4       34       25       26       37
      73      8       16       17       12       10
      74      8       16       17       12       13
      75      8       29       17       12       10
      76      8       29       17       12       13
      77      8       20       21       14       13
      78      8       20       21       14       15
      79      8       32       21       14       13
      80      8       32       21       14       15
      81      9        3        4        9       10
      82     10        7        4        9       10
      83     10        8        4        9       10
      84      5       26       37       38       39
      85      6       26       37       38       40
      86      7       37       38       40       41
      87      7       37       38       40       45
      88      7       39       38       40       41
      89      7       39       38       40       45
      90      8       38       40       41       42
      91      8       38       40       41       55
      92      8       45       40       41       42
      93      8       45       40       41       55
      94      8       40       41       42       43
      95      8       40       41       42       49
      96      8       55       41       42       43
      97      8       55       41       42       49
      98      8       41       42       43       44
      99      8       41       42       43       46
     100      8       49       42       43       44
     101      8       49       42       43       46
     102      8       42       43       44       45
     103      8       42       43       44       56
     104      8       46       43       44       45
     105      8       46       43       44       56
     106      8       43       44       45       40
     107      8       43       44       45       57
     108      8       56       44       45       40
     109      8       56       44       45       57
     110      8       42       43       46       47
     111      8       42       43       46       58
     112      8       44       43       46       47
     113      8       44       43       46       58
     114      8       43       46       47       48
     115      8       43       46       47       50
     116      8       58       46       47       48
     117      8       58       46       47       50
     118      8       46       47       48       49
     119      8       46       47       48       59
     120      8       50       47       48       49
     121      8       50       47       48       59
     122      8       47       48       49       42
     123      8       47       48       49       60
     124      8       59       48       49       42
     125      8       59       48       49       60
     126      7       46       47       50       51
     127      7       46       47       50       52
     128      7       48       47       50       51
     129      7       48       47       50       52
     130      6       47       50       52       53
     131      5       51       50       52       53
     132      9       50       52       53       54
     133     10       50       52       53       61
     134     10       50       52       53       62
     135      4       52       53       54       63
     136      4       52       53       54       64
     137     11       52       53       54       65
     138      4       61       53       54       63
     139      4       61       53       54       64
     140      4       61       53       54       65
     141      4       62       53       54       63
     142      4       62       53       54       64
     143      4       62       53       54       65
     144      8       44       45       40       38
     145      8       44       45       40       41
     146      8       57       45       40       38
     147      8       57       45       40       41
     148      8       48       49       42       41
     149      8       48       49       42       43
     150      8       60       49       42       41
     151      8       60       49       42       43
     152      9       25       26       37       38
     153     10       35       26       37       38
     154     10       36       26       37       38
     155      5       54       65       66       67
     156      6       54       65       66       68
     157      7       65       66       68       69
     158      7       65       66       68       73
     159      7       67       66       68       69
     160      7       67       66       68       73
     161      8       66       68       69       70
     162      8       66       68       69       83
     163      8       73       68       69       70
     164      8       73       68       69       83
     165      8       68       69       70       71
     166      8       68       69       70       77
     167      8       83       69       70       71
     168      8       83       69       70       77
     169      8       69       70       71       72
     170      8       69       70       71       74
     171      8       77       70       71       72
     172      8       77       70       71       74
     173      8       70       71       72       73
     174      8       70       71       72       84
     175      8       74       71       72       73
     176      8       74       71       72       84
     177      8       71       72       73       68
     178      8       71       72       73       85
     179      8       84       72       73       68
     180      8       84       72       73       85
     181      8       70       71       74       75
     182      8       70       71       74       86
     183      8       72       71       74       75
     184      8       72       71       74       86
     185      8       71       74       75       76
     186      8       71       74       75       78
     187      8       86       74       75       76
     188      8       86       74       75       78
     189      8       74       75       76       77
     190      8       74       75       76       87
     191      8       78       75       76       77
     192      8       78       75       76       87
     193      8       75       76       77       70
     194      8       75       76       77       88
     195      8       87       76       77       70
     196      8       87       76       77       88
     197      7       74       75       78       79
     198      7       74       75       78       80
     199      7       76       75       78       79
     200      7       76       75       78       80
     201      6       75       78       80       81
     202      5       79       78       80       81
     203      9       78       80       81       82
     204     10       78       80       81       89
     205     10       78       80       81       90
     206      4       80       81       82       91
     207      4       80       81       82       92
     208     11       80       81       82       93
     209      4       89       81       82       91
     210      4       89       81       82       92
     211      4       89       81       82       93
     212      4       90       81       82       91
     213      4       90       81       82       92
     214      4       90       81       82       93
     215      8       72       73       68       66
     216      8       72       73       68       69
     217      8       85       73       68       66
     218      8       85       73       68       69
     219      8       76       77       70       69
     220      8       76       77       70       71
     221      8       88       77       70       69
     222      8       88       77       70       71
     223      9       53       54       65       66
     224     10       63       54       65       66
     225     10       64       54       65       66
     226      5       82       93       94       95
     227      6       82       93       94       96
     228      7       93       94       96       97
     229      7       93       94       96      101
     230      7       95       94       96       97
     231      7       95       94       96      101
     232      8       94       96       97       98
     233      8       94       96       97      111
     234      8      101       96       97       98
     235      8      101       96       97      111
     236      8       96       97       98       99
     237      8       96       97       98      105
     238      8      111       97       98       99
     239      8      111       97       98      105
     240      8       97       98       99      100
     241      8       97       98       99      102
     242      8      105       98       99      100
     243      8      105       98       99      102
     244      8       98       99      100      101
     245      8       98       99      100      112
     246      8      102       99      100      101
     247      8      102       99      100      112
     248      8       99      100      101       96
     249      8       99      100      101      113
     250      8      112      100      101       96
     251      8      112      100      101      113
     252      8       98       99      102      103
     253      8       98       99      102      114
     254      8      100       99      102      103
     255      8      100       99      102      114
     256      8       99      102      103      104
     257      8       99      102      103      106
     258      8      114      102      103      104
     259      8      114      102      103      106
     260      8      102      103      104      105
     261      8      102      103      104      115
     262      8      106      103      104      105
     263      8      106      103      104      115
     264      8      103      104      105       98
     265      8      103      104      105      116
     266      8      115      104      105       98
     267      8      115      104      105      116
     268      7      102      103      106      107
     269      7      102      103      106      108
     270      7      104      103      106      107
     271      7      104      103      106      108
     272      6      103      106      108      109
     273      5      107      106      108      109
     274      9      106      108      109      110
     275     10      106      108      109      117
     276     10      106      108      109      118
     277      4      108      109      110      119
     278      4      108      109      110      120
     279     11      108      109      110      121
     280      4      117      109      110      119
     281      4      117      109      110      120
     282      4      117      109      110      121
     283      4      118      109      110      119
     284      4      118      109      110      120
     285      4      118      109      110      121
     286      8      100      101       96       94
     287      8      100      101       96       97
     288      8      113      101       96       94
     289      8      113      101       96       97
     290      8      104      105       98       97
     291      8      104      105       98       99
     292      8      116      105       98       97
     293      8      116      105       98       99
     294      9       81       82       93       94
     295     10       91       82       93       94
     296     10       92       82       93       94
     297      5      110      121      122      123
     298      6      110      121      122      124
     299      7      121      122      124      125
     300      7      121      122      124      129
     301      7      123      122      124      125
     302      7      123      122      124      129
     303      8      122      124      125      126
     304      8      122      124      125      139
     305      8      129      124      125      126
     306      8      129      124      125      139
     307      8      124      125      126      127
     308      8      124      125      126      133
     309      8      139      125      126      127
     310      8      139      125      126      133
     311      8      125      126      127      128
     312      8      125      126      127      130
     313      8      133      126      127      128
     314      8      133      126      127      130
     315      8      126      127      128      129
     316      8      126      127      128      140
     317      8      130      127      128      129
     318      8      130      127      128      140
     319      8      127      128      129      124
     320      8      127      128      129      141
     321      8      140      128      129      124
     322      8      140      128      129      141
     323      8      126      127      130      131
     324      8      126      127      130      142
     325      8      128      127      130      131
     326      8      128      127      130      142
     327      8      127      130      131      132
     328      8      127      130      131      134
     329      8      142      130      131      132
     330      8      142      130      131      134
     331      8      130      131      132      133
     332      8      130      131      132      143
     333      8      134      131      132      133
     334      8      134      131      132      143
     335      8      131      132      133      126
     336      8      131      132      133      144
     337      8      143      132      133      126
     338      8      143      132      133      144
     339      7      130      131      134      135
     340      7      130      131      134      136
     341      7      132      131      134      135
     342      7      132      131      134      136
     343      6      131      134      136      137
     344      5      135      134      136      137
     345      9      134      136      137      138
     346     10      134      136      137      145
     347     10      134      136      137      146
     348      4      136      137      138      147
     349      4      136      137      138      148
     350     11      136      137      138      149
     351      4      145      137      138      147
     352      4      145      137      138      148
     353      4      145      137      138      149
     354      4      146      137      138      147
     355      4      146      137      138      148
     356      4      146      137      138      149
     357      8      128      129      124      122
     358      8      128      129      124      125
     359      8      141      129      124      122
     360      8      141      129      124      125
     361      8      132      133      126      125
     362      8      132      133      126      127
     363      8      144      133      126      125
     364      8      144      133      126      127
     365      9      109      110      121      122
     366     10      119      110      121      122
     367     10      120      110      121      122
     368      5      138      149      150      151
     369      6      138      149      150      152
     370      7      149      150      152      153
     371      7      149      150      152      157
     372      7      151      150      152      153
     373      7      151      150      152      157
     374      8      150      152      153      154
     375      8      150      152      153      167
     376      8      157      152      153      154
     377      8      157      152      153      167
     378      8      152      153      154      155
     379      8      152      153      154      161
     380      8      167      153      154      155
     381      8      167      153      154      161
     382      8      153      154      155      156
     383      8      153      154      155      158
     384      8      161      154      155      156
     385      8      161      154      155      158
     386      8      154      155      156      157
     387      8      154      155      156      168
     388      8      158      155      156      157
     389      8      158      155      156      168
     390      8      155      156      157      152
     391      8      155      156      157      169
     392      8      168      156      157      152
     393      8      168      156      157      169
     394      8      154      155      158      159
     395      8      154      155      158      170
     396      8      156      155      158      159
     397      8      156      155      158      170
     398      8      155      158      159      160
     399      8      155      158      159      162
     400      8      170      158      159      160
     401      8      170      158      159      162
     402      8      158      159      160      161
     403      8      158      159      160      171
     404      8      162      159      160      161
     405      8      162      159      160      171
     406      8      159      160      161      154
     407      8      159      160      161      172
     408      8      171      160      161      154
     409      8      171      160      161      172
     410      7      158      159      162      163
     411      7      158      159      162      164
     412      7      160      159      162      163
     413      7      160      159      162      164
     414      6      159      162      164      165
     415      5      163      162      164      165
     416      9      162      164      165      166
     417     10      162      164      165      173
     418     10      162      164      165      174
     419      4      164      165      166      175
     420      4      164      165      166      176
     421     11      164      165      166      177
     422      4      173      165      166      175
     423      4      173      165      166      176
     424      4      173      165      166      177
     425      4      174      165      166      175
     426      4      174      165      166      176
     427      4      174      165      166      177
     428      8      156      157      152      150
     429      8      156      157      152      153
     430      8      169      157      152      150
     431      8      169      157      152      153
     432      8      160      161      154      153
     433      8      160      161      154      155
     434      8      172      161      154      153
     435      8      172      161      154      155
     436      9      137      138      149      150
     437     10      147      138      149      150
     438     10      148      138      149      150
     439      5      166      177      178      179
     440      6      166      177      178      180
     441      7      177      178      180      181
     442      7      177      178      180      185
     443      7      179      178      180      181
     444      7      179      178      180      185
     445      8      178      180      181      182
     446      8      178      180      181      195
     447      8      185      180      181      182
     448      8      185      180      181      195
     449      8      180      181      182      183
     450      8      180      181      182      189
     451      8      195      181      182      183
     452      8      195      181      182      189
     453      8      181      182      183      184
     454      8      181      182      183      186
     455      8      189      182      183      184
     456      8      189      182      183      186
     457      8      182      183      184      185
     458      8      182      183      184      196
     459      8      186      183      184      185
     460      8      186      183      184      196
     461      8      183      184      185      180
     462      8      183      184      185      197
     463      8      196      184      185      180
     464      8      196      184      185      197
     465      8      182      183      186      187
     466      8      182      183      186      198
     467      8      184      183      186      187
     468      8      184      183      186      198
     469      8      183      186      187      188
     470      8      183      186      187      190
     471      8      198      186      187      188
     472      8      198      186      187      190
     473      8      186      187      188      189
     474      8      186      187      188      199
     475      8      190      187      188      189
     476      8      190      187      188      199
     477      8      187      188      189      182
     478      8      187      188      189      200
     479      8      199      188      189      182
     480      8      199      188      189      200
     481      7      186      187      190      191
     482      7      186      187      190      192
     483      7      188      187      190      191
     484      7      188      187      190      192
     485      6      187      190      192      193
     486      5      191      190      192      193
     487      9      190      192      193      194
     488     10      190      192      193      201
     489     10      190      192      193      202
     490      4      192      193      194      203
     491      4      192      193      194      204
     492     11      192      193      194      205
     493      4      201      193      194      203
     494      4      201      193      194      204
     495      4      201      193      194      205
     496      4      202      193      194      203
     497      4      202      193      194      204
     498      4      202      193      194      205
     499      8      184      185      180      178
     500      8      184      185      180      181
     501      8      197      185      180      178
     502      8      197      185      180      181
     503      8      188      189      182      181
     504      8      188      189      182      183
     505      8      200      189      182      181
     506      8      200      189      182      183
     507      9      165      166      177      178
     508     10      175      166      177      178
     509     10      176      166      177      178
     510      5      194      205      206      207
     511      6      194      205      206      208
     512      7      205      206      208      209
     513      7      205      206      208      213
     514      7      207      206      208      209
     515      7      207      206      208      213
     516      8      206      208      209      210
     517      8      206      208      209      223
     518      8      213      208      209      210
     519      8      213      208      209      223
     520      8      208      209      210      211
     521      8      208      209      210      217
     522      8      223      209      210      211
     523      8      223      209      210      217
     524      8      209      210      211      212
     525      8      209      210      211      214
     526      8      217      210      211      212
     527      8      217      210      211      214
     528      8      210      211      212      213
     529      8      210      211      212      224
     530      8      214      211      212      213
     531      8      214      211      212      224
     532      8      211      212      213      208
     533      8      211      212      213      225
     534      8      224      212      213      208
     535      8      224      212      213      225
     536      8      210      211      214      215
     537      8      210      211      214      226
     538      8      212      211      214      215
     539      8      212      211      214      226
     540      8      211      214      215      216
     541      8      211      214      215      218
     542      8      226      214      215      216
     543      8      226      214      215      218
     544      8      214      215      216      217
     545      8      214      215      216      227
     546      8      218      215      216      217
     547      8      218      215      216      227
     548      8      215      216      217      210
     549      8      215      216      217      228
     550      8      227      216      217      210
     551      8      227      216      217      228
     552      7      214      215      218      219
     553      7      214      215      218      220
     554      7      216      215      218      219
     555      7      216      215      218      220
     556      6      215      218      220      221
     557      5      219      218      220      221
     558      9      218      220      221      222
     559     10      218      220      221      229
     560     10      218      220      221      230
     561      4      220      221      222      231
     562      4      220      221      222      232
     563     11      220      221      222      233
     564      4      229      221      222      231
     565      4      229      221      222      232
     566      4      229      221      222      233
     567      4      230      221      222      231
     568      4      230      221      222      232
     569      4      230      221      222      233
     570      8      212      213      208      206
     571      8      212      213      208      209
     572      8      225      213      208      206
     573      8      225      213      208      209
     574      8      216      217      210      209
     575      8      216      217      210      211
     576      8      228      217      210      209
     577      8      228      217      210      211
     578      9      193      194      205      206
     579     10      203      194      205      206
     580     10      204      194      205      206
     581      5      222      233      234      235
     582      6      222      233      234      236
     583      7      233      234      236      237
     584      7      233      234      236      241
     585      7      235      234      236      237
     586      7      235      234      236      241
     587      8      234      236      237      238
     588      8      234      236      237      251
     589      8      241      236      237      238
     590      8      241      236      237      251
     591      8      236      237      238      239
     592      8      236      237      238      245
     593      8      251      237      238      239
     594      8      251      237      238      245
     595      8      237      238      239      240
     596      8      237      238      239      242
     597      8      245      238      239      240
     598      8      245      238      239      242
     599      8      238      239      240      241
     600      8      238      239      240      252
     601      8      242      239      240      241
     602      8      242      239      240      252
     603      8      239      240      241      236
     604      8      239      240      241      253
     605      8      252      240      241      236
     606      8      252      240      241      253
     607      8      238      239      242      243
     608      8      238      239      242      254
     609      8      240      239      242      243
     610      8      240      239      242      254
     611      8      239      242      243      244
     612      8      239      242      243      246
     613      8      254      242      243      244
     614      8      254      242      243      246
     615      8      242      243      244      245
     616      8      242      243      244      255
     617      8      246      243      244      245
     618      8      246      243      244      255
     619      8      243      244      245      238
     620      8      243      244      245      256
     621      8      255      244      245      238
     622      8      255      244      245      256
     623      7      242      243      246      247
     624      7      242      243      246      248
     625      7      244      243      246      247
     626      7      244      243      246      248
     627      6      243      246      248      249
     628      5      247      246      248      249
     629      9      246      248      249      250
     630     10      246      248      249      257
     631     10      246      248      249      258
     632      4      248      249      250      259
     633      4      248      249      250      260
     634     11      248      249      250      261
     635      4      257      249      250      259
     636      4      257      249      250      260
     637      4      257      249      250      261
     638      4      258      249      250      259
     639      4      258      249      250      260
     640      4      258      249      250      261
     641      8      240      241      236      234
     642      8      240      241      236      237
     643      8      253      241      236      234
     644      8      253      241      236      237
     645      8      244      245      238      237
     646      8      244      245      238      239
     647      8      256      245      238      237
     648      8      256      245      238      239
     649      9      221      222      233      234
     650     10      231      222      233      234
     651     10      232      222      233      234
     652      5      250      261      262      263
     653      6      250      261      262      264
     654      7      261      262      264      265
     655      7      261      262      264      269
     656      7      263      262      264      265
     657      7      263      262      264      269
     658      8      262      264      265      266
     659      8      262      264      265      279
     660      8      269      264      265      266
     661      8      269      264      265      279
     662      8      264      265      266      267
     663      8      264      265      266      273
     664      8      279      265      266      267
     665      8      279      265      266      273
     666      8      265      266      267      268
     667      8      265      266      267      270
     668      8      273      266      267      268
     669      8      273      266      267      270
     670      8      266      267      268      269
     671      8      266      267      268      280
     672      8      270      267      268      269
     673      8      270      267      268      280
     674      8      267      268      269      264
     675      8      267      268      269      281
     676      8      280      268      269      264
     677      8      280      268      269      281
     678      8      266      267      270      271
     679      8      266      267      270      282
     680      8      268      267      270      271
     681      8      268      267      270      282
     682      8      267      270      271      272
     683      8      267      270      271      274
     684      8      282      270      271      272
     685      8      282      270      271      274
     686      8      270      271      272      273
     687      8      270      271      272      283
     688      8      274      271      272      273
     689      8      274      271      272      283
     690      8      271      272      273      266
     691      8      271      272      273      284
     692      8      283      272      273      266
     693      8      283      272      273      284
     694      7      270      271      274      275
     695      7      270      271      274      276
     696      7      272      271      274      275
     697      7      272      271      274      276
     698      6      271      274      276      277
     699      5      275      274      276      277
     700      9      274      276      277      278
     701     10      274      276      277      285
     702     10      274      276      277      286
     703      4      276      277      278      287
     704      4      276      277      278      288
     705     11      276      277      278      289
     706      4      285      277      278      287
     707      4      285      277      278      288
     708      4      285      277      278      289
     709      4      286      277      278      287
     710      4      286      277      278      288
     711      4      286      277      278      289
     712      8      268      269      264      262
     713      8      268      269      264      265
     714      8      281      269      264      262
     715      8      281      269      264      265
     716      8      272      273      266      265
     717      8      272      273      266      267
     718      8      284      273      266      265
     719      8      284      273      266      267
     720      9      249      250      261      262
     721     10      259      250      261      262
     722     10      260      250      261      262
     723      5      278      289      290      291
     724      6      278      289      290      292
     725      7      289      290      292      293
     726      7      289      290      292      297
     727      7      291      290      292      293
     728      7      291      290      292      297
     729      8      290      292      293      294
     730      8      290      292      293      307
     731      8      297      292      293      294
     732      8      297      292      293      307
     733      8      292      293      294      295
     734      8      292      293      294      301
     735      8      307      293      294      295
     736      8      307      293      294      301
     737      8      293      294      295      296
     738      8      293      294      295      298
     739      8      301      294      295      296
     740      8      301      294      295      298
     741      8      294      295      296      297
     742      8      294      295      296      308
     743      8      298      295      296      297
     744      8      298      295      296      308
     745      8      295      296      297      292
     746      8      295      296      297      309
     747      8      308      296      297      292
     748      8      308      296      297      309
     749      8      294      295      298      299
     750      8      294      295      298      310
     751      8      296      295      298      299
     752      8      296      295      298      310
     753      8      295      298      299      300
     754      8      295      298      299      302
     755      8      310      298      299      300
     756      8      310      298      299      302
     757      8      298      299      300      301
     758      8      298      299      300      311
     759      8      302      299      300      301
     760      8      302      299      300      311
     761      8      299      300      301      294
     762      8      299      300      301      312
     763      8      311      300      301      294
     764      8      311      300      301      312
     765      7      298      299      302      303
     766      7      298      299      302      304
     767      7      300      299      302      303
     768      7      300      299      302      304
     769      6      299      302      304      305
     770      5      303      302      304      305
     771      9      302      304      305      306
     772     10      302      304      305      313
     773     10      302      304      305      314
     774      4      304      305      306      315
     775      4      304      305      306      316
     776      3      304      305      306      317
     777      4      313      305      306      315
     778      4      313      305      306      316
     779      4      313      305      306      317
     780      4      314      305      306      315
     781      4      314      305      306      316
     782      4      314      305      306      317
     783      8      296      297      292      290
     784      8      296      297      292      293
     785      8      309      297      292      290
     786      8      309      297      292      293
     787      8      300      301      294      293
     788      8      300      301      294      295
     789      8      312      301      294      293
     790      8      312      301      294      295
     791      9      277      278      289      290
     792     10      287      278      289      290
     793     10      288      278      289      290
     794     12      334      317      318      319
     795      4      334      317      318      336
     796      4      334      317      318      346
     797     12      335      317      318      319
     798      4      335      317      318      336
     799      4      335      317      318      346
     800     13      306      317      318      319
     801      4      306      317      318      336
     802     14      306      317      318      346
     803     15      317      318      319      320
     804     16      317      318      319      321
     805      1      336      318      319      320
     806     17      336      318      319      321
     807     15      346      318      319      320
     808     16      346      318      319      321
     809     18      318      319      321      322
     810      5      320      319      321      322
     811     19      319      321      322      323
     812     19      319      321      322      333
     813      8      321      322      323      324
     814      8      321      322      323      337
     815      8      333      322      323      324
     816      8      333      322      323      337
     817      8      322      323      324      325
     818      8      322      323      324      338
     819      8      337      323      324      325
     820      8      337      323      324      338
     821      8      323      324      325      326
     822      8      323      324      325      332
     823      8      338      324      325      326
     824      8      338      324      325      332
     825     20      324      325      326      327
     826     20      324      325      326      331
     827     20      332      325      326      327
     828     20      332      325      326      331
     829      8      325      326      327      328
     830      8      325      326      327      339
     831      8      331      326      327      328
     832      8      331      326      327      339
     833      8      326      327      328      329
     834      8      326      327      328      340
     835      8      339      327      328      329
     836      8      339      327      328      340
     837      8      327      328      329      330
     838      8      327      328      329      341
     839      8      340      328      329      330
     840      8      340      328      329      341
     841      8      328      329      330      331
     842      8      328      329      330      342
     843      8      341      329      330      331
     844      8      341      329      330      342
     845      8      329      330      331      326
     846      8      329      330      331      343
     847      8      342      330      331      326
     848      8      342      330      331      343
     849      8      324      325      332      333
     850      8      324      325      332      344
     851      8      326      325      332      333
     852      8      326      325      332      344
     853      8      325      332      333      322
     854      8      325      332      333      345
     855      8      344      332      333      322
     856      8      344      332      333      345
     857      8      332      333      322      321
     858      8      332      333      322      323
     859      8      345      333      322      321
     860      8      345      333      322      323
     861      8      330      331      326      325
     862      8      330      331      326      327
     863      8      343      331      326      325
     864      8      343      331      326      327
     865     14      305      306      317      318
     866      4      305      306      317      334
     867      4      305      306      317      335
     868      4      315      306      317      318
     869      4      315      306      317      334
     870      4      315      306      317      335
     871      4      316      306      317      318
     872      4      316      306      317      334
     873      4      316      306      317      335
     874      4      353      346      347      348
     875      4      353      346      347      355
     876      4      353      346      347      356
     877      4      354      346      347      348
     878      4      354      346      347      355
     879      4      354      346      347      356
     880      3      318      346      347      348
     881      4      318      346      347      355
     882      4      318      346      347      356
     883     21      346      347      348      349
     884     22      355      347      348      349
     885     22      356      347      348      349
     886     21      347      348      349      350
     887     21      347      348      349      351
     888     22      347      348      349      357
     889      4      348      349      350      358
     890      4      348      349      350      359
     891     11      348      349      350      362
     892      4      351      349      350      358
     893      4      351      349      350      359
     894      3      351      349      350      362
     895      4      357      349      350      358
     896      4      357      349      350      359
     897      4      357      349      350      362
     898     11      348      349      351      352
     899      4      348      349      351      360
     900      4      348      349      351      361
     901      3      350      349      351      352
     902      4      350      349      351      360
     903      4      350      349      351      361
     904      4      357      349      351      352
     905      4      357      349      351      360
     906      4      357      349      351      361
     907     21      349      351      352      390
     908     22      360      351      352      390
     909     22      361      351      352      390
     910     14      317      318      346      347
     911      4      317      318      346      353
     912      4      317      318      346      354
     913     13      319      318      346      347
     914     12      319      318      346      353
     915     12      319      318      346      354
     916      4      336      318      346      347
     917      4      336      318      346      353
     918      4      336      318      346      354
     919      5      350      362      363      364
     920      6      350      362      363      365
     921      7      362      363      365      366
     922      7      362      363      365      370
     923      7      364      363      365      366
     924      7      364      363      365      370
     925      8      363      365      366      367
     926      8      363      365      366      380
     927      8      370      365      366      367
     928      8      370      365      366      380
     929      8      365      366      367      368
     930      8      365      366      367      374
     931      8      380      366      367      368
     932      8      380      366      367      374
     933      8      366      367      368      369
     934      8      366      367      368      371
     935      8      374      367      368      369
     936      8      374      367      368      371
     937      8      367      368      369      370
     938      8      367      368      369      381
     939      8      371      368      369      370
     940      8      371      368      369      381
     941      8      368      369      370      365
     942      8      368      369      370      382
     943      8      381      369      370      365
     944      8      381      369      370      382
     945      8      367      368      371      372
     946      8      367      368      371      383
     947      8      369      368      371      372
     948      8      369      368      371      383
     949      8      368      371      372      373
     950      8      368      371      372      375
     951      8      383      371      372      373
     952      8      383      371      372      375
     953      8      371      372      373      374
     954      8      371      372      373      384
     955      8      375      372      373      374
     956      8      375      372      373      384
     957      8      372      373      374      367
     958      8      372      373      374      385
     959      8      384      373      374      367
     960      8      384      373      374      385
     961      7      371      372      375      376
     962      7      371      372      375      377
     963      7      373      372      375      376
     964      7      373      372      375      377
     965      6      372      375      377      378
     966      5      376      375      377      378
     967      9      375      377      378      379
     968     10      375      377      378      386
     969     10      375      377      378      387
     970      4      377      378      379      388
     971      4      377      378      379      389
     972     11      377      378      379      419
     973      4      386      378      379      388
     974      4      386      378      379      389
     975      4      386      378      379      419
     976      4      387      378      379      388
     977      4      387      378      379      389
     978      4      387      378      379      419
     979      8      369      370      365      363
     980      8      369      370      365      366
     981      8      382      370      365      363
     982      8      382      370      365      366
     983      8      373      374      367      366
     984      8      373      374      367      368
     985      8      385      374      367      366
     986      8      385      374      367      368
     987      9      349      350      362      363
     988     10      358      350      362      363
     989     10      359      350      362      363
     990     12      407      390      391      392
     991      4      407      390      391      409
     992      4      407      390      391      447
     993     12      408      390      391      392
     994      4      408      390      391      409
     995      4      408      390      391      447
     996      3      352      390      391      392
     997      4      352      390      391      409
     998      3      352      390      391      447
     999     15      390      391      392      393
    1000     16      390      391      392      394
    1001      1      409      391      392      393
    1002     17      409      391      392      394
    1003     15      447      391      392      393
    1004     16      447      391      392      394
    1005     18      391      392      394      395
    1006      5      393      392      394      395
    1007     19      392      394      395      396
    1008     19      392      394      395      406
    1009      8      394      395      396      397
    1010      8      394      395      396      410
    1011      8      406      395      396      397
    1012      8      406      395      396      410
    1013      8      395      396      397      398
    1014      8      395      396      397      411
    1015      8      410      396      397      398
    1016      8      410      396      397      411
    1017      8      396      397      398      399
    1018      8      396      397      398      405
    1019      8      411      397      398      399
    1020      8      411      397      398      405
    1021     20      397      398      399      400
    1022     20      397      398      399      404
    1023     20      405      398      399      400
    1024     20      405      398      399      404
    1025      8      398      399      400      401
    1026      8      398      399      400      412
    1027      8      404      399      400      401
    1028      8      404      399      400      412
    1029      8      399      400      401      402
    1030      8      399      400      401      413
    1031      8      412      400      401      402
    1032      8      412      400      401      413
    1033      8      400      401      402      403
    1034      8      400      401      402      414
    1035      8      413      401      402      403
    1036      8      413      401      402      414
    1037      8      401      402      403      404
    1038      8      401      402      403      415
    1039      8      414      402      403      404
    1040      8      414      402      403      415
    1041      8      402      403      404      399
    1042      8      402      403      404      416
    1043      8      415      403      404      399
    1044      8      415      403      404      416
    1045      8      397      398      405      406
    1046      8      397      398      405      417
    1047      8      399      398      405      406
    1048      8      399      398      405      417
    1049      8      398      405      406      395
    1050      8      398      405      406      418
    1051      8      417      405      406      395
    1052      8      417      405      406      418
    1053      8      405      406      395      394
    1054      8      405      406      395      396
    1055      8      418      406      395      394
    1056      8      418      406      395      396
    1057      8      403      404      399      398
    1058      8      403      404      399      400
    1059      8      416      404      399      398
    1060      8      416      404      399      400
    1061     21      351      352      390      391
    1062     22      351      352      390      407
    1063     22      351      352      390      408
    1064      5      379      419      420      421
    1065      6      379      419      420      422
    1066      7      419      420      422      423
    1067      7      419      420      422      427
    1068      7      421      420      422      423
    1069      7      421      420      422      427
    1070      8      420      422      423      424
    1071      8      420      422      423      437
    1072      8      427      422      423      424
    1073      8      427      422      423      437
    1074      8      422      423      424      425
    1075      8      422      423      424      431
    1076      8      437      423      424      425
    1077      8      437      423      424      431
    1078      8      423      424      425      426
    1079      8      423      424      425      428
    1080      8      431      424      425      426
    1081      8      431      424      425      428
    1082      8      424      425      426      427
    1083      8      424      425      426      438
    1084      8      428      425      426      427
    1085      8      428      425      426      438
    1086      8      425      426      427      422
    1087      8      425      426      427      439
    1088      8      438      426      427      422
    1089      8      438      426      427      439
    1090      8      424      425      428      429
    1091      8      424      425      428      440
    1092      8      426      425      428      429
    1093      8      426      425      428      440
    1094      8      425      428      429      430
    1095      8      425      428      429      432
    1096      8      440      428      429      430
    1097      8      440      428      429      432
    1098      8      428      429      430      431
    1099      8      428      429      430      441
    1100      8      432      429      430      431
    1101      8      432      429      430      441
    1102      8      429      430      431      424
    1103      8      429      430      431      442
    1104      8      441      430      431      424
    1105      8      441      430      431      442
    1106      7      428      429      432      433
    1107      7      428      429      432      434
    1108      7      430      429      432      433
    1109      7      430      429      432      434
    1110      6      429      432      434      435
    1111      5      433      432      434      435
    1112      9      432      434      435      436
    1113     10      432      434      435      443
    1114     10      432      434      435      444
    1115      4      434      435      436      445
    1116      4      434      435      436      446
    1117     11      434      435      436      476
    1118      4      443      435      436      445
    1119      4      443      435      436      446
    1120      4      443      435      436      476
    1121      4      444      435      436      445
    1122      4      444      435      436      446
    1123      4      444      435      436      476
    1124      8      426      427      422      420
    1125      8      426      427      422      423
    1126      8      439      427      422      420
    1127      8      439      427      422      423
    1128      8      430      431      424      423
    1129      8      430      431      424      425
    1130      8      442      431      424      423
    1131      8      442      431      424      425
    1132      9      378      379      419      420
    1133     10      388      379      419      420
    1134     10      389      379      419      420
    1135     12      464      447      448      449
    1136      4      464      447      448      466
    1137      4      464      447      448      504
    1138     12      465      447      448      449
    1139      4      465      447      448      466
    1140      4      465      447      448      504
    1141     13      391      447      448      449
    1142      4      391      447      448      466
    1143     14      391      447      448      504
    1144     15      447      448      449      450
    1145     16      447      448      449      451
    1146      1      466      448      449      450
    1147     17      466      448      449      451
    1148     15      504      448      449      450
    1149     16      504      448      449      451
    1150     18      448      449      451      452
    1151      5      450      449      451      452
    1152     19      449      451      452      453
    1153     19      449      451      452      463
    1154      8      451      452      453      454
    1155      8      451      452      453      467
    1156      8      463      452      453      454
    1157      8      463      452      453      467
    1158      8      452      453      454      455
    1159      8      452      453      454      468
    1160      8      467      453      454      455
    1161      8      467      453      454      468
    1162      8      453      454      455      456
    1163      8      453      454      455      462
    1164      8      468      454      455      456
    1165      8      468      454      455      462
    1166     20      454      455      456      457
    1167     20      454      455      456      461
    1168     20      462      455      456      457
    1169     20      462      455      456      461
    1170      8      455      456      457      458
    1171      8      455      456      457      469
    1172      8      461      456      457      458
    1173      8      461      456      457      469
    1174      8      456      457      458      459
    1175      8      456      457      458      470
    1176      8      469      457      458      459
    1177      8      469      457      458      470
    1178      8      457      458      459      460
    1179      8      457      458      459      471
    1180      8      470      458      459      460
    1181      8      470      458      459      471
    1182      8      458      459      460      461
    1183      8      458      459      460      472
    1184      8      471      459      460      461
    1185      8      471      459      460      472
    1186      8      459      460      461      456
    1187      8      459      460      461      473
    1188      8      472      460      461      456
    1189      8      472      460      461      473
    1190      8      454      455      462      463
    1191      8      454      455      462      474
    1192      8      456      455      462      463
    1193      8      456      455      462      474
    1194      8      455      462      463      452
    1195      8      455      462      463      475
    1196      8      474      462      463      452
    1197      8      474      462      463      475
    1198      8      462      463      452      451
    1199      8      462      463      452      453
    1200      8      475      463      452      451
    1201      8      475      463      452      453
    1202      8      460      461      456      455
    1203      8      460      461      456      457
    1204      8      473      461      456      455
    1205      8      473      461      456      457
    1206     14      390      391      447      448
    1207      4      390      391      447      464
    1208      4      390      391      447      465
    1209     13      392      391      447      448
    1210     12      392      391      447      464
    1211     12      392      391      447      465
    1212      4      409      391      447      448
    1213      4      409      391      447      464
    1214      4      409      391      447      465
    1215      5      436      476      477      478
    1216      6      436      476      477      479
    1217      7      476      477      479      480
    1218      7      476      477      479      484
    1219      7      478      477      479      480
    1220      7      478      477      479      484
    1221      8      477      479      480      481
    1222      8      477      479      480      494
    1223      8      484      479      480      481
    1224      8      484      479      480      494
    1225      8      479      480      481      482
    1226      8      479      480      481      488
    1227      8      494      480      481      482
    1228      8      494      480      481      488
    1229      8      480      481      482      483
    1230      8      480      481      482      485
    1231      8      488      481      482      483
    1232      8      488      481      482      485
    1233      8      481      482      483      484
    1234      8      481      482      483      495
    1235      8      485      482      483      484
    1236      8      485      482      483      495
    1237      8      482      483      484      479
    1238      8      482      483      484      496
    1239      8      495      483      484      479
    1240      8      495      483      484      496
    1241      8      481      482      485      486
    1242      8      481      482      485      497
    1243      8      483      482      485      486
    1244      8      483      482      485      497
    1245      8      482      485      486      487
    1246      8      482      485      486      489
    1247      8      497      485      486      487
    1248      8      497      485      486      489
    1249      8      485      486      487      488
    1250      8      485      486      487      498
    1251      8      489      486      487      488
    1252      8      489      486      487      498
    1253      8      486      487      488      481
    1254      8      486      487      488      499
    1255      8      498      487      488      481
    1256      8      498      487      488      499
    1257      7      485      486      489      490
    1258      7      485      486      489      491
    1259      7      487      486      489      490
    1260      7      487      486      489      491
    1261      6      486      489      491      492
    1262      5      490      489      491      492
    1263      9      489      491      492      493
    1264     10      489      491      492      500
    1265     10      489      491      492      501
    1266      4      491      492      493      502
    1267      4      491      492      493      503
    1268     11      491      492      493      533
    1269      4      500      492      493      502
    1270      4      500      492      493      503
    1271      4      500      492      493      533
    1272      4      501      492      493      502
    1273      4      501      492      493      503
    1274      4      501      492      493      533
    1275      8      483      484      479      477
    1276      8      483      484      479      480
    1277      8      496      484      479      477
    1278      8      496      484      479      480
    1279      8      487      488      481      480
    1280      8      487      488      481      482
    1281      8      499      488      481      480
    1282      8      499      488      481      482
    1283      9      435      436      476      477
    1284     10      445      436      476      477
    1285     10      446      436      476      477
    1286     12      521      504      505      506
    1287      4      521      504      505      523
    1288      4      521      504      505      561
    1289     12      522      504      505      506
    1290      4      522      504      505      523
    1291      4      522      504      505      561
    1292     13      448      504      505      506
    1293      4      448      504      505      523
    1294     14      448      504      505      561
    1295     15      504      505      506      507
    1296     16      504      505      506      508
    1297      1      523      505      506      507
    1298     17      523      505      506      508
    1299     15      561      505      506      507
    1300     16      561      505      506      508
    1301     18      505      506      508      509
    1302      5      507      506      508      509
    1303     19      506      508      509      510
    1304     19      506      508      509      520
    1305      8      508      509      510      511
    1306      8      508      509      510      524
    1307      8      520      509      510      511
    1308      8      520      509      510      524
    1309      8      509      510      511      512
    1310      8      509      510      511      525
    1311      8      524      510      511      512
    1312      8      524      510      511      525
    1313      8      510      511      512      513
    1314      8      510      511      512      519
    1315      8      525      511      512      513
    1316      8      525      511      512      519
    1317     20      511      512      513      514
    1318     20      511      512      513      518
    1319     20      519      512      513      514
    1320     20      519      512      513      518
    1321      8      512      513      514      515
    1322      8      512      513      514      526
    1323      8      518      513      514      515
    1324      8      518      513      514      526
    1325      8      513      514      515      516
    1326      8      513      514      515      527
    1327      8      526      514      515      516
    1328      8      526      514      515      527
    1329      8      514      515      516      517
    1330      8      514      515      516      528
    1331      8      527      515      516      517
    1332      8      527      515      516      528
    1333      8      515      516      517      518
    1334      8      515      516      517      529
    1335      8      528      516      517      518
    1336      8      528      516      517      529
    1337      8      516      517      518      513
    1338      8      516      517      518      530
    1339      8      529      517      518      513
    1340      8      529      517      518      530
    1341      8      511      512      519      520
    1342      8      511      512      519      531
    1343      8      513      512      519      520
    1344      8      513      512      519      531
    1345      8      512      519      520      509
    1346      8      512      519      520      532
    1347      8      531      519      520      509
    1348      8      531      519      520      532
    1349      8      519      520      509      508
    1350      8      519      520      509      510
    1351      8      532      520      509      508
    1352      8      532      520      509      510
    1353      8      517      518      513      512
    1354      8      517      518      513      514
    1355      8      530      518      513      512
    1356      8      530      518      513      514
    1357     14      447      448      504      505
    1358      4      447      448      504      521
    1359      4      447      448      504      522
    1360     13      449      448      504      505
    1361     12      449      448      504      521
    1362     12      449      448      504      522
    1363      4      466      448      504      505
    1364      4      466      448      504      521
    1365      4      466      448      504      522
    1366      5      493      533      534      535
    1367      6      493      533      534      536
    1368      7      533      534      536      537
    1369      7      533      534      536      541
    1370      7      535      534      536      537
    1371      7      535      534      536      541
    1372      8      534      536      537      538
    1373      8      534      536      537      551
    1374      8      541      536      537      538
    1375      8      541      536      537      551
    1376      8      536      537      538      539
    1377      8      536      537      538      545
    1378      8      551      537      538      539
    1379      8      551      537      538      545
    1380      8      537      538      539      540
    1381      8      537      538      539      542
    1382      8      545      538      539      540
    1383      8      545      538      539      542
    1384      8      538      539      540      541
    1385      8      538      539      540      552
    1386      8      542      539      540      541
    1387      8      542      539      540      552
    1388      8      539      540      541      536
    1389      8      539      540      541      553
    1390      8      552      540      541      536
    1391      8      552      540      541      553
    1392      8      538      539      542      543
    1393      8      538      539      542      554
    1394      8      540      539      542      543
    1395      8      540      539      542      554
    1396      8      539      542      543      544
    1397      8      539      542      543      546
    1398      8      554      542      543      544
    1399      8      554      542      543      546
    1400      8      542      543      544      545
    1401      8      542      543      544      555
    1402      8      546      543      544      545
    1403      8      546      543      544      555
    1404      8      543      544      545      538
    1405      8      543      544      545      556
    1406      8      555      544      545      538
    1407      8      555      544      545      556
    1408      7      542      543      546      547
    1409      7      542      543      546      548
    1410      7      544      543      546      547
    1411      7      544      543      546      548
    1412      6      543      546      548      549
    1413      5      547      546      548      549
    1414      9      546      548      549      550
    1415     10      546      548      549      557
    1416     10      546      548      549      558
    1417      4      548      549      550      559
    1418      4      548      549      550      560
    1419     11      548      549      550      590
    1420      4      557      549      550      559
    1421      4      557      549      550      560
    1422      4      557      549      550      590
    1423      4      558      549      550      559
    1424      4      558      549      550      560
    1425      4      558      549      550      590
    1426      8      540      541      536      534
    1427      8      540      541      536      537
    1428      8      553      541      536      534
    1429      8      553      541      536      537
    1430      8      544      545      538      537
    1431      8      544      545      538      539
    1432      8      556      545      538      537
    1433      8      556      545      538      539
    1434      9      492      493      533      534
    1435     10      502      493      533      534
    1436     10      503      493      533      534
    1437     12      578      561      562      563
    1438      4      578      561      562      580
    1439      4      578      561      562      618
    1440     12      579      561      562      563
    1441      4      579      561      562      580
    1442      4      579      561      562      618
    1443     13      505      561      562      563
    1444      4      505      561      562      580
    1445     14      505      561      562      618
    1446     15      561      562      563      564
    1447     16      561      562      563      565
    1448      1      580      562      563      564
    1449     17      580      562      563      565
    1450     15      618      562      563      564
    1451     16      618      562      563      565
    1452     18      562      563      565      566
    1453      5      564      563      565      566
    1454     19      563      565      566      567
    1455     19      563      565      566      577
    1456      8      565      566      567      568
    1457      8      565      566      567      581
    1458      8      577      566      567      568
    1459      8      577      566      567      581
    1460      8      566      567      568      569
    1461      8      566      567      568      582
    1462      8      581      567      568      569
    1463      8      581      567      568      582
    1464      8      567      568      569      570
    1465      8      567      568      569      576
    1466      8      582      568      569      570
    1467      8      582      568      569      576
    1468     20      568      569      570      571
    1469     20      568      569      570      575
    1470     20      576      569      570      571
    1471     20      576      569      570      575
    1472      8      569      570      571      572
    1473      8      569      570      571      583
    1474      8      575      570      571      572
    1475      8      575      570      571      583
    1476      8      570      571      572      573
    1477      8      570      571      572      584
    1478      8      583      571      572      573
    1479      8      583      571      572      584
    1480      8      571      572      573      574
    1481      8      571      572      573      585
    1482      8      584      572      573      574
    1483      8      584      572      573      585
    1484      8      572      573      574      575
    1485      8      572      573      574      586
    1486      8      585      573      574      575
    1487      8      585      573      574      586
    1488      8      573      574      575      570
    1489      8      573      574      575      587
    1490      8      586      574      575      570
    1491      8      586      574      575      587
    1492      8      568      569      576      577
    1493      8      568      569      576      588
    1494      8      570      569      576      577
    1495      8      570      569      576      588
    1496      8      569      576      577      566
    1497      8      569      576      577      589
    1498      8      588      576      577      566
    1499      8      588      576      577      589
    1500      8      576      577      566      565
    1501      8      576      577      566      567
    1502      8      589      577      566      565
    1503      8      589      577      566      567
    1504      8      574      575      570      569
    1505      8      574      575      570      571
    1506      8      587      575      570      569
    1507      8      587      575      570      571
    1508     14      504      505      561      562
    1509      4      504      505      561      578
    1510      4      504      505      561      579
    1511     13      506      505      561      562
    1512     12      506      505      561      578
    1513     12      506      505      561      579
    1514      4      523      505      561      562
    1515      4      523      505      561      578
    1516      4      523      505      561      579
    1517      5      550      590      591      592
    1518      6      550      590      591      593
    1519      7      590      591      593      594
    1520      7      590      591      593      598
    1521      7      592      591      593      594
    1522      7      592      591      593      598
    1523      8      591      593      594      595
    1524      8      591      593      594      608
    1525      8      598      593      594      595
    1526      8      598      593      594      608
    1527      8      593      594      595      596
    1528      8      593      594      595      602
    1529      8      608      594      595      596
    1530      8      608      594      595      602
    1531      8      594      595      596      597
    1532      8      594      595      596      599
    1533      8      602      595      596      597
    1534      8      602      595      596      599
    1535      8      595      596      597      598
    1536      8      595      596      597      609
    1537      8      599      596      597      598
    1538      8      599      596      597      609
    1539      8      596      597      598      593
    1540      8      596      597      598      610
    1541      8      609      597      598      593
    1542      8      609      597      598      610
    1543      8      595      596      599      600
    1544      8      595      596      599      611
    1545      8      597      596      599      600
    1546      8      597      596      599      611
    1547      8      596      599      600      601
    1548      8      596      599      600      603
    1549      8      611      599      600      601
    1550      8      611      599      600      603
    1551      8      599      600      601      602
    1552      8      599      600      601      612
    1553      8      603      600      601      602
    1554      8      603      600      601      612
    1555      8      600      601      602      595
    1556      8      600      601      602      613
    1557      8      612      601      602      595
    1558      8      612      601      602      613
    1559      7      599      600      603      604
    1560      7      599      600      603      605
    1561      7      601      600      603      604
    1562      7      601      600      603      605
    1563      6      600      603      605      606
    1564      5      604      603      605      606
    1565      9      603      605      606      607
    1566     10      603      605      606      614
    1567     10      603      605      606      615
    1568      4      605      606      607      616
    1569      4      605      606      607      617
    1570     11      605      606      607      647
    1571      4      614      606      607      616
    1572      4      614      606      607      617
    1573      4      614      606      607      647
    1574      4      615      606      607      616
    1575      4      615      606      607      617
    1576      4      615      606      607      647
    1577      8      597      598      593      591
    1578      8      597      598      593      594
    1579      8      610      598      593      591
    1580      8      610      598      593      594
    1581      8      601      602      595      594
    1582      8      601      602      595      596
    1583      8      613      602      595      594
    1584      8      613      602      595      596
    1585      9      549      550      590      591
    1586     10      559      550      590      591
    1587     10      560      550      590      591
    1588     12      635      618      619      620
    1589      4      635      618      619      637
    1590      4      635      618      619      675
    1591     12      636      618      619      620
    1592      4      636      618      619      637
    1593      4      636      618      619      675
    1594     13      562      618      619      620
    1595      4      562      618      619      637
    1596     14      562      618      619      675
    1597     15      618      619      620      621
    1598     16      618      619      620      622
    1599      1      637      619      620      621
    1600     17      637      619      620      622
    1601     15      675      619      620      621
    1602     16      675      619      620      622
    1603     18      619      620      622      623
    1604      5      621      620      622      623
    1605     19      620      622      623      624
    1606     19      620      622      623      634
    1607      8      622      623      624      625
    1608      8      622      623      624      638
    1609      8      634      623      624      625
    1610      8      634      623      624      638
    1611      8      623      624      625      626
    1612      8      623      624      625      639
    1613      8      638      624      625      626
    1614      8      638      624      625      639
    1615      8      624      625      626      627
    1616      8      624      625      626      633
    1617      8      639      625      626      627
    1618      8      639      625      626      633
    1619     20      625      626      627      628
    1620     20      625      626      627      632
    1621     20      633      626      627      628
    1622     20      633      626      627      632
    1623      8      626      627      628      629
    1624      8      626      627      628      640
    1625      8      632      627      628      629
    1626      8      632      627      628      640
    1627      8      627      628      629      630
    1628      8      627      628      629      641
    1629      8      640      628      629      630
    1630      8      640      628      629      641
    1631      8      628      629      630      631
    1632      8      628      629      630      642
    1633      8      641      629      630      631
    1634      8      641      629      630      642
    1635      8      629      630      631      632
    1636      8      629      630      631      643
    1637      8      642      630      631      632
    1638      8      642      630      631      643
    1639      8      630      631      632      627
    1640      8      630      631      632      644
    1641      8      643      631      632      627
    1642      8      643      631      632      644
    1643      8      625      626      633      634
    1644      8      625      626      633      645
    1645      8      627      626      633      634
    1646      8      627      626      633      645
    1647      8      626      633      634      623
    1648      8      626      633      634      646
    1649      8      645      633      634      623
    1650      8      645      633      634      646
    1651      8      633      634      623      622
    1652      8      633      634      623      624
    1653      8      646      634      623      622
    1654      8      646      634      623      624
    1655      8      631      632      627      626
    1656      8      631      632      627      628
    1657      8      644      632      627      626
    1658      8      644      632      627      628
    1659     14      561      562      618      619
    1660      4      561      562      618      635
    1661      4      561      562      618      636
    1662     13      563      562      618      619
    1663     12      563      562      618      635
    1664     12      563      562      618      636
    1665      4      580      562      618      619
    1666      4      580      562      618      635
    1667      4      580      562      618      636
    1668      5      607      647      648      649
    1669      6      607      647      648      650
    1670      7      647      648      650      651
    1671      7      647      648      650      655
    1672      7      649      648      650      651
    1673      7      649      648      650      655
    1674      8      648      650      651      652
    1675      8      648      650      651      665
    1676      8      655      650      651      652
    1677      8      655      650      651      665
    1678      8      650      651      652      653
    1679      8      650      651      652      659
    1680      8      665      651      652      653
    1681      8      665      651      652      659
    1682      8      651      652      653      654
    1683      8      651      652      653      656
    1684      8      659      652      653      654
    1685      8      659      652      653      656
    1686      8      652      653      654      655
    1687      8      652      653      654      666
    1688      8      656      653      654      655
    1689      8      656      653      654      666
    1690      8      653      654      655      650
    1691      8      653      654      655      667
    1692      8      666      654      655      650
    1693      8      666      654      655      667
    1694      8      652      653      656      657
    1695      8      652      653      656      668
    1696      8      654      653      656      657
    1697      8      654      653      656      668
    1698      8      653      656      657      658
    1699      8      653      656      657      660
    1700      8      668      656      657      658
    1701      8      668      656      657      660
    1702      8      656      657      658      659
    1703      8      656      657      658      669
    1704      8      660      657      658      659
    1705      8      660      657      658      669
    1706      8      657      658      659      652
    1707      8      657      658      659      670
    1708      8      669      658      659      652
    1709      8      669      658      659      670
    1710      7      656      657      660      661
    1711      7      656      657      660      662
    1712      7      658      657      660      661
    1713      7      658      657      660      662
    1714      6      657      660      662      663
    1715      5      661      660      662      663
    1716      9      660      662      663      664
    1717     10      660      662      663      671
    1718     10      660      662      663      672
    1719      4      662      663      664      673
    1720      4      662      663      664      674
    1721     11      662      663      664      704
    1722      4      671      663      664      673
    1723      4      671      663      664      674
    1724      4      671      663      664      704
    1725      4      672      663      664      673
    1726      4      672      663      664      674
    1727      4      672      663      664      704
    1728      8      654      655      650      648
    1729      8      654      655      650      651
    1730      8      667      655      650      648
    1731      8      667      655      650      651
    1732      8      658      659      652      651
    1733      8      658      659      652      653
    1734      8      670      659      652      651
    1735      8      670      659      652      653
    1736      9      606      607      647      648
    1737     10      616      607      647      648
    1738     10      617      607      647      648
    1739     12      692      675      676      677
    1740      4      692      675      676      694
    1741      4      692      675      676      732
    1742     12      693      675      676      677
    1743      4      693      675      676      694
    1744      4      693      675      676      732
    1745     13      619      675      676      677
    1746      4      619      675      676      694
    1747     14      619      675      676      732
    1748     15      675      676      677      678
    1749     16      675      676      677      679
    1750      1      694      676      677      678
    1751     17      694      676      677      679
    1752     15      732      676      677      678
    1753     16      732      676      677      679
    1754     18      676      677      679      680
    1755      5      678      677      679      680
    1756     19      677      679      680      681
    1757     19      677      679      680      691
    1758      8      679      680      681      682
    1759      8      679      680      681      695
    1760      8      691      680      681      682
    1761      8      691      680      681      695
    1762      8      680      681      682      683
    1763      8      680      681      682      696
    1764      8      695      681      682      683
    1765      8      695      681      682      696
    1766      8      681      682      683      684
    1767      8      681      682      683      690
    1768      8      696      682      683      684
    1769      8      696      682      683      690
    1770     20      682      683      684      685
    1771     20      682      683      684      689
    1772     20      690      683      684      685
    1773     20      690      683      684      689
    1774      8      683      684      685      686
    1775      8      683      684      685      697
    1776      8      689      684      685      686
    1777      8      689      684      685      697
    1778      8      684      685      686      687
    1779      8      684      685      686      698
    1780      8      697      685      686      687
    1781      8      697      685      686      698
    1782      8      685      686      687      688
    1783      8      685      686      687      699
    1784      8      698      686      687      688
    1785      8      698      686      687      699
    1786      8      686      687      688      689
    1787      8      686      687      688      700
    1788      8      699      687      688      689
    1789      8      699      687      688      700
    1790      8      687      688      689      684
    1791      8      687      688      689      701
    1792      8      700      688      689      684
    1793      8      700      688      689      701
    1794      8      682      683      690      691
    1795      8      682      683      690      702
    1796      8      684      683      690      691
    1797      8      684      683      690      702
    1798      8      683      690      691      680
    1799      8      683      690      691      703
    1800      8      702      690      691      680
    1801      8      702      690      691      703
    1802      8      690      691      680      679
    1803      8      690      691      680      681
    1804      8      703      691      680      679
    1805      8      703      691      680      681
    1806      8      688      689      684      683
    1807      8      688      689      684      685
    1808      8      701      689      684      683
    1809      8      701      689      684      685
    1810     14      618      619      675      676
    1811      4      618      619      675      692
    1812      4      618      619      675      693
    1813     13      620      619      675      676
    1814     12      620      619      675      692
    1815     12      620      619      675      693
    1816      4      637      619      675      676
    1817      4      637      619      675      692
    1818      4      637      619      675      693
    1819      5      664      704      705      706
    1820      6      664      704      705      707
    1821      7      704      705      707      708
    1822      7      704      705      707      712
    1823      7      706      705      707      708
    1824      7      706      705      707      712
    1825      8      705      707      708      709
    1826      8      705      707      708      722
    1827      8      712      707      708      709
    1828      8      712      707      708      722
    1829      8      707      708      709      710
    1830      8      707      708      709      716
    1831      8      722      708      709      710
    1832      8      722      708      709      716
    1833      8      708      709      710      711
    1834      8      708      709      710      713
    1835      8      716      709      710      711
    1836      8      716      709      710      713
    1837      8      709      710      711      712
    1838      8      709      710      711      723
    1839      8      713      710      711      712
    1840      8      713      710      711      723
    1841      8      710      711      712      707
    1842      8      710      711      712      724
    1843      8      723      711      712      707
    1844      8      723      711      712      724
    1845      8      709      710      713      714
    1846      8      709      710      713      725
    1847      8      711      710      713      714
    1848      8      711      710      713      725
    1849      8      710      713      714      715
    1850      8      710      713      714      717
    1851      8      725      713      714      715
    1852      8      725      713      714      717
    1853      8      713      714      715      716
    1854      8      713      714      715      726
    1855      8      717      714      715      716
    1856      8      717      714      715      726
    1857      8      714      715      716      709
    1858      8      714      715      716      727
    1859      8      726      715      716      709
    1860      8      726      715      716      727
    1861      7      713      714      717      718
    1862      7      713      714      717      719
    1863      7      715      714      717      718
    1864      7      715      714      717      719
    1865      6      714      717      719      720
    1866      5      718      717      719      720
    1867      9      717      719      720      721
    1868     10      717      719      720      728
    1869     10      717      719      720      729
    1870      4      719      720      721      730
    1871      4      719      720      721      731
    1872      3      719      720      721      761
    1873      4      728      720      721      730
    1874      4      728      720      721      731
    1875      4      728      720      721      761
    1876      4      729      720      721      730
    1877      4      729      720      721      731
    1878      4      729      720      721      761
    1879      8      711      712      707      705
    1880      8      711      712      707      708
    1881      8      724      712      707      705
    1882      8      724      712      707      708
    1883      8      715      716      709      708
    1884      8      715      716      709      710
    1885      8      727      716      709      708
    1886      8      727      716      709      710
    1887      9      663      664      704      705
    1888     10      673      664      704      705
    1889     10      674      664      704      705
    1890     12      749      732      733      734
    1891      4      749      732      733      751
    1892      4      749      732      733      790
    1893     12      750      732      733      734
    1894      4      750      732      733      751
    1895      4      750      732      733      790
    1896     13      676      732      733      734
    1897      4      676      732      733      751
    1898     14      676      732      733      790
    1899     15      732      733      734      735
    1900     16      732      733      734      736
    1901      1      751      733      734      735
    1902     17      751      733      734      736
    1903     15      790      733      734      735
    1904     16      790      733      734      736
    1905     18      733      734      736      737
    1906      5      735      734      736      737
    1907     19      734      736      737      738
    1908     19      734      736      737      748
    1909      8      736      737      738      739
    1910      8      736      737      738      752
    1911      8      748      737      738      739
    1912      8      748      737      738      752
    1913      8      737      738      739      740
    1914      8      737      738      739      753
    1915      8      752      738      739      740
    1916      8      752      738      739      753
    1917      8      738      739      740      741
    1918      8      738      739      740      747
    1919      8      753      739      740      741
    1920      8      753      739      740      747
    1921     20      739      740      741      742
    1922     20      739      740      741      746
    1923     20      747      740      741      742
    1924     20      747      740      741      746
    1925      8      740      741      742      743
    1926      8      740      741      742      754
    1927      8      746      741      742      743
    1928      8      746      741      742      754
    1929      8      741      742      743      744
    1930      8      741      742      743      755
    1931      8      754      742      743      744
    1932      8      754      742      743      755
    1933      8      742      743      744      745
    1934      8      742      743      744      756
    1935      8      755      743      744      745
    1936      8      755      743      744      756
    1937      8      743      744      745      746
    1938      8      743      744      745      757
    1939      8      756      744      745      746
    1940      8      756      744      745      757
    1941      8      744      745      746      741
    1942      8      744      745      746      758
    1943      8      757      745      746      741
    1944      8      757      745      746      758
    1945      8      739      740      747      748
    1946      8      739      740      747      759
    1947      8      741      740      747      748
    1948      8      741      740      747      759
    1949      8      740      747      748      737
    1950      8      740      747      748      760
    1951      8      759      747      748      737
    1952      8      759      747      748      760
    1953      8      747      748      737      736
    1954      8      747      748      737      738
    1955      8      760      748      737      736
    1956      8      760      748      737      738
    1957      8      745      746      741      740
    1958      8      745      746      741      742
    1959      8      758      746      741      740
    1960      8      758      746      741      742
    1961     14      675      676      732      733
    1962      4      675      676      732      749
    1963      4      675      676      732      750
    1964     13      677      676      732      733
    1965     12      677      676      732      749
    1966     12      677      676      732      750
    1967      4      694      676      732      733
    1968      4      694      676      732      749
    1969      4      694      676      732      750
    1970     12      778      761      762      763
    1971      4      778      761      762      780
    1972      4      778      761      762      819
    1973     12      779      761      762      763
    1974      4      779      761      762      780
    1975      4      779      761      762      819
    1976     13      721      761      762      763
    1977      4      721      761      762      780
    1978     14      721      761      762      819
    1979     15      761      762      763      764
    1980     16      761      762      763      765
    1981      1      780      762      763      764
    1982     17      780      762      763      765
    1983     15      819      762      763      764
    1984     16      819      762      763      765
    1985     18      762      763      765      766
    1986      5      764      763      765      766
    1987     19      763      765      766      767
    1988     19      763      765      766      777
    1989      8      765      766      767      768
    1990      8      765      766      767      781
    1991      8      777      766      767      768
    1992      8      777      766      767      781
    1993      8      766      767      768      769
    1994      8      766      767      768      782
    1995      8      781      767      768      769
    1996      8      781      767      768      782
    1997      8      767      768      769      770
    1998      8      767      768      769      776
    1999      8      782      768      769      770
    2000      8      782      768      769      776
    2001     20      768      769      770      771
    2002     20      768      769      770      775
    2003     20      776      769      770      771
    2004     20      776      769      770      775
    2005      8      769      770      771      772
    2006      8      769      770      771      783
    2007      8      775      770      771      772
    2008      8      775      770      771      783
    2009      8      770      771      772      773
    2010      8      770      771      772      784
    2011      8      783      771      772      773
    2012      8      783      771      772      784
    2013      8      771      772      773      774
    2014      8      771      772      773      785
    2015      8      784      772      773      774
    2016      8      784      772      773      785
    2017      8      772      773      774      775
    2018      8      772      773      774      786
    2019      8      785      773      774      775
    2020      8      785      773      774      786
    2021      8      773      774      775      770
    2022      8      773      774      775      787
    2023      8      786      774      775      770
    2024      8      786      774      775      787
    2025      8      768      769      776      777
    2026      8      768      769      776      788
    2027      8      770      769      776      777
    2028      8      770      769      776      788
    2029      8      769      776      777      766
    2030      8      769      776      777      789
    2031      8      788      776      777      766
    2032      8      788      776      777      789
    2033      8      776      777      766      765
    2034      8      776      777      766      767
    2035      8      789      777      766      765
    2036      8      789      777      766      767
    2037      8      774      775      770      769
    2038      8      774      775      770      771
    2039      8      787      775      770      769
    2040      8      787      775      770      771
    2041     14      720      721      761      762
    2042      4      720      721      761      778
    2043      4      720      721      761      779
    2044      4      730      721      761      762
    2045      4      730      721      761      778
    2046      4      730      721      761      779
    2047      4      731      721      761      762
    2048      4      731      721      761      778
    2049      4      731      721      761      779
    2050     12      807      790      791      792
    2051      4      807      790      791      809
    2052      4      807      790      791      848
    2053     12      808      790      791      792
    2054      4      808      790      791      809
    2055      4      808      790      791      848
    2056     13      733      790      791      792
    2057      4      733      790      791      809
    2058     14      733      790      791      848
    2059     15      790      791      792      793
    2060     16      790      791      792      794
    2061      1      809      791      792      793
    2062     17      809      791      792      794
    2063     15      848      791      792      793
    2064     16      848      791      792      794
    2065     18      791      792      794      795
    2066      5      793      792      794      795
    2067     19      792      794      795      796
    2068     19      792      794      795      806
    2069      8      794      795      796      797
    2070      8      794      795      796      810
    2071      8      806      795      796      797
    2072      8      806      795      796      810
    2073      8      795      796      797      798
    2074      8      795      796      797      811
    2075      8      810      796      797      798
    2076      8      810      796      797      811
    2077      8      796      797      798      799
    2078      8      796      797      798      805
    2079      8      811      797      798      799
    2080      8      811      797      798      805
    2081     20      797      798      799      800
    2082     20      797      798      799      804
    2083     20      805      798      799      800
    2084     20      805      798      799      804
    2085      8      798      799      800      801
    2086      8      798      799      800      812
    2087      8      804      799      800      801
    2088      8      804      799      800      812
    2089      8      799      800      801      802
    2090      8      799      800      801      813
    2091      8      812      800      801      802
    2092      8      812      800      801      813
    2093      8      800      801      802      803
    2094      8      800      801      802      814
    2095      8      813      801      802      803
    2096      8      813      801      802      814
    2097      8      801      802      803      804
    2098      8      801      802      803      815
    2099      8      814      802      803      804
    2100      8      814      802      803      815
    2101      8      802      803      804      799
    2102      8      802      803      804      816
    2103      8      815      803      804      799
    2104      8      815      803      804      816
    2105      8      797      798      805      806
    2106      8      797      798      805      817
    2107      8      799      798      805      806
    2108      8      799      798      805      817
    2109      8      798      805      806      795
    2110      8      798      805      806      818
    2111      8      817      805      806      795
    2112      8      817      805      806      818
    2113      8      805      806      795      794
    2114      8      805      806      795      796
    2115      8      818      806      795      794
    2116      8      818      806      795      796
    2117      8      803      804      799      798
    2118      8      803      804      799      800
    2119      8      816      804      799      798
    2120      8      816      804      799      800
    2121     14      732      733      790      791
    2122      4      732      733      790      807
    2123      4      732      733      790      808
    2124     13      734      733      790      791
    2125     12      734      733      790      807
    2126     12      734      733      790      808
    2127      4      751      733      790      791
    2128      4      751      733      790      807
    2129      4      751      733      790      808
    2130     12      836      819      820      821
    2131      4      836      819      820      838
    2132      4      836      819      820      877
    2133     12      837      819      820      821
    2134      4      837      819      820      838
    2135      4      837      819      820      877
    2136     13      762      819      820      821
    2137      4      762      819      820      838
    2138     14      762      819      820      877
    2139     15      819      820      821      822
    2140     16      819      820      821      823
    2141      1      838      820      821      822
    2142     17      838      820      821      823
    2143     15      877      820      821      822
    2144     16      877      820      821      823
    2145     18      820      821      823      824
    2146      5      822      821      823      824
    2147     19      821      823      824      825
    2148     19      821      823      824      835
    2149      8      823      824      825      826
    2150      8      823      824      825      839
    2151      8      835      824      825      826
    2152      8      835      824      825      839
    2153      8      824      825      826      827
    2154      8      824      825      826      840
    2155      8      839      825      826      827
    2156      8      839      825      826      840
    2157      8      825      826      827      828
    2158      8      825      826      827      834
    2159      8      840      826      827      828
    2160      8      840      826      827      834
    2161     20      826      827      828      829
    2162     20      826      827      828      833
    2163     20      834      827      828      829
    2164     20      834      827      828      833
    2165      8      827      828      829      830
    2166      8      827      828      829      841
    2167      8      833      828      829      830
    2168      8      833      828      829      841
    2169      8      828      829      830      831
    2170      8      828      829      830      842
    2171      8      841      829      830      831
    2172      8      841      829      830      842
    2173      8      829      830      831      832
    2174      8      829      830      831      843
    2175      8      842      830      831      832
    2176      8      842      830      831      843
    2177      8      830      831      832      833
    2178      8      830      831      832      844
    2179      8      843      831      832      833
    2180      8      843      831      832      844
    2181      8      831      832      833      828
    2182      8      831      832      833      845
    2183      8      844      832      833      828
    2184      8      844      832      833      845
    2185      8      826      827      834      835
    2186      8      826      827      834      846
    2187      8      828      827      834      835
    2188      8      828      827      834      846
    2189      8      827      834      835      824
    2190      8      827      834      835      847
    2191      8      846      834      835      824
    2192      8      846      834      835      847
    2193      8      834      835      824      823
    2194      8      834      835      824      825
    2195      8      847      835      824      823
    2196      8      847      835      824      825
    2197      8      832      833      828      827
    2198      8      832      833      828      829
    2199      8      845      833      828      827
    2200      8      845      833      828      829
    2201     14      761      762      819      820
    2202      4      761      762      819      836
    2203      4      761      762      819      837
    2204     13      763      762      819      820
    2205     12      763      762      819      836
    2206     12      763      762      819      837
    2207      4      780      762      819      820
    2208      4      780      762      819      836
    2209      4      780      762      819      837
    2210     12      865      848      849      850
    2211      4      865      848      849      867
    2212      4      865      848      849      906
    2213     12      866      848      849      850
    2214      4      866      848      849      867
    2215      4      866      848      849      906
    2216     13      791      848      849      850
    2217      4      791      848      849      867
    2218     14      791      848      849      906
    2219     15      848      849      850      851
    2220     16      848      849      850      852
    2221      1      867      849      850      851
    2222     17      867      849      850      852
    2223     15      906      849      850      851
    2224     16      906      849      850      852
    2225     18      849      850      852      853
    2226      5      851      850      852      853
    2227     19      850      852      853      854
    2228     19      850      852      853      864
    2229      8      852      853      854      855
    2230      8      852      853      854      868
    2231      8      864      853      854      855
    2232      8      864      853      854      868
    2233      8      853      854      855      856
    2234      8      853      854      855      869
    2235      8      868      854      855      856
    2236      8      868      854      855      869
    2237      8      854      855      856      857
    2238      8      854      855      856      863
    2239      8      869      855      856      857
    2240      8      869      855      856      863
    2241     20      855      856      857      858
    2242     20      855      856      857      862
    2243     20      863      856      857      858
    2244     20      863      856      857      862
    2245      8      856      857      858      859
    2246      8      856      857      858      870
    2247      8      862      857      858      859
    2248      8      862      857      858      870
    2249      8      857      858      859      860
    2250      8      857      858      859      871
    2251      8      870      858      859      860
    2252      8      870      858      859      871
    2253      8      858      859      860      861
    2254      8      858      859      860      872
    2255      8      871      859      860      861
    2256      8      871      859      860      872
    2257      8      859      860      861      862
    2258      8      859      860      861      873
    2259      8      872      860      861      862
    2260      8      872      860      861      873
    2261      8      860      861      862      857
    2262      8      860      861      862      874
    2263      8      873      861      862      857
    2264      8      873      861      862      874
    2265      8      855      856      863      864
    2266      8      855      856      863      875
    2267      8      857      856      863      864
    2268      8      857      856      863      875
    2269      8      856      863      864      853
    2270      8      856      863      864      876
    2271      8      875      863      864      853
    2272      8      875      863      864      876
    2273      8      863      864      853      852
    2274      8      863      864      853      854
    2275      8      876      864      853      852
    2276      8      876      864      853      854
    2277      8      861      862      857      856
    2278      8      861      862      857      858
    2279      8      874      862      857      856
    2280      8      874      862      857      858
    2281     14      790      791      848      849
    2282      4      790      791      848      865
    2283      4      790      791      848      866
    2284     13      792      791      848      849
    2285     12      792      791      848      865
    2286     12      792      791      848      866
    2287      4      809      791      848      849
    2288      4      809      791      848      865
    2289      4      809      791      848      866
    2290     12      894      877      878      879
    2291      4      894      877      878      896
    2292      4      894      877      878      935
    2293     12      895      877      878      879
    2294      4      895      877      878      896
    2295      4      895      877      878      935
    2296     13      820      877      878      879
    2297      4      820      877      878      896
    2298     14      820      877      878      935
    2299     15      877      878      879      880
    2300     16      877      878      879      881
    2301      1      896      878      879      880
    2302     17      896      878      879      881
    2303     15      935      878      879      880
    2304     16      935      878      879      881
    2305     18      878      879      881      882
    2306      5      880      879      881      882
    2307     19      879      881      882      883
    2308     19      879      881      882      893
    2309      8      881      882      883      884
    2310      8      881      882      883      897
    2311      8      893      882      883      884
    2312      8      893      882      883      897
    2313      8      882      883      884      885
    2314      8      882      883      884      898
    2315      8      897      883      884      885
    2316      8      897      883      884      898
    2317      8      883      884      885      886
    2318      8      883      884      885      892
    2319      8      898      884      885      886
    2320      8      898      884      885      892
    2321     20      884      885      886      887
    2322     20      884      885      886      891
    2323     20      892      885      886      887
    2324     20      892      885      886      891
    2325      8      885      886      887      888
    2326      8      885      886      887      899
    2327      8      891      886      887      888
    2328      8      891      886      887      899
    2329      8      886      887      888      889
    2330      8      886      887      888      900
    2331      8      899      887      888      889
    2332      8      899      887      888      900
    2333      8      887      888      889      890
    2334      8      887      888      889      901
    2335      8      900      888      889      890
    2336      8      900      888      889      901
    2337      8      888      889      890      891
    2338      8      888      889      890      902
    2339      8      901      889      890      891
    2340      8      901      889      890      902
    2341      8      889      890      891      886
    2342      8      889      890      891      903
    2343      8      902      890      891      886
    2344      8      902      890      891      903
    2345      8      884      885      892      893
    2346      8      884      885      892      904
    2347      8      886      885      892      893
    2348      8      886      885      892      904
    2349      8      885      892      893      882
    2350      8      885      892      893      905
    2351      8      904      892      893      882
    2352      8      904      892      893      905
    2353      8      892      893      882      881
    2354      8      892      893      882      883
    2355      8      905      893      882      881
    2356      8      905      893      882      883
    2357      8      890      891      886      885
    2358      8      890      891      886      887
    2359      8      903      891      886      885
    2360      8      903      891      886      887
    2361     14      819      820      877      878
    2362      4      819      820      877      894
    2363      4      819      820      877      895
    2364     13      821      820      877      878
    2365     12      821      820      877      894
    2366     12      821      820      877      895
    2367      4      838      820      877      878
    2368      4      838      820      877      894
    2369      4      838      820      877      895
    2370     12      923      906      907      908
    2371      4      923      906      907      925
    2372      4      923      906      907      964
    2373     12      924      906      907      908
    2374      4      924      906      907      925
    2375      4      924      906      907      964
    2376     13      849      906      907      908
    2377      4      849      906      907      925
    2378     14      849      906      907      964
    2379     15      906      907      908      909
    2380     16      906      907      908      910
    2381      1      925      907      908      909
    2382     17      925      907      908      910
    2383     15      964      907      908      909
    2384     16      964      907      908      910
    2385     18      907      908      910      911
    2386      5      909      908      910      911
    2387     19      908      910      911      912
    2388     19      908      910      911      922
    2389      8      910      911      912      913
    2390      8      910      911      912      926
    2391      8      922      911      912      913
    2392      8      922      911      912      926
    2393      8      911      912      913      914
    2394      8      911      912      913      927
    2395      8      926      912      913      914
    2396      8      926      912      913      927
    2397      8      912      913      914      915
    2398      8      912      913      914      921
    2399      8      927      913      914      915
    2400      8      927      913      914      921
    2401     20      913      914      915      916
    2402     20      913      914      915      920
    2403     20      921      914      915      916
    2404     20      921      914      915      920
    2405      8      914      915      916      917
    2406      8      914      915      916      928
    2407      8      920      915      916      917
    2408      8      920      915      916      928
    2409      8      915      916      917      918
    2410      8      915      916      917      929
    2411      8      928      916      917      918
    2412      8      928      916      917      929
    2413      8      916      917      918      919
    2414      8      916      917      918      930
    2415      8      929      917      918      919
    2416      8      929      917      918      930
    2417      8      917      918      919      920
    2418      8      917      918      919      931
    2419      8      930      918      919      920
    2420      8      930      918      919      931
    2421      8      918      919      920      915
    2422      8      918      919      920      932
    2423      8      931      919      920      915
    2424      8      931      919      920      932
    2425      8      913      914      921      922
    2426      8      913      914      921      933
    2427      8      915      914      921      922
    2428      8      915      914      921      933
    2429      8      914      921      922      911
    2430      8      914      921      922      934
    2431      8      933      921      922      911
    2432      8      933      921      922      934
    2433      8      921      922      911      910
    2434      8      921      922      911      912
    2435      8      934      922      911      910
    2436      8      934      922      911      912
    2437      8      919      920      915      914
    2438      8      919      920      915      916
    2439      8      932      920      915      914
    2440      8      932      920      915      916
    2441     14      848      849      906      907
    2442      4      848      849      906      923
    2443      4      848      849      906      924
    2444     13      850      849      906      907
    2445     12      850      849      906      923
    2446     12      850      849      906      924
    2447      4      867      849      906      907
    2448      4      867      849      906      923
    2449      4      867      849      906      924
    2450     12      952      935      936      937
    2451      4      952      935      936      954
    2452      4      952      935      936      993
    2453     12      953      935      936      937
    2454      4      953      935      936      954
    2455      4      953      935      936      993
    2456     13      878      935      936      937
    2457      4      878      935      936      954
    2458     14      878      935      936      993
    2459     15      935      936      937      938
    2460     16      935      936      937      939
    2461      1      954      936      937      938
    2462     17      954      936      937      939
    2463     15      993      936      937      938
    2464     16      993      936      937      939
    2465     18      936      937      939      940
    2466      5      938      937      939      940
    2467     19      937      939      940      941
    2468     19      937      939      940      951
    2469      8      939      940      941      942
    2470      8      939      940      941      955
    2471      8      951      940      941      942
    2472      8      951      940      941      955
    2473      8      940      941      942      943
    2474      8      940      941      942      956
    2475      8      955      941      942      943
    2476      8      955      941      942      956
    2477      8      941      942      943      944
    2478      8      941      942      943      950
    2479      8      956      942      943      944
    2480      8      956      942      943      950
    2481     20      942      943      944      945
    2482     20      942      943      944      949
    2483     20      950      943      944      945
    2484     20      950      943      944      949
    2485      8      943      944      945      946
    2486      8      943      944      945      957
    2487      8      949      944      945      946
    2488      8      949      944      945      957
    2489      8      944      945      946      947
    2490      8      944      945      946      958
    2491      8      957      945      946      947
    2492      8      957      945      946      958
    2493      8      945      946      947      948
    2494      8      945      946      947      959
    2495      8      958      946      947      948
    2496      8      958      946      947      959
    2497      8      946      947      948      949
    2498      8      946      947      948      960
    2499      8      959      947      948      949
    2500      8      959      947      948      960
    2501      8      947      948      949      944
    2502      8      947      948      949      961
    2503      8      960      948      949      944
    2504      8      960      948      949      961
    2505      8      942      943      950      951
    2506      8      942      943      950      962
    2507      8      944      943      950      951
    2508      8      944      943      950      962
    2509      8      943      950      951      940
    2510      8      943      950      951      963
    2511      8      962      950      951      940
    2512      8      962      950      951      963
    2513      8      950      951      940      939
    2514      8      950      951      940      941
    2515      8      963      951      940      939
    2516      8      963      951      940      941
    2517      8      948      949      944      943
    2518      8      948      949      944      945
    2519      8      961      949      944      943
    2520      8      961      949      944      945
    2521     14      877      878      935      936
    2522      4      877      878      935      952
    2523      4      877      878      935      953
    2524     13      879      878      935      936
    2525     12      879      878      935      952
    2526     12      879      878      935      953
    2527      4      896      878      935      936
    2528      4      896      878      935      952
    2529      4      896      878      935      953
    2530     12      981      964      965      966
    2531      4      981      964      965      983
    2532      4      981      964      965     1022
    2533     12      982      964      965      966
    2534      4      982      964      965      983
    2535      4      982      964      965     1022
    2536     13      907      964      965      966
    2537      4      907      964      965      983
    2538     14      907      964      965     1022
    2539     15      964      965      966      967
    2540     16      964      965      966      968
    2541      1      983      965      966      967
    2542     17      983      965      966      968
    2543     15     1022      965      966      967
    2544     16     1022      965      966      968
    2545     18      965      966      968      969
    2546      5      967      966      968      969
    2547     19      966      968      969      970
    2548     19      966      968      969      980
    2549      8      968      969      970      971
    2550      8      968      969      970      984
    2551      8      980      969      970      971
    2552      8      980      969      970      984
    2553      8      969      970      971      972
    2554      8      969      970      971      985
    2555      8      984      970      971      972
    2556      8      984      970      971      985
    2557      8      970      971      972      973
    2558      8      970      971      972      979
    2559      8      985      971      972      973
    2560      8      985      971      972      979
    2561     20      971      972      973      974
    2562     20      971      972      973      978
    2563     20      979      972      973      974
    2564     20      979      972      973      978
    2565      8      972      973      974      975
    2566      8      972      973      974      986
    2567      8      978      973      974      975
    2568      8      978      973      974      986
    2569      8      973      974      975      976
    2570      8      973      974      975      987
    2571      8      986      974      975      976
    2572      8      986      974      975      987
    2573      8      974      975      976      977
    2574      8      974      975      976      988
    2575      8      987      975      976      977
    2576      8      987      975      976      988
    2577      8      975      976      977      978
    2578      8      975      976      977      989
    2579      8      988      976      977      978
    2580      8      988      976      977      989
    2581      8      976      977      978      973
    2582      8      976      977      978      990
    2583      8      989      977      978      973
    2584      8      989      977      978      990
    2585      8      971      972      979      980
    2586      8      971      972      979      991
    2587      8      973      972      979      980
    2588      8      973      972      979      991
    2589      8      972      979      980      969
    2590      8      972      979      980      992
    2591      8      991      979      980      969
    2592      8      991      979      980      992
    2593      8      979      980      969      968
    2594      8      979      980      969      970
    2595      8      992      980      969      968
    2596      8      992      980      969      970
    2597      8      977      978      973      972
    2598      8      977      978      973      974
    2599      8      990      978      973      972
    2600      8      990      978      973      974
    2601     14      906      907      964      965
    2602      4      906      907      964      981
    2603      4      906      907      964      982
    2604     13      908      907      964      965
    2605     12      908      907      964      981
    2606     12      908      907      964      982
    2607      4      925      907      964      965
    2608      4      925      907      964      981
    2609      4      925      907      964      982
    2610     12     1010      993      994      995
    2611      4     1010      993      994     1012
    2612      4     1010      993      994     1054
    2613     12     1011      993      994      995
    2614      4     1011      993      994     1012
    2615      4     1011      993      994     1054
    2616     13      936      993      994      995
    2617      4      936      993      994     1012
    2618     14      936      993      994     1054
    2619     15      993      994      995      996
    2620     16      993      994      995      997
    2621      1     1012      994      995      996
    2622     17     1012      994      995      997
    2623     15     1054      994      995      996
    2624     16     1054      994      995      997
    2625     18      994      995      997      998
    2626      5      996      995      997      998
    2627     19      995      997      998      999
    2628     19      995      997      998     1009
    2629      8      997      998      999     1000
    2630      8      997      998      999     1013
    2631      8     1009      998      999     1000
    2632      8     1009      998      999     1013
    2633      8      998      999     1000     1001
    2634      8      998      999     1000     1014
    2635      8     1013      999     1000     1001
    2636      8     1013      999     1000     1014
    2637      8      999     1000     1001     1002
    2638      8      999     1000     1001     1008
    2639      8     1014     1000     1001     1002
    2640      8     1014     1000     1001     1008
    2641     20     1000     1001     1002     1003
    2642     20     1000     1001     1002     1007
    2643     20     1008     1001     1002     1003
    2644     20     1008     1001     1002     1007
    2645      8     1001     1002     1003     1004
    2646      8     1001     1002     1003     1015
    2647      8     1007     1002     1003     1004
    2648      8     1007     1002     1003     1015
    2649      8     1002     1003     1004     1005
    2650      8     1002     1003     1004     1016
    2651      8     1015     1003     1004     1005
    2652      8     1015     1003     1004     1016
    2653      8     1003     1004     1005     1006
    2654      8     1003     1004     1005     1017
    2655      8     1016     1004     1005     1006
    2656      8     1016     1004     1005     1017
    2657      8     1004     1005     1006     1007
    2658      8     1004     1005     1006     1018
    2659      8     1017     1005     1006     1007
    2660      8     1017     1005     1006     1018
    2661      8     1005     1006     1007     1002
    2662      8     1005     1006     1007     1019
    2663      8     1018     1006     1007     1002
    2664      8     1018     1006     1007     1019
    2665      8     1000     1001     1008     1009
    2666      8     1000     1001     1008     1020
    2667      8     1002     1001     1008     1009
    2668      8     1002     1001     1008     1020
    2669      8     1001     1008     1009      998
    2670      8     1001     1008     1009     1021
    2671      8     1020     1008     1009      998
    2672      8     1020     1008     1009     1021
    2673      8     1008     1009      998      997
    2674      8     1008     1009      998      999
    2675      8     1021     1009      998      997
    2676      8     1021     1009      998      999
    2677      8     1006     1007     1002     1001
    2678      8     1006     1007     1002     1003
    2679      8     1019     1007     1002     1001
    2680      8     1019     1007     1002     1003
    2681     14      935      936      993      994
    2682      4      935      936      993     1010
    2683      4      935      936      993     1011
    2684     13      937      936      993      994
    2685     12      937      936      993     1010
    2686     12      937      936      993     1011
    2687      4      954      936      993      994
    2688      4      954      936      993     1010
    2689      4      954      936      993     1011
    2690     12     1039     1022     1023     1024
    2691      4     1039     1022     1023     1041
    2692      4     1039     1022     1023     1062
    2693     12     1040     1022     1023     1024
    2694      4     1040     1022     1023     1041
    2695      4     1040     1022     1023     1062
    2696     13      965     1022     1023     1024
    2697      4      965     1022     1023     1041
    2698     14      965     1022     1023     1062
    2699     15     1022     1023     1024     1025
    2700     16     1022     1023     1024     1026
    2701      1     1041     1023     1024     1025
    2702     17     1041     1023     1024     1026
    2703     15     1062     1023     1024     1025
    2704     16     1062     1023     1024     1026
    2705     18     1023     1024     1026     1027
    2706      5     1025     1024     1026     1027
    2707     19     1024     1026     1027     1028
    2708     19     1024     1026     1027     1038
    2709      8     1026     1027     1028     1029
    2710      8     1026     1027     1028     1042
    2711      8     1038     1027     1028     1029
    2712      8     1038     1027     1028     1042
    2713      8     1027     1028     1029     1030
    2714      8     1027     1028     1029     1043
    2715      8     1042     1028     1029     1030
    2716      8     1042     1028     1029     1043
    2717      8     1028     1029     1030     1031
    2718      8     1028     1029     1030     1037
    2719      8     1043     1029     1030     1031
    2720      8     1043     1029     1030     1037
    2721     20     1029     1030     1031     1032
    2722     20     1029     1030     1031     1036
    2723     20     1037     1030     1031     1032
    2724     20     1037     1030     1031     1036
    2725      8     1030     1031     1032     1033
    2726      8     1030     1031     1032     1044
    2727      8     1036     1031     1032     1033
    2728      8     1036     1031     1032     1044
    2729      8     1031     1032     1033     1034
    2730      8     1031     1032     1033     1045
    2731      8     1044     1032     1033     1034
    2732      8     1044     1032     1033     1045
    2733      8     1032     1033     1034     1035
    2734      8     1032     1033     1034     1046
    2735      8     1045     1033     1034     1035
    2736      8     1045     1033     1034     1046
    2737      8     1033     1034     1035     1036
    2738      8     1033     1034     1035     1047
    2739      8     1046     1034     1035     1036
    2740      8     1046     1034     1035     1047
    2741      8     1034     1035     1036     1031
    2742      8     1034     1035     1036     1048
    2743      8     1047     1035     1036     1031
    2744      8     1047     1035     1036     1048
    2745      8     1029     1030     1037     1038
    2746      8     1029     1030     1037     1049
    2747      8     1031     1030     1037     1038
    2748      8     1031     1030     1037     1049
    2749      8     1030     1037     1038     1027
    2750      8     1030     1037     1038     1050
    2751      8     1049     1037     1038     1027
    2752      8     1049     1037     1038     1050
    2753      8     1037     1038     1027     1026
    2754      8     1037     1038     1027     1028
    2755      8     1050     1038     1027     1026
    2756      8     1050     1038     1027     1028
    2757      8     1035     1036     1031     1030
    2758      8     1035     1036     1031     1032
    2759      8     1048     1036     1031     1030
    2760      8     1048     1036     1031     1032
    2761     14      964      965     1022     1023
    2762      4      964      965     1022     1039
    2763      4      964      965     1022     1040
    2764     13      966      965     1022     1023
    2765     12      966      965     1022     1039
    2766     12      966      965     1022     1040
    2767      4      983      965     1022     1023
    2768      4      983      965     1022     1039
    2769      4      983      965     1022     1040
    2770      1     1051     1052     1053     1054
    2771      1     1051     1052     1053     1055
    2772      1     1051     1052     1053     1056
    2773      2     1052     1053     1054     1057
    2774      2     1052     1053     1054     1058
    2775     23     1052     1053     1054      994
    2776      4     1055     1053     1054     1057
    2777      4     1055     1053     1054     1058
    2778      4     1055     1053     1054      994
    2779      4     1056     1053     1054     1057
    2780      4     1056     1053     1054     1058
    2781      4     1056     1053     1054      994
    2782     14      993      994     1054     1053
    2783      4      993      994     1054     1057
    2784      4      993      994     1054     1058
    2785     13      995      994     1054     1053
    2786     12      995      994     1054     1057
    2787     12      995      994     1054     1058
    2788      4     1012      994     1054     1053
    2789      4     1012      994     1054     1057
    2790      4     1012      994     1054     1058
    2791      1     1059     1060     1061     1062
    2792      1     1059     1060     1061     1063
    2793      1     1059     1060     1061     1064
    2794      2     1060     1061     1062     1065
    2795      2     1060     1061     1062     1066
    2796     23     1060     1061     1062     1023
    2797      4     1063     1061     1062     1065
    2798      4     1063     1061     1062     1066
    2799      4     1063     1061     1062     1023
    2800      4     1064     1061     1062     1065
    2801      4     1064     1061     1062     1066
    2802      4     1064     1061     1062     1023
    2803     14     1022     1023     1062     1061
    2804      4     1022     1023     1062     1065
    2805      4     1022     1023     1062     1066
    2806     13     1024     1023     1062     1061
    2807     12     1024     1023     1062     1065
    2808     12     1024     1023     1062     1066
    2809      4     1041     1023     1062     1061
    2810      4     1041     1023     1062     1065
    2811      4     1041     1023     1062     1066

Impropers

       1      1       10       12       11        9
       2      2       12       10       13       17
       3      2       13       12       14       27
       4      2       14       13       21       15
       5      2       15       16       18       14
       6      2       16       17       15       28
       7      2       17       12       16       29
       8      2       18       19       15       30
       9      2       19       22       18       20
      10      2       20       19       21       31
      11      2       21       20       14       32
      12      1       22       19       23       24
      13      1       38       40       39       37
      14      2       40       38       41       45
      15      2       41       40       42       55
      16      2       42       41       49       43
      17      2       43       44       46       42
      18      2       44       45       43       56
      19      2       45       40       44       57
      20      2       46       47       43       58
      21      2       47       50       46       48
      22      2       48       47       49       59
      23      2       49       48       42       60
      24      1       50       47       51       52
      25      1       66       68       67       65
      26      2       68       66       69       73
      27      2       69       68       70       83
      28      2       70       69       77       71
      29      2       71       72       74       70
      30      2       72       73       71       84
      31      2       73       68       72       85
      32      2       74       75       71       86
      33      2       75       78       74       76
      34      2       76       75       77       87
      35      2       77       76       70       88
      36      1       78       75       79       80
      37      1       94       96       95       93
      38      2       96       94       97      101
      39      2       97       96       98      111
      40      2       98       97      105       99
      41      2       99      100      102       98
      42      2      100      101       99      112
      43      2      101       96      100      113
      44      2      102      103       99      114
      45      2      103      106      102      104
      46      2      104      103      105      115
      47      2      105      104       98      116
      48      1      106      103      107      108
      49      1      122      124      123      121
      50      2      124      122      125      129
      51      2      125      124      126      139
      52      2      126      125      133      127
      53      2      127      128      130      126
      54      2      128      129      127      140
      55      2      129      124      128      141
      56      2      130      131      127      142
      57      2      131      134      130      132
      58      2      132      131      133      143
      59      2      133      132      126      144
      60      1      134      131      135      136
      61      1      150      152      151      149
      62      2      152      150      153      157
      63      2      153      152      154      167
      64      2      154      153      161      155
      65      2      155      156      158      154
      66      2      156      157      155      168
      67      2      157      152      156      169
      68      2      158      159      155      170
      69      2      159      162      158      160
      70      2      160      159      161      171
      71      2      161      160      154      172
      72      1      162      159      163      164
      73      1      178      180      179      177
      74      2      180      178      181      185
      75      2      181      180      182      195
      76      2      182      181      189      183
      77      2      183      184      186      182
      78      2      184      185      183      196
      79      2      185      180      184      197
      80      2      186      187      183      198
      81      2      187      190      186      188
      82      2      188      187      189      199
      83      2      189      188      182      200
      84      1      190      187      191      192
      85      1      206      208      207      205
      86      2      208      206      209      213
      87      2      209      208      210      223
      88      2      210      209      217      211
      89      2      211      212      214      210
      90      2      212      213      211      224
      91      2      213      208      212      225
      92      2      214      215      211      226
      93      2      215      218      214      216
      94      2      216      215      217      227
      95      2      217      216      210      228
      96      1      218      215      219      220
      97      1      234      236      235      233
      98      2      236      234      237      241
      99      2      237      236      238      251
     100      2      238      237      245      239
     101      2      239      240      242      238
     102      2      240      241      239      252
     103      2      241      236      240      253
     104      2      242      243      239      254
     105      2      243      246      242      244
     106      2      244      243      245      255
     107      2      245      244      238      256
     108      1      246      243      247      248
     109      1      262      264      263      261
     110      2      264      262      265      269
     111      2      265      264      266      279
     112      2      266      265      273      267
     113      2      267      268      270      266
     114      2      268      269      267      280
     115      2      269      264      268      281
     116      2      270      271      267      282
     117      2      271      274      270      272
     118      2      272      271      273      283
     119      2      273      272      266      284
     120      1      274      271      275      276
     121      1      290      292      291      289
     122      2      292      290      293      297
     123      2      293      292      294      307
     124      2      294      293      301      295
     125      2      295      296      298      294
     126      2      296      297      295      308
     127      2      297      292      296      309
     128      2      298      299      295      310
     129      2      299      302      298      300
     130      2      300      299      301      311
     131      2      301      300      294      312
     132      1      302      299      303      304
     133      1      319      318      320      321
     134      2      322      323      333      321
     135      2      323      322      324      337
     136      2      324      325      323      338
     137      2      325      326      324      332
     138      2      326      325      327      331
     139      2      327      326      328      339
     140      2      328      327      329      340
     141      2      329      328      330      341
     142      2      330      329      331      342
     143      2      331      326      330      343
     144      2      332      325      333      344
     145      2      333      322      332      345
     146      1      363      365      364      362
     147      2      365      363      366      370
     148      2      366      365      367      380
     149      2      367      366      374      368
     150      2      368      369      371      367
     151      2      369      370      368      381
     152      2      370      365      369      382
     153      2      371      372      368      383
     154      2      372      375      371      373
     155      2      373      372      374      384
     156      2      374      373      367      385
     157      1      375      372      376      377
     158      1      392      391      393      394
     159      2      395      396      406      394
     160      2      396      395      397      410
     161      2      397      398      396      411
     162      2      398      399      397      405
     163      2      399      398      400      404
     164      2      400      399      401      412
     165      2      401      400      402      413
     166      2      402      401      403      414
     167      2      403      402      404      415
     168      2      404      399      403      416
     169      2      405      398      406      417
     170      2      406      395      405      418
     171      1      420      422      421      419
     172      2      422      420      423      427
     173      2      423      422      424      437
     174      2      424      423      431      425
     175      2      425      426      428      424
     176      2      426      427      425      438
     177      2      427      422      426      439
     178      2      428      429      425      440
     179      2      429      432      428      430
     180      2      430      429      431      441
     181      2      431      430      424      442
     182      1      432      429      433      434
     183      1      449      448      450      451
     184      2      452      453      463      451
     185      2      453      452      454      467
     186      2      454      455      453      468
     187      2      455      456      454      462
     188      2      456      455      457      461
     189      2      457      456      458      469
     190      2      458      457      459      470
     191      2      459      458      460      471
     192      2      460      459      461      472
     193      2      461      456      460      473
     194      2      462      455      463      474
     195      2      463      452      462      475
     196      1      477      479      478      476
     197      2      479      477      480      484
     198      2      480      479      481      494
     199      2      481      480      488      482
     200      2      482      483      485      481
     201      2      483      484      482      495
     202      2      484      479      483      496
     203      2      485      486      482      497
     204      2      486      489      485      487
     205      2      487      486      488      498
     206      2      488      487      481      499
     207      1      489      486      490      491
     208      1      506      505      507      508
     209      2      509      510      520      508
     210      2      510      509      511      524
     211      2      511      512      510      525
     212      2      512      513      511      519
     213      2      513      512      514      518
     214      2      514      513      515      526
     215      2      515      514      516      527
     216      2      516      515      517      528
     217      2      517      516      518      529
     218      2      518      513      517      530
     219      2      519      512      520      531
     220      2      520      509      519      532
     221      1      534      536      535      533
     222      2      536      534      537      541
     223      2      537      536      538      551
     224      2      538      537      545      539
     225      2      539      540      542      538
     226      2      540      541      539      552
     227      2      541      536      540      553
     228      2      542      543      539      554
     229      2      543      546      542      544
     230      2      544      543      545      555
     231      2      545      544      538      556
     232      1      546      543      547      548
     233      1      563      562      564      565
     234      2      566      567      577      565
     235      2      567      566      568      581
     236      2      568      569      567      582
     237      2      569      570      568      576
     238      2      570      569      571      575
     239      2      571      570      572      583
     240      2      572      571      573      584
     241      2      573      572      574      585
     242      2      574      573      575      586
     243      2      575      570      574      587
     244      2      576      569      577      588
     245      2      577      566      576      589
     246      1      591      593      592      590
     247      2      593      591      594      598
     248      2      594      593      595      608
     249      2      595      594      602      596
     250      2      596      597      599      595
     251      2      597      598      596      609
     252      2      598      593      597      610
     253      2      599      600      596      611
     254      2      600      603      599      601
     255      2      601      600      602      612
     256      2      602      601      595      613
     257      1      603      600      604      605
     258      1      620      619      621      622
     259      2      623      624      634      622
     260      2      624      623      625      638
     261      2      625      626      624      639
     262      2      626      627      625      633
     263      2      627      626      628      632
     264      2      628      627      629      640
     265      2      629      628      630      641
     266      2      630      629      631      642
     267      2      631      630      632      643
     268      2      632      627      631      644
     269      2      633      626      634      645
     270      2      634      623      633      646
     271      1      648      650      649      647
     272      2      650      648      651      655
     273      2      651      650      652      665
     274      2      652      651      659      653
     275      2      653      654      656      652
     276      2      654      655      653      666
     277      2      655      650      654      667
     278      2      656      657      653      668
     279      2      657      660      656      658
     280      2      658      657      659      669
     281      2      659      658      652      670
     282      1      660      657      661      662
     283      1      677      676      678      679
     284      2      680      681      691      679
     285      2      681      680      682      695
     286      2      682      683      681      696
     287      2      683      684      682      690
     288      2      684      683      685      689
     289      2      685      684      686      697
     290      2      686      685      687      698
     291      2      687      686      688      699
     292      2      688      687      689      700
     293      2      689      684      688      701
     294      2      690      683      691      702
     295      2      691      680      690      703
     296      1      705      707      706      704
     297      2      707      705      708      712
     298      2      708      707      709      722
     299      2      709      708      716      710
     300      2      710      711      713      709
     301      2      711      712      710      723
     302      2      712      707      711      724
     303      2      713      714      710      725
     304      2      714      717      713      715
     305      2      715      714      716      726
     306      2      716      715      709      727
     307      1      717      714      718      719
     308      1      734      733      735      736
     309      2      737      738      748      736
     310      2      738      737      739      752
     311      2      739      740      738      753
     312      2      740      741      739      747
     313      2      741      740      742      746
     314      2      742      741      743      754
     315      2      743      742      744      755
     316      2      744      743      745      756
     317      2      745      744      746      757
     318      2      746      741      745      758
     319      2      747      740      748      759
     320      2      748      737      747      760
     321      1      763      762      764      765
     322      2      766      767      777      765
     323      2      767      766      768      781
     324      2      768      769      767      782
     325      2      769      770      768      776
     326      2      770      769      771      775
     327      2      771      770      772      783
     328      2      772      771      773      784
     329      2      773      772      774      785
     330      2      774      773      775      786
     331      2      775      770      774      787
     332      2      776      769      777      788
     333      2      777      766      776      789
     334      1      792      791      793      794
     335      2      795      796      806      794
     336      2      796      795      797      810
     337      2      797      798      796      811
     338      2      798      799      797      805
     339      2      799      798      800      804
     340      2      800      799      801      812
     341      2      801      800      802      813
     342      2      802      801      803      814
     343      2      803      802      804      815
     344      2      804      799      803      816
     345      2      805      798      806      817
     346      2      806      795      805      818
     347      1      821      820      822      823
     348      2      824      825      835      823
     349      2      825      824      826      839
     350      2      826      827      825      840
     351      2      827      828      826      834
     352      2      828      827      829      833
     353      2      829      828      830      841
     354      2      830      829      831      842
     355      2      831      830      832      843
     356      2      832      831      833      844
     357      2      833      828      832      845
     358      2      834      827      835      846
     359      2      835      824      834      847
     360      1      850      849      851      852
     361      2      853      854      864      852
     362      2      854      853      855      868
     363      2      855      856      854      869
     364      2      856      857      855      863
     365      2      857      856      858      862
     366      2      858      857      859      870
     367      2      859      858      860      871
     368      2      860      859      861      872
     369      2      861      860      862      873
     370      2      862      857      861      874
     371      2      863      856      864      875
     372      2      864      853      863      876
     373      1      879      878      880      881
     374      2      882      883      893      881
     375      2      883      882      884      897
     376      2      884      885      883      898
     377      2      885      886      884      892
     378      2      886      885      887      891
     379      2      887      886      888      899
     380      2      888      887      889      900
     381      2      889      888      890      901
     382      2      890      889      891      902
     383      2      891      886      890      903
     384      2      892      885      893      904
     385      2      893      882      892      905
     386      1      908      907      909      910
     387      2      911      912      922      910
     388      2      912      911      913      926
     389      2      913      914      912      927
     390      2      914      915      913      921
     391      2      915      914      916      920
     392      2      916      915      917      928
     393      2      917      916      918      929
     394      2      918      917      919      930
     395      2      919      918      920      931
     396      2      920      915      919      932
     397      2      921      914      922      933
     398      2      922      911      921      934
     399      1      937      936      938      939
     400      2      940      941      951      939
     401      2      941      940      942      955
     402      2      942      943      941      956
     403      2      943      944      942      950
     404      2      944      943      945      949
     405      2      945      944      946      957
     406      2      946      945      947      958
     407      2      947      946      948      959
     408      2      948      947      949      960
     409      2      949      944      948      961
     410      2      950      943      951      962
     411      2      951      940      950      963
     412      1      966      965      967      968
     413      2      969      970      980      968
     414      2      970      969      971      984
     415      2      971      972      970      985
     416      2      972      973      971      979
     417      2      973      972      974      978
     418      2      974      973      975      986
     419      2      975      974      976      987
     420      2      976      975      977      988
     421      2      977      976      978      989
     422      2      978      973      977      990
     423      2      979      972      980      991
     424      2      980      969      979      992
     425      1      995      994      996      997
     426      2      998      999     1009      997
     427      2      999      998     1000     1013
     428      2     1000     1001      999     1014
     429      2     1001     1002     1000     1008
     430      2     1002     1001     1003     1007
     431      2     1003     1002     1004     1015
     432      2     1004     1003     1005     1016
     433      2     1005     1004     1006     1017
     434      2     1006     1005     1007     1018
     435      2     1007     1002     1006     1019
     436      2     1008     1001     1009     1020
     437      2     1009      998     1008     1021
     438      1     1024     1023     1025     1026
     439      2     1027     1028     1038     1026
     440      2     1028     1027     1029     1042
     441      2     1029     1030     1028     1043
     442      2     1030     1031     1029     1037
     443      2     1031     1030     1032     1036
     444      2     1032     1031     1033     1044
     445      2     1033     1032     1034     1045
     446      2     1034     1033     1035     1046
     447      2     1035     1034     1036     1047
     448      2     1036     1031     1035     1048
     449      2     1037     1030     1038     1049
     450      2     1038     1027     1037     1050

