LAMMPS data file from Part3 phase8.resolved.q.json (OPLS-AA)
# chain_id=star_orth800_uid001255_sk9_rg1_pl2_random__0c912bbc6609 topology=star
# assumes: units real; atom_style full; bond_style harmonic; angle_style harmonic; dihedral_style opls; improper_style cvff
# special_bonds lj/coul 0.0 0.0 0.5
# cvff improper: K=v2/2, d=-1, n=2

     904 atoms
     988 bonds
    1652 angles
    2470 dihedrals
     427 impropers

      10 atom types
      16 bond types
      25 angle types
      26 dihedral types
       2 improper types

    -19.452000      59.231000 xlo xhi
    -21.970800      66.084800 ylo yhi
    -29.498000      34.039700 zlo zhi

Masses

       1     1.008000 # boss_type=HA count=242
       2     1.008000 # boss_type=HC count=102
       3    12.011000 # boss_type=CZ count=4
       4    12.011000 # boss_type=CT count=51
       5    12.011000 # boss_type=C count=379
       6    12.011000 # boss_type=CB count=48
       7    14.007000 # boss_type=NZ count=4
       8    14.007000 # boss_type=NC count=48
       9    15.999000 # boss_type=OS count=13
      10    15.999000 # boss_type=O count=13

Pair Coeffs

       1     0.030000     2.420000 # boss_type=HA count=242
       2     0.030000     2.500000 # boss_type=HC count=102
       3     0.066000     3.300000 # boss_type=CZ count=4
       4     0.066000     3.500000 # boss_type=CT count=51
       5     0.070000     3.550000 # boss_type=C count=379
       6     0.080000     3.500000 # boss_type=CB count=48
       7     0.170000     3.200000 # boss_type=NZ count=4
       8     0.170000     3.250000 # boss_type=NC count=48
       9     0.140000     2.900000 # boss_type=OS count=13
      10     0.210000     2.960000 # boss_type=O count=13

Bond Coeffs

       1   650.000000     1.157000 # pattern=CZ-NZ
       2   390.000000     1.470000 # pattern=CT-CZ
       3   268.000000     1.529000 # pattern=CT-CT
       4   340.000000     1.090000 # pattern=CT-HC
       5   317.000000     1.522000 # pattern=C-CT
       6   570.000000     1.229000 # pattern=C-O
       7   214.000000     1.327000 # pattern=C-OS
       8   320.000000     1.410000 # pattern=CT-OS
       9   469.000000     1.400000 # pattern=CA-CA
      10   385.000000     1.460000 # pattern=C!-C!
      11   483.000000     1.339000 # pattern=C!-NC
      12   461.000000     1.354000 # pattern=CB-NC
      13   469.000000     1.404000 # pattern=CA-CB
      14   520.000000     1.370000 # pattern=CB-CB
      15   367.000000     1.080000 # pattern=CA-HA
      16   317.000000     1.510000 # pattern=CA-CT

Angle Coeffs

       1   150.000000   180.000000 # pattern=CT-CZ-NZ
       2    58.350000   112.700000 # pattern=CT-CT-CZ
       3    35.000000   108.500000 # pattern=CZ-CT-HC
       4    37.500000   110.700000 # pattern=CT-CT-HC
       5    33.000000   107.800000 # pattern=HC-CT-HC
       6    35.000000   109.500000 # pattern=C-CT-HC
       7    63.000000   111.100000 # pattern=C-CT-CT
       8    80.000000   120.400000 # pattern=CT-C-O
       9    81.000000   111.400000 # pattern=CT-C-OS
      10    83.000000   123.400000 # pattern=O-C-OS
      11    83.000000   116.900000 # pattern=C-OS-CT
      12    50.000000   109.500000 # pattern=CT-CT-OS
      13    63.000000   114.000000 # pattern=CA-CT-CT
      14    63.000000   120.000000 # pattern=CA-CA-CA
      15    70.000000   120.000000 # pattern=CA-CA-CT
      16    35.000000   120.000000 # pattern=CA-CA-HA
      17    70.000000   117.000000 # pattern=C!-NC-CB
      18    70.000000   118.400000 # pattern=CA-CB-NC
      19    70.000000   127.700000 # pattern=CB-CB-NC
      20    85.000000   117.300000 # pattern=CA-CB-CB
      21    70.000000   112.200000 # pattern=CA-NC-CB
      22    70.000000   124.000000 # pattern=C!-CA-NC
      23    70.000000   116.000000 # pattern=CT-CA-NC
      24    63.000000   112.000000 # pattern=C-CT-CA
      25    40.000000   109.500000 # pattern=CA-CT-CA

Dihedral Coeffs

       1     0.000000     0.000000     0.000000     0.000000 # pattern=CT-CT-CZ-NZ
       2     0.000000     0.000000     0.366000     0.000000 # pattern=CZ-CT-CT-HC
       3     0.000000    -0.650000     0.000000     0.000000 # pattern=CT-CT-CT-CZ
       4     0.000000     0.000000     0.300000     0.000000 # pattern=HC-CT-CT-HC
       5     0.000000     0.000000     0.132000     0.000000 # pattern=HC-CT-C-OS
       6    -0.277000     1.228000    -0.694000     0.000000 # pattern=CT-CT-C-O
       7     0.000000     0.000000    -0.553000     0.000000 # pattern=CT-CT-C-OS
       8     4.669000     5.124000     0.000000     0.000000 # pattern=CT-C-OS-CT
       9     0.000000     5.124000     0.000000     0.000000 # pattern=CT-OS-C-O
      10    -1.220000    -0.126000     0.422000     0.000000 # pattern=C-OS-CT-CT
      11     0.000000     0.000000     0.198000     0.000000 # pattern=C-OS-CT-HC
      12     1.300000    -0.500000     0.000000     0.000000 # pattern=CT-CT-CT-OS
      13    -1.697000    -0.456000     0.585000     0.000000 # pattern=C-CT-CT-CT
      14     0.000000     0.000000    -0.100000     0.000000 # pattern=C-CT-CT-HC
      15     0.000000     0.000000     0.462000     0.000000 # pattern=CA-CT-CT-HC
      16     0.000000     7.250000     0.000000     0.000000 # pattern=CA-CA-CA-CA
      17     0.000000     2.010000     0.000000     0.000000 # pattern=CA-C!-C!-NC
      18     0.000000     1.650000     0.000000    -0.050000 # pattern=C!-C!-C!-CA
      19     0.000000     7.000000     0.000000     0.000000 # pattern=C!-CA-CB-NC
      20     0.000000     1.110000     0.000000    -0.130000 # pattern=NC-C!-C!-NC
      21     0.000000     0.150000     0.000000     0.000000 # pattern=CA-CA-CT-CT
      22     0.000000     0.546000     0.000000     0.000000 # pattern=CA-CT-C-O
      23     0.000000     0.000000     0.418000     0.183000 # pattern=C-CT-CA-NC
      24     0.000000     0.000000     0.100000     0.000000 # pattern=HC-CT-CA-NC
      25    -0.250000     0.000000     0.000000     0.000000 # pattern=C-CT-CA-C!
      26     0.850000    -0.200000     0.200000     0.000000 # pattern=CT-CT-CT-CT

Improper Coeffs

       1    10.500000  -1   2 # pattern=C-CT-O-OS
       2     2.500000  -1   2 # pattern=CA-CA-CA-CT

Atoms

       1      1      7 -0.38969900   -13.954000    -3.466800   -12.397000
       2      1      3  0.15433000   -13.615100    -2.496700   -12.935800
       3      1      4 -0.08084900   -13.201400    -1.264900   -13.623000
       4      1      4 -0.16252000   -13.404300    -0.043100   -12.722400
       5      1      2  0.13666900   -12.153200    -1.356500   -13.924700
       6      1      2  0.13666900   -13.789600    -1.149400   -14.540600
       7      1      2  0.10270000   -12.798000    -0.145100   -11.813100
       8      1      2  0.10270000   -14.452000    -0.009200   -12.395700
       9      1      4 -0.19425800   -13.079900     1.275100   -13.427000
      10      1      5  0.45537000   -11.599300     1.483400   -13.643500
      11      1     10 -0.44949800   -10.722900     0.688000   -13.338900
      12      1      9 -0.35665700   -11.391400     2.689800   -14.239800
      13      1      4 -0.00087400   -10.012800     2.994100   -14.490700
      14      1      4 -0.20039900    -9.944400     4.359800   -15.160900
      15      1      2  0.14087900   -13.438400     2.100900   -12.801500
      16      1      2  0.14087900   -13.588700     1.322000   -14.395800
      17      1      2  0.11256600    -9.584100     2.229500   -15.149100
      18      1      2  0.11256600    -9.464800     3.011200   -13.541400
      19      1      2  0.11971300   -10.537300     4.343000   -16.084500
      20      1      2  0.11971300   -10.426800     5.107700   -14.518500
      21      1      4 -0.18933000    -8.505700     4.766000   -15.460100
      22      1      5  0.43626600    -8.432900     6.115700   -16.133000
      23      1     10 -0.45799000    -9.392100     6.806200   -16.443000
      24      1      9 -0.34905100    -7.127500     6.444500   -16.346000
      25      1      4  0.00914300    -6.937200     7.712700   -16.992300
      26      1      4 -0.17421600    -5.437400     7.953600   -17.142600
      27      1      2  0.12757900    -8.041600     4.028300   -16.124100
      28      1      2  0.12757900    -7.934300     4.817000   -14.526600
      29      1      2  0.11908200    -7.421300     7.694100   -17.976500
      30      1      2  0.11908200    -7.390600     8.504800   -16.383700
      31      1      2  0.11592800    -4.979400     7.121900   -17.694000
      32      1      2  0.11592800    -4.955400     7.932100   -16.156400
      33      1      5 -0.07401800    -5.139300     9.257500   -17.834100
      34      1      5 -0.13828100    -5.008900    10.439300   -17.098000
      35      1      5 -0.10024800    -4.757500    11.652500   -17.746100
      36      1      5 -0.03732600    -4.642700    11.722900   -19.145000
      37      1      5  0.07247700    -4.386100    13.014900   -19.807500
      38      1      8 -0.23069900    -3.320700    13.693900   -19.293400
      39      1      6  0.01607100    -2.982600    14.858100   -19.873800
      40      1      5 -0.08775200    -1.896900    15.576800   -19.384600
      41      1      5 -0.02489900    -1.486900    16.796100   -19.949300
      42      1      5 -0.02779700    -0.331500    17.534000   -19.412100
      43      1      5 -0.10847100     0.894400    16.898600   -19.185500
      44      1      5 -0.10253600     1.982200    17.611400   -18.673200
      45      1      6  0.02049900     1.882800    18.961700   -18.374900
      46      1      8 -0.23135800     2.949100    19.611000   -17.877500
      47      1      5  0.07637000     2.800600    20.933900   -17.587400
      48      1      5  0.08137000     1.590400    21.600500   -17.836600
      49      1      5 -0.04739800     1.358600    23.041600   -17.625700
      50      1      5 -0.09266300     0.248700    23.480800   -16.882200
      51      1      5 -0.14569800     0.016000    24.841100   -16.663900
      52      1      5 -0.11904900     0.885700    25.790000   -17.194400
      53      1      5 -0.14065200     1.981500    25.380700   -17.949700
      54      1      5 -0.10084300     2.212100    24.019500   -18.168200
      55      1      8 -0.23027700     0.510100    20.931200   -18.330200
      56      1      6  0.01763100     0.656600    19.621600   -18.597700
      57      1      5 -0.08641500    -0.419500    18.902400   -19.107300
      58      1      5 -0.10634500    -2.216600    17.280800   -21.040300
      59      1      5 -0.10314000    -3.310100    16.566900   -21.539300
      60      1      6  0.02214600    -3.704700    15.363900   -20.973700
      61      1      8 -0.22945000    -4.763600    14.708000   -21.478300
      62      1      5  0.08062200    -5.122400    13.533900   -20.884600
      63      1      5 -0.04602900    -6.329700    12.917600   -21.465400
      64      1      5 -0.09269000    -6.424000    12.711000   -22.853500
      65      1      5 -0.14508000    -7.556400    12.122700   -23.422900
      66      1      5 -0.11934300    -8.622000    11.738000   -22.613900
      67      1      5 -0.14192900    -8.560000    11.949200   -21.239100
      68      1      5 -0.10207900    -7.427100    12.539300   -20.671400
      69      1      5 -0.09094500    -4.759000    10.525400   -19.870400
      70      1      5 -0.13758400    -5.012500     9.310200   -19.226000
      71      1      1  0.14401100    -5.097500    10.428300   -16.013800
      72      1      1  0.15039300    -4.649600    12.557600   -17.149800
      73      1      1  0.16670300    -1.365000    15.168200   -18.526900
      74      1      1  0.15646800     1.022200    15.841800   -19.414200
      75      1      1  0.16717800     2.927400    17.101200   -18.502700
      76      1      1  0.15125800    -0.446500    22.752200   -16.467600
      77      1      1  0.14551300    -0.847300    25.156600   -16.083800
      78      1      1  0.14246500     0.703800    26.848300   -17.026900
      79      1      1  0.14807000     2.654700    26.120000   -18.375200
      80      1      1  0.14823900     3.067300    23.728900   -18.775800
      81      1      1  0.16725300    -1.357700    19.434200   -19.257400
      82      1      1  0.15811900    -1.937100    18.215500   -21.523600
      83      1      1  0.16820900    -3.865800    16.958100   -22.388400
      84      1      1  0.15181400    -5.603700    13.015600   -23.501800
      85      1      1  0.14610900    -7.606100    11.971700   -24.498000
      86      1      1  0.14276000    -9.504700    11.282700   -23.055400
      87      1      1  0.14654300    -9.395000    11.660000   -20.605900
      88      1      1  0.14689500    -7.413000    12.706300   -19.596100
      89      1      1  0.15610500    -4.650900    10.525000   -20.953700
      90      1      1  0.14970300    -5.106600     8.405600   -19.823600
      91      1      5 -0.02865000     3.994700    21.553500   -16.989300
      92      1      5 -0.11083500     3.942300    22.216600   -15.753400
      93      1      5 -0.11080000     5.079700    22.828200   -15.214200
      94      1      5 -0.02949800     6.308400    22.801400   -15.891500
      95      1      5  0.07077800     7.485800    23.481900   -15.327300
      96      1      8 -0.22747800     7.796600    23.090900   -14.059400
      97      1      6  0.01321100     8.888600    23.631400   -13.491900
      98      1      5 -0.08552800     9.246900    23.254200   -12.202000
      99      1      5 -0.03017400    10.378900    23.775700   -11.553700
     100      1      5 -0.02861200    10.736000    23.355400   -10.188400
     101      1      5 -0.10903200    10.805600    22.001900    -9.840200
     102      1      5 -0.10514100    11.143700    21.617300    -8.539600
     103      1      6  0.02498900    11.418900    22.557600    -7.558400
     104      1      8 -0.30962900    11.737600    22.149900    -6.316500
     105      1      5  0.11139900    11.978800    23.114400    -5.386300
     106      1      5  0.07255400    11.938800    24.473700    -5.720500
     107      1      5 -0.05100500    12.229600    25.563900    -4.781900
     108      1      5 -0.11082600    11.201300    26.409700    -4.334600
     109      1      5 -0.13625500    11.458900    27.429500    -3.415500
     110      1      5 -0.11802500    12.752000    27.624700    -2.936600
     111      1      5 -0.14410600    13.788600    26.807300    -3.381800
     112      1      5 -0.09151400    13.530400    25.787600    -4.301500
     113      1      8 -0.21947400    11.619800    24.880400    -6.976000
     114      1      6  0.01445800    11.356300    23.928100    -7.888900
     115      1      5 -0.08533800    11.018600    24.298900    -9.186500
     116      1      5 -0.10961000    11.153200    24.707100   -12.254200
     117      1      5 -0.10513400    10.801700    25.094000   -13.550800
     118      1      6  0.02155700     9.682300    24.571600   -14.180800
     119      1      8 -0.23488600     9.374200    24.971700   -15.426700
     120      1      5  0.08220500     8.259100    24.439600   -16.002200
     121      1      5 -0.04830200     7.960200    24.977300   -17.342600
     122      1      5 -0.09398500     6.700400    25.514400   -17.664500
     123      1      5 -0.14710700     6.433400    26.012800   -18.942700
     124      1      5 -0.12069100     7.425200    25.994000   -19.919900
     125      1      5 -0.14240500     8.685500    25.484800   -19.619000
     126      1      5 -0.10204700     8.950600    24.986100   -18.341000
     127      1      5 -0.10486000     6.371700    22.098400   -17.104600
     128      1      5 -0.10509800     5.234700    21.484500   -17.642700
     129      1      1  0.15136100     3.010700    22.264400   -15.192100
     130      1      1  0.15100500     5.001700    23.335900   -14.253700
     131      1      1  0.16769100     8.609000    22.535900   -11.689400
     132      1      1  0.15345500    10.606300    21.228000   -10.579700
     133      1      1  0.16489800    11.192300    20.560800    -8.287000
     134      1      1  0.13945300    10.185600    26.266800    -4.701500
     135      1      1  0.14558000    10.648600    28.071900    -3.080000
     136      1      1  0.14204200    12.954500    28.422400    -2.226500
     137      1      1  0.14439500    14.801000    26.968400    -3.020000
     138      1      1  0.14986600    14.356900    25.171200    -4.650100
     139      1      1  0.16819300    10.964000    25.363100    -9.409700
     140      1      1  0.15326700    12.046700    25.136200   -11.803900
     141      1      1  0.16576400    11.415400    25.819000   -14.080700
     142      1      1  0.14969800     5.911800    25.557000   -16.915400
     143      1      1  0.14391400     5.453000    26.421800   -19.171400
     144      1      1  0.14073500     7.219400    26.385100   -20.912800
     145      1      1  0.14584600     9.466400    25.479900   -20.375000
     146      1      1  0.14682900     9.944800    24.600900   -18.119100
     147      1      1  0.15542200     7.311800    22.019100   -17.647700
     148      1      1  0.15548000     5.320000    20.949100   -18.587200
     149      1      4 -0.15103700    12.304600    22.624600    -4.001900
     150      1      5  0.44466800    11.353700    23.150800    -2.957200
     151      1     10 -0.45799300    10.143700    23.268800    -3.094600
     152      1      9 -0.37249700    12.043600    23.473600    -1.825400
     153      1      4  0.00267000    11.249200    24.101700    -0.808100
     154      1      4 -0.18579500    12.193100    24.679500     0.242700
     155      1      2  0.14704000    13.334700    22.909000    -3.760300
     156      1      2  0.14704000    12.258200    21.530100    -3.960800
     157      1      2  0.10480700    10.640000    24.902200    -1.246000
     158      1      2  0.10480700    10.586500    23.351400    -0.360900
     159      1      2  0.10814500    12.811800    23.879100     0.669000
     160      1      2  0.10814500    12.909800    25.361400    -0.233500
     161      1      5 -0.07359900    11.448500    25.398800     1.335600
     162      1      5 -0.13796200    11.037400    24.715300     2.484100
     163      1      5 -0.09991200    10.320400    25.378200     3.485100
     164      1      5 -0.03696400     9.980800    26.735600     3.358700
     165      1      5  0.07276800     9.211600    27.444400     4.397300
     166      1      8 -0.22927600     9.809100    28.587400     4.841300
     167      1      6  0.01632200     9.203800    29.263300     5.833200
     168      1      5 -0.08638500     9.785800    30.429100     6.321500
     169      1      5 -0.02486300     9.204100    31.183800     7.353200
     170      1      5 -0.02731300     9.827400    32.425600     7.843300
     171      1      5 -0.10629200    10.292800    33.406100     6.959200
     172      1      5 -0.10230100    10.877600    34.581900     7.439100
     173      1      6  0.02529700    11.021900    34.812200     8.798600
     174      1      8 -0.30023800    11.607300    35.948900     9.224500
     175      1      5  0.10811000    11.754500    36.098300    10.571300
     176      1      5  0.07022700    11.266100    35.145500    11.470900
     177      1      5 -0.05138000    11.335400    35.282800    12.927200
     178      1      5 -0.08957000    12.351400    34.648500    13.658200
     179      1      5 -0.14051500    12.425500    34.786800    15.045400
     180      1      5 -0.12140300    11.483900    35.558600    15.721400
     181      1      5 -0.14036700    10.461800    36.185300    15.012500
     182      1      5 -0.11103900    10.383400    36.044400    13.625100
     183      1      8 -0.20083300    10.659600    34.014600    11.035500
     184      1      6  0.01136700    10.554600    33.837500     9.706900
     185      1      5 -0.08397600     9.971000    32.674000     9.217900
     186      1      5 -0.10598700     8.002600    30.713600     7.892900
     187      1      5 -0.10277800     7.408200    29.544600     7.411800
     188      1      6  0.02273300     7.988900    28.812900     6.389100
     189      1      8 -0.22940900     7.384500    27.698200     5.944200
     190      1      5  0.08127600     7.986500    27.013300     4.931000
     191      1      5 -0.04546800     7.223100    25.838400     4.470200
     192      1      5 -0.09233300     6.761600    24.884300     5.395000
     193      1      5 -0.14471500     6.040600    23.761800     4.979500
     194      1      5 -0.11894300     5.759000    23.576700     3.628800
     195      1      5 -0.14144900     6.189400    24.516400     2.696000
     196      1      5 -0.10145400     6.908700    25.639800     3.113900
     197      1      5 -0.09023100    10.414600    27.414000     2.207200
     198      1      5 -0.13703700    11.132200    26.754900     1.204600
     199      1      1  0.14437300    11.271500    23.660400     2.612500
     200      1      1  0.15068600    10.028000    24.817700     4.371400
     201      1      1  0.16775000    10.731400    30.743400     5.883400
     202      1      1  0.15710000    10.195600    33.272500     5.883200
     203      1      1  0.16749200    11.233500    35.328600     6.734200
     204      1      1  0.16105000    13.091400    34.036600    13.144200
     205      1      1  0.14763500    13.212800    34.286400    15.603500
     206      1      1  0.14263400    11.544200    35.656700    16.804200
     207      1      1  0.14544800     9.718900    36.774300    15.543100
     208      1      1  0.14294600     9.561600    36.519400    13.092400
     209      1      1  0.16886600     9.624900    31.938600     9.943800
     210      1      1  0.15793700     7.502800    31.259100     8.690300
     211      1      1  0.16848500     6.469300    29.206200     7.843300
     212      1      1  0.15212400     6.964300    25.018900     6.456500
     213      1      1  0.14644000     5.695500    23.037300     5.712400
     214      1      1  0.14314200     5.196300    22.705300     3.304000
     215      1      1  0.14703800     5.962100    24.380000     1.641700
     216      1      1  0.14751000     7.218000    26.365200     2.363700
     217      1      1  0.15692300    10.188100    28.472300     2.086900
     218      1      1  0.15031300    11.442000    27.310400     0.322000
     219      1      4 -0.14792700    12.494800    37.324500    11.026400
     220      1      5  0.45219700    13.902300    37.026400    11.473700
     221      1     10 -0.46182600    14.475300    35.949500    11.396800
     222      1      9 -0.35959900    14.445500    38.165500    11.991600
     223      1      4  0.00129500    15.753900    38.030500    12.565300
     224      1      4 -0.21175200    15.670300    37.468200    13.984200
     225      1      2  0.15553400    11.946700    37.813100    11.838900
     226      1      2  0.15553400    12.561200    38.038500    10.199200
     227      1      2  0.10738100    16.398400    37.412900    11.929000
     228      1      2  0.10738100    16.195400    39.029700    12.588700
     229      1      2  0.10089100    16.678500    37.436300    14.413400
     230      1      2  0.10089100    15.295800    36.439000    13.939300
     231      1      4 -0.13392800    14.736700    38.306400    14.868200
     232      1      5 -0.07812700    14.576300    37.895100    16.318900
     233      1      5 -0.07479800    13.803300    38.675200    17.199100
     234      1      4 -0.13747800    13.053200    39.918300    16.765900
     235      1      5 -0.13829000    13.665200    38.266100    18.536400
     236      1      5 -0.07800500    14.256400    37.092700    19.036100
     237      1      4 -0.12904000    14.058400    36.793200    20.507700
     238      1      5 -0.07147400    14.985500    36.280900    18.149800
     239      1      4 -0.09816100    15.554900    34.919900    18.513400
     240      1      5 -0.14585800    15.146700    36.709900    16.814100
     241      1      2  0.09591300    13.738400    38.301500    14.416700
     242      1      2  0.09591300    15.107300    39.336200    14.847900
     243      1      2  0.10855400    12.958600    40.598100    17.621700
     244      1      2  0.10855400    13.628400    40.483300    16.024000
     245      1      1  0.13671600    13.074900    38.881500    19.213800
     246      1      2  0.10311500    14.266600    37.716300    21.063200
     247      1      2  0.10311500    14.805900    36.086800    20.866000
     248      1      2  0.10116300    15.940400    34.417200    17.616300
     249      1      2  0.10116300    14.714600    34.298300    18.845800
     250      1      1  0.13095300    15.715900    36.068900    16.143900
     251      1      4 -0.18144700    11.665900    39.573900    16.231500
     252      1      5  0.44428600    10.902000    40.814500    15.850000
     253      1     10 -0.44509300    11.198400    41.956400    16.169700
     254      1      9 -0.36379600     9.809600    40.463800    15.112900
     255      1      4  0.00338500     8.984900    41.568400    14.717000
     256      1      4 -0.20598700     7.888700    41.056100    13.792300
     257      1      2  0.13118600    11.082000    39.035800    16.987100
     258      1      2  0.13118600    11.753500    38.940000    15.343400
     259      1      2  0.11849400     8.533500    42.013000    15.611000
     260      1      2  0.11849400     9.591200    42.317900    14.200800
     261      1      2  0.12464600     7.351700    40.233600    14.281100
     262      1      2  0.12464600     7.164900    41.859000    13.607900
     263      1      4 -0.18144700    12.655800    36.317000    20.871300
     264      1      5  0.44428600    12.439600    34.885200    20.459100
     265      1     10 -0.44509300    11.858100    34.598600    19.415800
     266      1      9 -0.36379600    12.951300    33.910000    21.249200
     267      1      4  0.00338500    13.357500    34.148100    22.610300
     268      1      4 -0.20598700    13.915600    32.850000    23.182800
     269      1      2  0.13118600    12.469200    36.428000    21.943200
     270      1      2  0.13118600    11.884700    36.926900    20.384900
     271      1      2  0.11849400    12.489600    34.479900    23.188000
     272      1      2  0.11849400    14.139400    34.910000    22.643600
     273      1      2  0.12464600    14.760600    32.524300    22.566100
     274      1      2  0.12464600    14.305600    33.029000    24.191300
     275      1      5 -0.06012400    16.662700    34.890900    19.540400
     276      1      5 -0.13211900    17.720100    35.807100    19.526400
     277      1      5 -0.10048400    18.713300    35.754400    20.509800
     278      1      5 -0.04829600    18.668400    34.792800    21.532600
     279      1      5  0.08049700    19.669100    34.787200    22.607200
     280      1      8 -0.23293000    20.935600    34.516200    22.185200
     281      1      6  0.01741800    21.890000    34.411900    23.125700
     282      1      5 -0.08695700    23.194500    34.114900    22.746600
     283      1      5 -0.02737100    24.234900    33.979300    23.680600
     284      1      5 -0.02500900    25.606200    33.663800    23.250500
     285      1      5 -0.10762900    26.245800    34.414300    22.258200
     286      1      5 -0.10307400    27.548200    34.101800    21.858900
     287      1      6  0.02042200    28.242400    33.044800    22.427600
     288      1      8 -0.23116900    29.494300    32.777100    22.019300
     289      1      5  0.07532800    30.141600    31.730500    22.607400
     290      1      5  0.08060800    29.507100    30.945200    23.583100
     291      1      5 -0.04644900    30.087900    29.751600    24.225300
     292      1      5 -0.09254900    30.630900    28.693300    23.475300
     293      1      5 -0.14554700    31.184200    27.573400    24.102500
     294      1      5 -0.11926900    31.192700    27.484600    25.491900
     295      1      5 -0.14054700    30.642600    28.510500    26.255100
     296      1      5 -0.10081300    30.091800    29.630300    25.626600
     297      1      8 -0.22983500    28.242900    31.236400    24.004700
     298      1      6  0.01810500    27.615000    32.275500    23.428200
     299      1      5 -0.08737900    26.319400    32.596200    23.819900
     300      1      5 -0.10813600    23.919600    34.153800    25.032500
     301      1      5 -0.10256400    22.612400    34.455600    25.424400
     302      1      6  0.02171500    21.593600    34.588300    24.493400
     303      1      8 -0.23325800    20.350300    34.880900    24.910000
     304      1      5  0.08078100    19.374900    34.992300    23.964900
     305      1      5 -0.04329000    18.044500    35.341300    24.505100
     306      1      5 -0.09219400    17.250600    36.361100    23.949100
     307      1      5 -0.14516400    15.993200    36.672500    24.475700
     308      1      5 -0.12002000    15.510700    35.984100    25.584500
     309      1      5 -0.14234200    16.286200    34.985000    26.165500
     310      1      5 -0.10066000    17.538100    34.669200    25.631200
     311      1      5 -0.09218200    17.638200    33.841900    21.505200
     312      1      5 -0.14651400    16.655900    33.884300    20.515700
     313      1      1  0.15246700    17.772500    36.575400    18.758400
     314      1      1  0.14829000    19.522700    36.481700    20.487400
     315      1      1  0.16656100    23.393600    33.970500    21.685800
     316      1      1  0.15734100    25.742400    35.259000    21.791000
     317      1      1  0.16706200    28.032600    34.698200    21.089200
     318      1      1  0.15165900    30.625400    28.728000    22.387400
     319      1      1  0.14551100    31.604600    26.769700    23.503200
     320      1      1  0.14239400    31.620400    26.612200    25.978900
     321      1      1  0.14803200    30.636500    28.439900    27.339600
     322      1      1  0.14843200    29.657400    30.419500    26.238300
     323      1      1  0.16751500    25.853400    31.977000    24.584600
     324      1      1  0.15708100    24.690200    34.069800    25.796900
     325      1      1  0.16740500    22.383900    34.593200    26.478800
     326      1      1  0.15184400    17.607200    36.939700    23.099700
     327      1      1  0.14547500    15.399600    37.460600    24.020600
     328      1      1  0.14168400    14.539900    36.237400    26.001600
     329      1      1  0.14544500    15.932900    34.447100    27.041400
     330      1      1  0.14746800    18.128800    33.888200    26.109200
     331      1      1  0.15216200    17.588900    33.060500    22.261700
     332      1      1  0.14517200    15.869900    33.131500    20.519600
     333      1      4 -0.18571800     8.461900    40.565800    12.459500
     334      1      5  0.45170900     7.383300    40.000000    11.563600
     335      1     10 -0.45381900     6.191800    40.019200    11.856200
     336      1      9 -0.35330600     7.794600    39.432600    10.400300
     337      1      4 -0.00116400     9.145600    39.552900     9.919000
     338      1      4 -0.20593800     9.155900    39.145000     8.444900
     339      1      2  0.13336800     9.200400    39.779800    12.648100
     340      1      2  0.13336800     8.938900    41.410800    11.954000
     341      1      2  0.11928900     9.784400    38.881100    10.501100
     342      1      2  0.11928900     9.490600    40.583200    10.031800
     343      1      2  0.12146100     8.762100    38.125000     8.355600
     344      1      2  0.12146100     8.461200    39.781900     7.884300
     345      1      4 -0.18933000    12.870800    31.735700    23.224300
     346      1      5  0.43626600    13.487900    30.414400    23.613700
     347      1     10 -0.45799000    14.687700    30.183100    23.671300
     348      1      9 -0.34905100    12.499200    29.511400    23.864400
     349      1      4  0.00914300    12.974100    28.194200    24.180500
     350      1      4 -0.17421600    11.786000    27.269600    24.432900
     351      1      2  0.12757900    12.094500    31.993100    23.953100
     352      1      2  0.12757900    12.405100    31.601200    22.242200
     353      1      2  0.11908200    13.602700    27.817700    23.364800
     354      1      2  0.11908200    13.567800    28.254200    25.096100
     355      1      2  0.11592800    11.051000    27.760000    25.083300
     356      1      2  0.11592800    12.129200    26.374300    24.966200
     357      1      5 -0.02865000    31.526100    31.549000    22.133400
     358      1      5 -0.11083500    31.802500    31.485900    20.758500
     359      1      5 -0.11080000    33.109500    31.313700    20.287900
     360      1      5 -0.02949800    34.194800    31.215900    21.172900
     361      1      5  0.07077800    35.564200    31.036900    20.655900
     362      1      8 -0.22747800    35.682700    30.013000    19.762200
     363      1      6  0.01321100    36.907600    29.744800    19.277700
     364      1      5 -0.08552800    37.072000    28.705900    18.367400
     365      1      5 -0.03017400    38.324700    28.373100    17.825800
     366      1      5 -0.02861200    38.469500    27.273600    16.857500
     367      1      5 -0.10903200    37.647200    27.187600    15.728700
     368      1      5 -0.10514100    37.801000    26.142100    14.813600
     369      1      6  0.02498900    38.766700    25.163300    14.993200
     370      1      8 -0.30962900    38.889000    24.174400    14.089500
     371      1      5  0.11139900    39.862400    23.245600    14.307100
     372      1      5  0.07255400    40.683900    23.305400    15.436300
     373      1      5 -0.05100500    41.719600    22.321300    15.764700
     374      1      5 -0.11082600    43.078800    22.638400    15.616800
     375      1      5 -0.13625500    44.071300    21.714800    15.953800
     376      1      5 -0.11802500    43.717900    20.460900    16.447900
     377      1      5 -0.14410600    42.374000    20.130000    16.606100
     378      1      5 -0.09151400    41.382500    21.055000    16.270300
     379      1      8 -0.21947400    40.552800    24.303500    16.348700
     380      1      6  0.01445800    39.604300    25.230200    16.126000
     381      1      5 -0.08533800    39.441700    26.274500    17.030400
     382      1      5 -0.10961000    39.428500    29.127800    18.237700
     383      1      5 -0.10513400    39.274500    30.174000    19.151800
     384      1      6  0.02155700    38.031900    30.495400    19.676700
     385      1      8 -0.23488600    37.921900    31.514000    20.546200
     386      1      5  0.08220500    36.679900    31.803200    21.029300
     387      1      5 -0.04830200    36.648300    32.974200    21.925200
     388      1      5 -0.09398500    35.759100    34.044200    21.720700
     389      1      5 -0.14710700    35.740100    35.142700    22.584900
     390      1      5 -0.12069100    36.619600    35.198200    23.662900
     391      1      5 -0.14240500    37.522900    34.160300    23.874100
     392      1      5 -0.10204700    37.539000    33.061900    23.010500
     393      1      5 -0.10486000    33.918700    31.275900    22.547600
     394      1      5 -0.10509800    32.611000    31.452900    23.018500
     395      1      1  0.15136100    30.989800    31.569800    20.038200
     396      1      1  0.15100500    33.279700    31.257800    19.213700
     397      1      1  0.16769100    36.188900    28.134800    18.086100
     398      1      1  0.15345500    36.885300    27.941700    15.538900
     399      1      1  0.16489800    37.157200    26.094500    13.938800
     400      1      1  0.13945300    43.367500    23.618000    15.238300
     401      1      1  0.14558000    45.119000    21.978900    15.834300
     402      1      1  0.14204200    44.490600    19.744100    16.714300
     403      1      1  0.14439500    42.095300    19.155400    16.998800
     404      1      1  0.14986600    40.339100    20.786800    16.422200
     405      1      1  0.16819300    40.094400    26.294500    17.901600
     406      1      1  0.15326700    40.421300    28.920400    17.841600
     407      1      1  0.16576400    40.142300    30.754600    19.456000
     408      1      1  0.14969800    35.070200    34.036000    20.877900
     409      1      1  0.14391400    35.040100    35.956200    22.411100
     410      1      1  0.14073500    36.607100    36.054300    24.332300
     411      1      1  0.14584600    38.219800    34.205100    24.706900
     412      1      1  0.14682900    38.258900    32.263500    23.184200
     413      1      1  0.15542200    34.722200    31.184900    23.276700
     414      1      1  0.15548000    32.453800    31.515300    24.094000
     415      1      4 -0.18933000    10.551200    39.200500     7.821700
     416      1      5  0.43626600    11.091900    40.610300     7.724700
     417      1     10 -0.45799000    10.393200    41.602000     7.907700
     418      1      9 -0.34905100    12.403200    40.751100     7.420200
     419      1      4  0.00914300    13.272000    39.631500     7.150000
     420      1      4 -0.17421600    14.671500    40.162200     6.825300
     421      1      2  0.12757900    11.217300    38.590400     8.431600
     422      1      2  0.12757900    10.506400    38.785100     6.809500
     423      1      2  0.11908200    12.878900    39.098500     6.277800
     424      1      2  0.11908200    13.307300    38.961000     8.014100
     425      1      2  0.11592800    14.609200    41.042500     6.173800
     426      1      2  0.11592800    15.214100    39.389300     6.267500
     427      1      5 -0.07401800    11.107300    26.839900    23.154200
     428      1      5 -0.13828100    10.080100    27.606700    22.596400
     429      1      5 -0.10024800     9.453700    27.198300    21.414200
     430      1      5 -0.03732600     9.830300    26.013400    20.757700
     431      1      5  0.07247700     9.126500    25.583700    19.534300
     432      1      8 -0.23069900     9.020500    26.556300    18.582900
     433      1      6  0.01607100     8.395900    26.243500    17.433200
     434      1      5 -0.08775200     8.252300    27.209200    16.440000
     435      1      5 -0.02489900     7.582500    26.957300    15.228600
     436      1      5 -0.02779700     7.400800    28.012900    14.210000
     437      1      5 -0.10847100     7.519000    27.744300    12.840300
     438      1      5 -0.10253600     7.303700    28.748600    11.889600
     439      1      6  0.02049900     6.977300    30.041900    12.267900
     440      1      8 -0.23135800     6.764000    30.979900    11.327400
     441      1      5  0.07637000     6.473600    32.241200    11.759100
     442      1      5  0.08137000     6.380300    32.544200    13.128000
     443      1      5 -0.04739800     6.069700    33.873400    13.691800
     444      1      5 -0.09266300     6.873800    34.411900    14.713700
     445      1      5 -0.14569800     6.614000    35.674300    15.254200
     446      1      5 -0.11904900     5.545300    36.428100    14.779300
     447      1      5 -0.14065200     4.724700    35.910900    13.781100
     448      1      5 -0.10084300     4.976700    34.641000    13.252500
     449      1      8 -0.23027700     6.583300    31.579600    14.068500
     450      1      6  0.01763100     6.878100    30.340800    13.642000
     451      1      5 -0.08641500     7.081500    29.331500    14.576900
     452      1      5 -0.10634500     7.070500    25.667700    15.039700
     453      1      5 -0.10314000     7.223000    24.684600    16.022000
     454      1      6  0.02214600     7.871800    24.953800    17.216400
     455      1      8 -0.22945000     7.972300    23.988500    18.144800
     456      1      5  0.08062200     8.585400    24.305500    19.321000
     457      1      5 -0.04602900     8.572300    23.210400    20.307200
     458      1      5 -0.09269000     9.077700    21.943000    19.967200
     459      1      5 -0.14508000     9.076300    20.892800    20.888600
     460      1      5 -0.11934300     8.558900    21.088600    22.166100
     461      1      5 -0.14192900     8.037000    22.330100    22.520000
     462      1      5 -0.10207900     8.038600    23.379600    21.596900
     463      1      5 -0.09094500    10.890500    25.274900    21.307300
     464      1      5 -0.13758400    11.516200    25.677700    22.491800
     465      1      1  0.14401100     9.759800    28.529300    23.074900
     466      1      1  0.15039300     8.656200    27.813700    21.000100
     467      1      1  0.16670300     8.683000    28.190800    16.632600
     468      1      1  0.15646800     7.786800    26.749100    12.490200
     469      1      1  0.16717800     7.396100    28.514500    10.831600
     470      1      1  0.15125800     7.719800    33.839500    15.094000
     471      1      1  0.14551300     7.247500    36.063200    16.046100
     472      1      1  0.14246500     5.345700    37.414800    15.188600
     473      1      1  0.14807000     3.886500    36.495800    13.409800
     474      1      1  0.14823900     4.305500    34.261100    12.485300
     475      1      1  0.16725300     6.966500    29.595200    15.627200
     476      1      1  0.15811900     6.523900    25.412300    14.133900
     477      1      1  0.16820900     6.810600    23.691800    15.858400
     478      1      1  0.15181400     9.480000    21.772100    18.970000
     479      1      1  0.14610900     9.478700    19.923800    20.605500
     480      1      1  0.14276000     8.558300    20.272700    22.883900
     481      1      1  0.14654300     7.626300    22.484400    23.514300
     482      1      1  0.14689500     7.614700    24.336500    21.895500
     483      1      1  0.15610500    11.247400    24.367700    20.821200
     484      1      1  0.14970300    12.325600    25.067300    22.887800
     485      1      4 -0.15103700    40.001600    22.187900    13.249300
     486      1      5  0.44466800    41.141700    22.452900    12.298400
     487      1     10 -0.45799300    42.024700    23.287700    12.434100
     488      1      9 -0.37249700    41.057400    21.576700    11.255900
     489      1      4  0.00267000    42.121300    21.623900    10.288500
     490      1      4 -0.18579500    43.407000    20.969200    10.805400
     491      1      2  0.14704000    40.132700    21.199900    13.700700
     492      1      2  0.14704000    39.074500    22.158400    12.663300
     493      1      2  0.10480700    41.757600    21.091600     9.402400
     494      1      2  0.10480700    42.305700    22.659900     9.980200
     495      1      2  0.10814500    44.153700    20.935500    10.002800
     496      1      2  0.10814500    43.845100    21.583400    11.601100
     497      1      5 -0.07401800    15.473200    40.534700     8.054500
     498      1      5 -0.13828100    16.625600    39.814900     8.390200
     499      1      5 -0.10024800    17.388700    40.171300     9.507300
     500      1      5 -0.03732600    17.024600    41.257700    10.319700
     501      1      5  0.07247700    17.827700    41.640600    11.493200
     502      1      8 -0.23069900    17.146300    41.573400    12.671800
     503      1      6  0.01607100    17.840500    41.786300    13.803400
     504      1      5 -0.08775200    17.199000    41.664400    15.029500
     505      1      5 -0.02489900    17.882300    41.794000    16.249200
     506      1      5 -0.02779700    17.190300    41.538100    17.518700
     507      1      5 -0.10847100    17.606300    40.499400    18.358600
     508      1      5 -0.10253600    16.881700    40.187100    19.510100
     509      1      6  0.02049900    15.735600    40.889300    19.847500
     510      1      8 -0.23135800    15.014600    40.500200    20.910700
     511      1      5  0.07637000    13.840800    41.150300    21.154100
     512      1      5  0.08137000    13.459100    42.262100    20.389800
     513      1      5 -0.04739800    12.244700    43.069700    20.612300
     514      1      5 -0.09266300    11.882400    43.536700    21.888700
     515      1      5 -0.14569800    10.715100    44.281900    22.081300
     516      1      5 -0.11904900     9.894200    44.586100    20.998700
     517      1      5 -0.14065200    10.243100    44.154100    19.722600
     518      1      5 -0.10084300    11.408900    43.408300    19.532500
     519      1      8 -0.23027700    14.211600    42.665900    19.325900
     520      1      6  0.01763100    15.322600    41.964700    19.036300
     521      1      5 -0.08641500    16.055000    42.272500    17.894500
     522      1      5 -0.10634500    19.242500    42.108600    16.204800
     523      1      5 -0.10314000    19.891500    42.263100    14.976000
     524      1      6  0.02214600    19.216500    42.090900    13.775200
     525      1      8 -0.22945000    19.884200    42.197300    12.613400
     526      1      5  0.08062200    19.189600    41.979100    11.459900
     527      1      5 -0.04602900    19.997500    42.125300    10.234100
     528      1      5 -0.09269000    21.245000    41.484000    10.125000
     529      1      5 -0.14508000    22.024700    41.604800     8.971600
     530      1      5 -0.11934300    21.574600    42.378300     7.905700
     531      1      5 -0.14192900    20.351300    43.036800     7.996000
     532      1      5 -0.10207900    19.573500    42.916000     9.151400
     533      1      5 -0.09094500    15.854100    41.958100     9.990700
     534      1      5 -0.13758400    15.095300    41.610700     8.867000
     535      1      1  0.14401100    16.949900    38.972800     7.782100
     536      1      1  0.15039300    18.278800    39.588000     9.737200
     537      1      1  0.16670300    16.138700    41.420700    15.028200
     538      1      1  0.15646800    18.471900    39.891800    18.101300
     539      1      1  0.16717800    17.190500    39.349100    20.130100
     540      1      1  0.15125800    12.511700    43.328700    22.751800
     541      1      1  0.14551300    10.450900    44.628100    23.077200
     542      1      1  0.14246500     8.988100    45.167500    21.147400
     543      1      1  0.14807000     9.614400    44.397600    18.870000
     544      1      1  0.14823900    11.667900    43.087700    18.523600
     545      1      1  0.16725300    15.704200    43.091000    17.268000
     546      1      1  0.15811900    19.812600    42.230100    17.124000
     547      1      1  0.16820900    20.952100    42.502900    14.954600
     548      1      1  0.15181400    21.617800    40.882800    10.953100
     549      1      1  0.14610900    22.984700    41.099000     8.910800
     550      1      1  0.14276000    22.180800    42.475800     7.008900
     551      1      1  0.14654300    20.001700    43.650700     7.169800
     552      1      1  0.14689500    18.630300    43.457000     9.198300
     553      1      1  0.15610500    15.530900    42.793500    10.609800
     554      1      1  0.14970300    14.208300    42.196200     8.631300
     555      1      5 -0.06018200     6.292100    33.214500    10.671600
     556      1      5 -0.14148500     7.074300    34.372100    10.592100
     557      1      5 -0.09616500     6.851300    35.317900     9.588800
     558      1      5 -0.04845800     5.846400    35.143400     8.618700
     559      1      5  0.08215200     5.584600    36.220000     7.644300
     560      1      8 -0.23092700     5.554900    37.448000     8.227700
     561      1      6  0.01931600     5.329100    38.515300     7.453100
     562      1      5 -0.08564900     5.330300    39.770700     8.038100
     563      1      5 -0.02381200     5.183400    40.950300     7.292900
     564      1      5 -0.02909800     5.303200    42.259600     7.956800
     565      1      5 -0.10329600     4.384800    43.291500     7.752300
     566      1      5 -0.10497100     4.515800    44.502300     8.443800
     567      1      6  0.03297200     5.546500    44.713600     9.352200
     568      1      8 -0.32372900     5.636500    45.882700    10.011400
     569      1      5  0.11513900     6.666700    46.034500    10.894400
     570      1      5  0.05813600     7.581900    44.994700    11.127300
     571      1      5 -0.03742600     8.684600    45.021600    12.107000
     572      1      5 -0.10873000     8.482900    45.389100    13.449200
     573      1      5 -0.13869900     9.543100    45.405400    14.360400
     574      1      5 -0.12014200    10.822500    45.038500    13.950500
     575      1      5 -0.13891300    11.043500    44.652500    12.631300
     576      1      5 -0.09286900     9.983600    44.640700    11.720900
     577      1      8 -0.21404100     7.492800    43.819700    10.444400
     578      1      6  0.00845900     6.484400    43.685600     9.565000
     579      1      5 -0.08125400     6.355900    42.499800     8.858000
     580      1      5 -0.10658100     4.962700    40.816700     5.919100
     581      1      5 -0.10123000     4.924900    39.546700     5.324900
     582      1      6  0.02315900     5.120000    38.388700     6.070000
     583      1      8 -0.23218400     5.128700    37.177300     5.478600
     584      1      5  0.08216000     5.375800    36.084400     6.265000
     585      1      5 -0.04144100     5.424400    34.816000     5.517700
     586      1      5 -0.09084700     4.356700    34.446900     4.679500
     587      1      5 -0.14384000     4.377300    33.245400     3.966700
     588      1      5 -0.11849600     5.474300    32.395200     4.069300
     589      1      5 -0.14049500     6.552000    32.750000     4.875900
     590      1      5 -0.09868100     6.528600    33.950000     5.592100
     591      1      5 -0.08715900     5.083600    33.968900     8.683200
     592      1      5 -0.14454600     5.310000    33.016900     9.686900
     593      1      1  0.14721000     7.854900    34.561700    11.327300
     594      1      1  0.14885700     7.452700    36.226300     9.588100
     595      1      1  0.16848300     5.471800    39.821200     9.117400
     596      1      1  0.15826700     3.544200    43.160600     7.074000
     597      1      1  0.16808300     3.788900    45.294600     8.280800
     598      1      1  0.14510200     7.491300    45.664900    13.803400
     599      1      1  0.14705200     9.368200    45.697600    15.392900
     600      1      1  0.14437200    11.642900    45.038500    14.664500
     601      1      1  0.14777900    12.038600    44.355400    12.310600
     602      1      1  0.15200200    10.172000    44.328200    10.693800
     603      1      1  0.16848000     7.108200    41.732900     9.026400
     604      1      1  0.15793600     4.845400    41.695900     5.288900
     605      1      1  0.16858000     4.765400    39.460100     4.252800
     606      1      1  0.15340400     3.495300    35.105700     4.580500
     607      1      1  0.14693300     3.538100    32.978200     3.329700
     608      1      1  0.14326000     5.492800    31.459300     3.516700
     609      1      1  0.14735300     7.412500    32.091300     4.945900
     610      1      1  0.14950400     7.385800    34.205800     6.211000
     611      1      1  0.15399800     4.278400    33.789900     7.973400
     612      1      1  0.14719800     4.691300    32.120900     9.713800
     613      1      5 -0.07359900    43.173300    19.571800    11.328200
     614      1      5 -0.13796200    42.921400    18.506300    10.459000
     615      1      5 -0.09991200    42.634700    17.234800    10.966100
     616      1      5 -0.03696400    42.582800    16.996800    12.350200
     617      1      5  0.07276800    42.228300    15.664900    12.869200
     618      1      8 -0.22927600    42.987200    14.653000    12.360600
     619      1      6  0.01632200    42.761900    13.411800    12.824600
     620      1      5 -0.08638500    43.519800    12.351600    12.338700
     621      1      5 -0.02486300    43.337100    11.031600    12.783000
     622      1      5 -0.02731300    44.150600     9.927200    12.247700
     623      1      5 -0.10629200    44.310500     9.744700    10.869600
     624      1      5 -0.10230100    45.083400     8.690000    10.375400
     625      1      6  0.02529700    45.712100     7.795800    11.228300
     626      1      8 -0.30023800    46.446000     6.791100    10.716000
     627      1      5  0.10811000    47.026900     5.931500    11.597500
     628      1      5  0.07022700    46.896600     6.109400    12.980300
     629      1      5 -0.05138000    47.528600     5.247900    13.985800
     630      1      5 -0.08957000    46.755200     4.353700    14.743800
     631      1      5 -0.14051500    47.350500     3.505300    15.680200
     632      1      5 -0.12140300    48.728200     3.546900    15.880200
     633      1      5 -0.14036700    49.510100     4.439000    15.149600
     634      1      5 -0.11103900    48.914200     5.286300    14.211900
     635      1      8 -0.20083300    46.156800     7.125800    13.492900
     636      1      6  0.01136700    45.564500     7.962300    12.621900
     637      1      5 -0.08397600    44.793900     9.016200    13.101900
     638      1      5 -0.10598700    42.352400    10.806100    13.751100
     639      1      5 -0.10277800    41.585500    11.864500    14.247000
     640      1      6  0.02273300    41.773700    13.163100    13.799000
     641      1      8 -0.22940900    41.011600    14.153400    14.294400
     642      1      5  0.08127600    41.223300    15.413100    13.817800
     643      1      5 -0.04546800    40.298800    16.423200    14.370200
     644      1      5 -0.09233300    40.108800    16.528900    15.759900
     645      1      5 -0.14471500    39.233100    17.473300    16.302800
     646      1      5 -0.11894300    38.522300    18.327300    15.463900
     647      1      5 -0.14144900    38.682300    18.233300    14.084300
     648      1      5 -0.10145400    39.557600    17.286700    13.543200
     649      1      5 -0.09023100    42.881500    18.065100    13.209800
     650      1      5 -0.13703700    43.165800    19.336100    12.706800
     651      1      1  0.14437300    42.934600    18.656300     9.382000
     652      1      1  0.15068600    42.436900    16.420200    10.271000
     653      1      1  0.16775000    44.285700    12.575100    11.597800
     654      1      1  0.15710000    43.824400    10.413600    10.161500
     655      1      1  0.16749200    45.192500     8.560600     9.301400
     656      1      1  0.16105000    45.676800     4.311200    14.595900
     657      1      1  0.14763500    46.735400     2.816500    16.254000
     658      1      1  0.14263400    49.190900     2.892900    16.614900
     659      1      1  0.14544800    50.583600     4.482600    15.315900
     660      1      1  0.14294600    49.539400     5.988000    13.663100
     661      1      1  0.16886600    44.708300     9.128500    14.181500
     662      1      1  0.15793700    42.160000     9.801000    14.122900
     663      1      1  0.16848500    40.820700    11.669800    14.995300
     664      1      1  0.15212400    40.645500    15.858600    16.430000
     665      1      1  0.14644000    39.100000    17.531800    17.380100
     666      1      1  0.14314200    37.833500    19.055300    15.884700
     667      1      1  0.14703800    38.117700    18.887100    13.424500
     668      1      1  0.14751000    39.646600    17.223100    12.460200
     669      1      1  0.15692300    42.886600    17.921400    14.288400
     670      1      1  0.15031300    43.369200    20.145900    13.403700
     671      1      5 -0.02865000    13.015200    40.468500    22.170000
     672      1      5 -0.11083500    11.678800    40.109400    21.922400
     673      1      5 -0.11080000    10.947400    39.345900    22.841500
     674      1      5 -0.02949800    11.530900    38.908000    24.037900
     675      1      5  0.07077800    10.822400    38.018900    24.970000
     676      1      8 -0.22747800    11.465800    36.833800    25.163300
     677      1      6  0.01321100    10.887400    35.944000    25.983300
     678      1      5 -0.08552800    11.526400    34.733400    26.203200
     679      1      5 -0.03017400    11.027300    33.747900    27.073700
     680      1      5 -0.02861200    11.780400    32.492400    27.297000
     681      1      5 -0.10903200    11.156900    31.264000    27.542100
     682      1      5 -0.10514100    11.913600    30.094200    27.710800
     683      1      6  0.02498900    13.299800    30.103900    27.616000
     684      1      8 -0.30962900    14.010300    28.965100    27.741700
     685      1      5  0.11139900    15.362400    29.045800    27.558300
     686      1      5  0.07255400    15.985200    30.267500    27.281900
     687      1      5 -0.05100500    17.414000    30.442000    27.006700
     688      1      5 -0.11082600    18.380700    30.325000    28.016600
     689      1      5 -0.13625500    19.736000    30.509800    27.730300
     690      1      5 -0.11802500    20.141900    30.821600    26.433700
     691      1      5 -0.14410600    19.195600    30.951000    25.420700
     692      1      5 -0.09151400    17.841900    30.765000    25.706600
     693      1      8 -0.21947400    15.268900    31.416700    27.207000
     694      1      6  0.01445800    13.940700    31.329200    27.361800
     695      1      5 -0.08533800    13.184700    32.484100    27.239300
     696      1      5 -0.10961000     9.812200    34.029900    27.707300
     697      1      5 -0.10513400     9.143800    35.241900    27.474500
     698      1      6  0.02155700     9.664000    36.209200    26.623300
     699      1      8 -0.23488600     9.016800    37.374000    26.424500
     700      1      5  0.08220500     9.601600    38.294600    25.602000
     701      1      5 -0.04830200     8.847600    39.553300    25.464200
     702      1      5 -0.09398500     7.484000    39.528400    25.121600
     703      1      5 -0.14710700     6.753900    40.710000    24.969500
     704      1      5 -0.12069100     7.373000    41.941000    25.167100
     705      1      5 -0.14240500     8.717300    41.991000    25.525500
     706      1      5 -0.10204700     9.445800    40.807900    25.678500
     707      1      5 -0.10486000    12.859400    39.280900    24.295900
     708      1      5 -0.10509800    13.586700    40.047400    23.380400
     709      1      1  0.15136100    11.195200    40.387100    20.986800
     710      1      1  0.15100500     9.924700    39.067400    22.591900
     711      1      1  0.16769100    12.456400    34.568100    25.664600
     712      1      1  0.15345500    10.072400    31.186100    27.586400
     713      1      1  0.16489800    11.406500    29.150000    27.896700
     714      1      1  0.13945300    18.083800    30.104300    29.039700
     715      1      1  0.14558000    20.475500    30.418000    28.521800
     716      1      1  0.14204200    21.195700    30.971800    26.213700
     717      1      1  0.14439500    19.508500    31.205500    24.411300
     718      1      1  0.14986600    17.108000    30.879200    24.908600
     719      1      1  0.16819300    13.733000    33.409200    27.079800
     720      1      1  0.15326700     9.369700    33.324300    28.407700
     721      1      1  0.16576400     8.201900    35.441000    27.981200
     722      1      1  0.14969800     6.981100    38.574200    24.970700
     723      1      1  0.14391400     5.701400    40.666000    24.701300
     724      1      1  0.14073500     6.805000    42.860500    25.050800
     725      1      1  0.14584600     9.199800    42.950500    25.692500
     726      1      1  0.14682900    10.490200    40.878100    25.976100
     727      1      1  0.15542200    13.349600    38.945300    25.208900
     728      1      1  0.15548000    14.627600    40.283900    23.599100
     729      1      5 -0.02865000     6.708800    47.362900    11.532200
     730      1      5 -0.11083500     7.869300    48.151500    11.536600
     731      1      5 -0.11080000     7.888700    49.404800    12.161400
     732      1      5 -0.02949800     6.744300    49.927700    12.784900
     733      1      5  0.07077800     6.789600    51.247000    13.440900
     734      1      8 -0.22747800     7.809700    51.376500    14.337200
     735      1      6  0.01321100     7.893100    52.526800    15.027200
     736      1      5 -0.08552800     8.913200    52.694300    15.958000
     737      1      5 -0.03017400     9.050800    53.866700    16.719600
     738      1      5 -0.02861200    10.136700    54.015200    17.703600
     739      1      5 -0.10903200    10.406000    53.015700    18.645400
     740      1      5 -0.10514100    11.437400    53.172000    19.576100
     741      1      6  0.02498900    12.221300    54.315400    19.598300
     742      1      8 -0.30962900    13.206000    54.430300    20.508600
     743      1      5  0.11139900    13.927200    55.584100    20.498900
     744      1      5  0.07255400    13.675700    56.593900    19.563400
     745      1      5 -0.05100500    14.461800    57.826600    19.460900
     746      1      5 -0.11082600    15.533600    57.915600    18.557200
     747      1      5 -0.13625500    16.301100    59.079500    18.468800
     748      1      5 -0.11802500    16.003400    60.173000    19.279400
     749      1      5 -0.14410600    14.934700    60.106900    20.171000
     750      1      5 -0.09151400    14.165700    58.943800    20.256600
     751      1      8 -0.21947400    12.699400    56.464000    18.630900
     752      1      6  0.01445800    11.966600    55.336000    18.656500
     753      1      5 -0.08533800    10.939700    55.167600    17.733600
     754      1      5 -0.10961000     8.115100    54.886000    16.509900
     755      1      5 -0.10513400     7.087600    54.729100    15.575100
     756      1      6  0.02155700     6.961600    53.566000    14.830900
     757      1      8 -0.23488600     5.961800    53.452000    13.940100
     758      1      5  0.08220500     5.879200    52.293700    13.224900
     759      1      5 -0.04830200     4.786100    52.281600    12.234800
     760      1      5 -0.09398500     5.006500    51.951100    10.885900
     761      1      5 -0.14710700     3.955300    51.937100     9.964600
     762      1      5 -0.12069100     2.665400    52.266900    10.372000
     763      1      5 -0.14240500     2.426100    52.617500    11.697700
     764      1      5 -0.10204700     3.477700    52.628600    12.617800
     765      1      5 -0.10486000     5.582500    49.141000    12.776400
     766      1      5 -0.10509800     5.563300    47.887700    12.152300
     767      1      1  0.15136100     8.779300    47.798900    11.054300
     768      1      1  0.15100500     8.814200    49.979300    12.160200
     769      1      1  0.16769100     9.625200    51.879600    16.079200
     770      1      1  0.15345500     9.807500    52.106800    18.676400
     771      1      1  0.16489800    11.628500    52.386300    20.303100
     772      1      1  0.13945300    15.764100    57.075700    17.903800
     773      1      1  0.14558000    17.119200    59.137200    17.755000
     774      1      1  0.14204200    16.590400    61.084800    19.202000
     775      1      1  0.14439500    14.687300    60.964200    20.792400
     776      1      1  0.14986600    13.323200    58.914400    20.947700
     777      1      1  0.16819300    10.774600    55.965200    17.011000
     778      1      1  0.15326700     8.166200    55.812200    17.080200
     779      1      1  0.16576400     6.369000    55.531700    15.426000
     780      1      1  0.14969800     6.006300    51.702900    10.534400
     781      1      1  0.14391400     4.147400    51.670800     8.928300
     782      1      1  0.14073500     1.849000    52.258100     9.654700
     783      1      1  0.14584600     1.423000    52.887000    12.017700
     784      1      1  0.14682900     3.274500    52.914000    13.648900
     785      1      1  0.15542200     4.672300    49.492800    13.258800
     786      1      1  0.15548000     4.638400    47.312000    12.154800
     787      1      4 -0.15103700    47.823800     4.807800    10.992800
     788      1      5  0.44466800    47.321800     3.448100    11.406500
     789      1     10 -0.45799300    46.146400     3.136300    11.541400
     790      1      9 -0.37249700    48.377700     2.607900    11.608500
     791      1      4  0.00267000    48.016100     1.331600    12.156100
     792      1      4 -0.18579500    49.294900     0.615300    12.581000
     793      1      2  0.14704000    48.874900     4.929500    11.277700
     794      1      2  0.14704000    47.781000     4.851600     9.898400
     795      1      2  0.10480700    47.484800     0.750600    11.393100
     796      1      2  0.10480700    47.357400     1.471600    13.022300
     797      1      2  0.10814500    49.926100     0.424000    11.703600
     798      1      2  0.10814500    49.897200     1.274200    13.220100
     799      1      4 -0.14405100    16.120800    27.750400    27.675300
     800      1      5  0.44409000    16.851600    27.324100    26.429500
     801      1     10 -0.44262500    17.918600    26.721000    26.451100
     802      1      9 -0.37264600    16.150900    27.615900    25.302400
     803      1      4 -0.00049900    16.783400    27.289900    24.056100
     804      1      4 -0.21908300    16.473900    25.843400    23.680800
     805      1      2  0.15092600    16.842200    27.836700    28.495400
     806      1      2  0.15092600    15.432800    26.938000    27.938300
     807      1      2  0.11094100    16.372300    27.969800    23.302700
     808      1      2  0.11094100    17.862800    27.478000    24.102700
     809      1      2  0.10554000    16.881000    25.170000    24.444500
     810      1      2  0.10554000    15.387300    25.694800    23.698500
     811      1      4 -0.14405100    15.026200    55.691700    21.524100
     812      1      5  0.44409000    14.668900    56.594000    22.682200
     813      1     10 -0.44262500    13.536500    57.024500    22.881800
     814      1      9 -0.37264600    15.665600    56.904600    23.553300
     815      1      4 -0.00049900    17.062000    56.642900    23.310100
     816      1      4 -0.21908300    17.662000    57.814500    22.538100
     817      1      2  0.15092600    15.927600    56.042000    21.015300
     818      1      2  0.15092600    15.231800    54.694800    21.931600
     819      1      2  0.11094100    17.210600    55.684500    22.804300
     820      1      2  0.11094100    17.541300    56.559200    24.291500
     821      1      2  0.10554000    17.108200    57.968500    21.605800
     822      1      2  0.10554000    17.523800    58.735300    23.118800
     823      1      5 -0.07238400    49.002700    -0.673700    13.301600
     824      1      5 -0.13715900    48.804900    -1.860400    12.589600
     825      1      5 -0.09898300    48.493700    -3.045100    13.263800
     826      1      5 -0.03709100    48.359100    -3.075800    14.662500
     827      1      5  0.07453600    48.008600    -4.332200    15.350300
     828      1      8 -0.22953700    48.801700    -5.387300    15.007000
     829      1      6  0.01702900    48.582300    -6.560900    15.624600
     830      1      5 -0.08552000    49.372900    -7.660600    15.307500
     831      1      5 -0.02576600    49.198300    -8.912300    15.920600
     832      1      5 -0.02723300    50.047700   -10.060200    15.564300
     833      1      5 -0.10176100    50.701100   -10.812800    16.546200
     834      1      5 -0.10608400    51.503000   -11.901400    16.192000
     835      1      6  0.03798400    51.674900   -12.268000    14.865900
     836      1      8 -0.34370300    52.450200   -13.324400    14.561400
     837      1      5  0.11493300    52.580000   -13.650100    13.249200
     838      1      5  0.05969800    51.942200   -12.906600    12.250200
     839      1      5 -0.04657700    52.027300   -13.198000    10.814900
     840      1      5 -0.11027400    53.225900   -13.027800    10.102600
     841      1      5 -0.13668200    53.296800   -13.320400     8.738300
     842      1      5 -0.11771500    52.166900   -13.776700     8.063400
     843      1      5 -0.13803700    50.963600   -13.930800     8.747700
     844      1      5 -0.09335800    50.893600   -13.637700    10.111500
     845      1      8 -0.20308300    51.155600   -11.844300    12.560400
     846      1      6  0.00773500    51.023900   -11.523900    13.860700
     847      1      5 -0.08127900    50.229700   -10.441400    14.224400
     848      1      5 -0.10586500    48.186800    -9.027800    16.880200
     849      1      5 -0.10119400    47.386100    -7.929400    17.205700
     850      1      6  0.02366600    47.567300    -6.698600    16.593200
     851      1      8 -0.22850700    46.773200    -5.667700    16.928400
     852      1      5  0.08293000    46.978100    -4.478700    16.293100
     853      1      5 -0.04567600    46.020600    -3.424900    16.678500
     854      1      5 -0.09151900    45.282300    -2.704600    15.722500
     855      1      5 -0.14389100    44.386400    -1.702700    16.106700
     856      1      5 -0.11780400    44.201500    -1.411500    17.455600
     857      1      5 -0.14069000    44.905700    -2.125400    18.421400
     858      1      5 -0.10068500    45.802600    -3.125000    18.035500
     859      1      5 -0.08968600    48.583800    -1.881000    15.366300
     860      1      5 -0.13641700    48.891500    -0.693600    14.695700
     861      1      1  0.14534300    48.890200    -1.875600    11.505200
     862      1      1  0.15148100    48.350100    -3.958400    12.687900
     863      1      1  0.16771900    50.156800    -7.523700    14.564000
     864      1      1  0.15880600    50.602800   -10.555500    17.599200
     865      1      1  0.16730900    52.002800   -12.477100    16.967500
     866      1      1  0.14442100    54.113700   -12.649600    10.606300
     867      1      1  0.14884400    54.231000   -13.180400     8.200100
     868      1      1  0.14589900    52.219700   -13.997200     7.000100
     869      1      1  0.14874800    50.075700   -14.268600     8.219100
     870      1      1  0.15083900    49.942100   -13.746200    10.630000
     871      1      1  0.16984100    49.729900    -9.890200    13.429400
     872      1      1  0.15819900    47.999200    -9.978600    17.376200
     873      1      1  0.16955100    46.599700    -8.038200    17.949000
     874      1      1  0.15278400    45.394400    -2.921000    14.661700
     875      1      1  0.14740300    43.829600    -1.155000    15.350200
     876      1      1  0.14416500    43.500800    -0.636000    17.754200
     877      1      1  0.14793300    44.754200    -1.911100    19.476200
     878      1      1  0.14808800    46.337700    -3.680900    18.804100
     879      1      1  0.15717500    48.518200    -1.860900    16.452600
     880      1      1  0.15110100    49.041500     0.216100    15.273100
     881      1      7 -0.39745200    14.334100    23.367300    21.622200
     882      1      3  0.16543200    15.450600    23.650300    21.763100
     883      1      4 -0.07280400    16.862600    24.008100    21.953700
     884      1      4 -0.16628800    17.045700    25.484800    22.307800
     885      1      2  0.13796500    17.411100    23.796800    21.028300
     886      1      2  0.13796500    17.304800    23.378900    22.734500
     887      1      2  0.09759100    18.119500    25.710000    22.298400
     888      1      2  0.09759100    16.580200    26.115900    21.540300
     889      1      7 -0.39745200    22.260700    58.379900    20.901000
     890      1      3  0.16543200    21.141400    58.561700    21.146000
     891      1      4 -0.07280400    19.722900    58.782800    21.455600
     892      1      4 -0.16628800    19.141700    57.600500    22.232600
     893      1      2  0.13796500    19.614300    59.702900    22.041200
     894      1      2  0.13796500    19.164700    58.926200    20.523200
     895      1      2  0.09759100    19.696100    57.462200    23.169600
     896      1      2  0.09759100    19.266800    56.677500    21.652000
     897      1      7 -0.40539300    51.300500   -16.970800    14.907600
     898      1      3  0.14460500    51.846300   -16.580400    13.961000
     899      1      4 -0.07955100    52.531100   -16.130600    12.740400
     900      1      4 -0.13307900    53.391100   -14.891300    12.976700
     901      1      2  0.12524400    53.179700   -16.941800    12.388300
     902      1      2  0.12524400    51.793500   -15.955400    11.950200
     903      1      2  0.11146500    54.047500   -14.726100    12.116300
     904      1      2  0.11146500    54.066000   -15.066100    13.825700

Bonds

       1      1        1        2
       2      2        2        3
       3      3        3        4
       4      4        3        5
       5      4        3        6
       6      4        4        7
       7      4        4        8
       8      5        9       10
       9      6       10       11
      10      7       10       12
      11      8       12       13
      12      3       13       14
      13      4        9       15
      14      4        9       16
      15      4       13       17
      16      4       13       18
      17      4       14       19
      18      4       14       20
      19      3        4        9
      20      5       21       22
      21      6       22       23
      22      7       22       24
      23      8       24       25
      24      3       25       26
      25      4       21       27
      26      4       21       28
      27      4       25       29
      28      4       25       30
      29      4       26       31
      30      4       26       32
      31      3       14       21
      32      9       33       34
      33      9       34       35
      34      9       35       36
      35     10       36       37
      36     11       37       38
      37     12       38       39
      38     13       39       40
      39      9       40       41
      40     10       41       42
      41      9       42       43
      42      9       43       44
      43     13       44       45
      44     12       45       46
      45     11       46       47
      46     10       47       48
      47     10       48       49
      48      9       49       50
      49      9       50       51
      50      9       51       52
      51      9       52       53
      52      9       53       54
      53     11       48       55
      54     12       55       56
      55     13       56       57
      56      9       41       58
      57      9       58       59
      58     13       59       60
      59     12       60       61
      60     11       61       62
      61     10       62       63
      62      9       63       64
      63      9       64       65
      64      9       65       66
      65      9       66       67
      66      9       67       68
      67      9       36       69
      68      9       69       70
      69      9       70       33
      70     10       62       37
      71      9       68       63
      72     14       60       39
      73      9       57       42
      74     14       56       45
      75      9       54       49
      76     15       34       71
      77     15       35       72
      78     15       40       73
      79     15       43       74
      80     15       44       75
      81     15       50       76
      82     15       51       77
      83     15       52       78
      84     15       53       79
      85     15       54       80
      86     15       57       81
      87     15       58       82
      88     15       59       83
      89     15       64       84
      90     15       65       85
      91     15       66       86
      92     15       67       87
      93     15       68       88
      94     15       69       89
      95     15       70       90
      96     16       26       33
      97      9       91       92
      98      9       92       93
      99      9       93       94
     100     10       94       95
     101     11       95       96
     102     12       96       97
     103     13       97       98
     104      9       98       99
     105     10       99      100
     106      9      100      101
     107      9      101      102
     108     13      102      103
     109     12      103      104
     110     11      104      105
     111      9      105      106
     112     10      106      107
     113      9      107      108
     114      9      108      109
     115      9      109      110
     116      9      110      111
     117      9      111      112
     118     11      106      113
     119     12      113      114
     120     13      114      115
     121      9       99      116
     122      9      116      117
     123     13      117      118
     124     12      118      119
     125     11      119      120
     126     10      120      121
     127      9      121      122
     128      9      122      123
     129      9      123      124
     130      9      124      125
     131      9      125      126
     132      9       94      127
     133      9      127      128
     134      9      128       91
     135     10      120       95
     136      9      126      121
     137     14      118       97
     138      9      115      100
     139     14      114      103
     140      9      112      107
     141     15       92      129
     142     15       93      130
     143     15       98      131
     144     15      101      132
     145     15      102      133
     146     15      108      134
     147     15      109      135
     148     15      110      136
     149     15      111      137
     150     15      112      138
     151     15      115      139
     152     15      116      140
     153     15      117      141
     154     15      122      142
     155     15      123      143
     156     15      124      144
     157     15      125      145
     158     15      126      146
     159     15      127      147
     160     15      128      148
     161     10       47       91
     162      5      149      150
     163      6      150      151
     164      7      150      152
     165      8      152      153
     166      3      153      154
     167      4      149      155
     168      4      149      156
     169      4      153      157
     170      4      153      158
     171      4      154      159
     172      4      154      160
     173     16      105      149
     174      9      161      162
     175      9      162      163
     176      9      163      164
     177     10      164      165
     178     11      165      166
     179     12      166      167
     180     13      167      168
     181      9      168      169
     182     10      169      170
     183      9      170      171
     184      9      171      172
     185     13      172      173
     186     12      173      174
     187     11      174      175
     188      9      175      176
     189     10      176      177
     190      9      177      178
     191      9      178      179
     192      9      179      180
     193      9      180      181
     194      9      181      182
     195     11      176      183
     196     12      183      184
     197     13      184      185
     198      9      169      186
     199      9      186      187
     200     13      187      188
     201     12      188      189
     202     11      189      190
     203     10      190      191
     204      9      191      192
     205      9      192      193
     206      9      193      194
     207      9      194      195
     208      9      195      196
     209      9      164      197
     210      9      197      198
     211      9      198      161
     212     10      190      165
     213      9      196      191
     214     14      188      167
     215      9      185      170
     216     14      184      173
     217      9      182      177
     218     15      162      199
     219     15      163      200
     220     15      168      201
     221     15      171      202
     222     15      172      203
     223     15      178      204
     224     15      179      205
     225     15      180      206
     226     15      181      207
     227     15      182      208
     228     15      185      209
     229     15      186      210
     230     15      187      211
     231     15      192      212
     232     15      193      213
     233     15      194      214
     234     15      195      215
     235     15      196      216
     236     15      197      217
     237     15      198      218
     238     16      154      161
     239      5      219      220
     240      6      220      221
     241      7      220      222
     242      8      222      223
     243      3      223      224
     244      4      219      225
     245      4      219      226
     246      4      223      227
     247      4      223      228
     248      4      224      229
     249      4      224      230
     250     16      175      219
     251     16      231      232
     252      9      232      233
     253     16      233      234
     254      9      233      235
     255      9      235      236
     256     16      236      237
     257      9      236      238
     258     16      238      239
     259      9      238      240
     260      9      240      232
     261      4      231      241
     262      4      231      242
     263      4      234      243
     264      4      234      244
     265     15      235      245
     266      4      237      246
     267      4      237      247
     268      4      239      248
     269      4      239      249
     270     15      240      250
     271      3      224      231
     272      5      251      252
     273      6      252      253
     274      7      252      254
     275      8      254      255
     276      3      255      256
     277      4      251      257
     278      4      251      258
     279      4      255      259
     280      4      255      260
     281      4      256      261
     282      4      256      262
     283      3      234      251
     284      5      263      264
     285      6      264      265
     286      7      264      266
     287      8      266      267
     288      3      267      268
     289      4      263      269
     290      4      263      270
     291      4      267      271
     292      4      267      272
     293      4      268      273
     294      4      268      274
     295      3      237      263
     296      9      275      276
     297      9      276      277
     298      9      277      278
     299     10      278      279
     300     11      279      280
     301     12      280      281
     302     13      281      282
     303      9      282      283
     304     10      283      284
     305      9      284      285
     306      9      285      286
     307     13      286      287
     308     12      287      288
     309     11      288      289
     310     10      289      290
     311     10      290      291
     312      9      291      292
     313      9      292      293
     314      9      293      294
     315      9      294      295
     316      9      295      296
     317     11      290      297
     318     12      297      298
     319     13      298      299
     320      9      283      300
     321      9      300      301
     322     13      301      302
     323     12      302      303
     324     11      303      304
     325     10      304      305
     326      9      305      306
     327      9      306      307
     328      9      307      308
     329      9      308      309
     330      9      309      310
     331      9      278      311
     332      9      311      312
     333      9      312      275
     334     10      304      279
     335      9      310      305
     336     14      302      281
     337      9      299      284
     338     14      298      287
     339      9      296      291
     340     15      276      313
     341     15      277      314
     342     15      282      315
     343     15      285      316
     344     15      286      317
     345     15      292      318
     346     15      293      319
     347     15      294      320
     348     15      295      321
     349     15      296      322
     350     15      299      323
     351     15      300      324
     352     15      301      325
     353     15      306      326
     354     15      307      327
     355     15      308      328
     356     15      309      329
     357     15      310      330
     358     15      311      331
     359     15      312      332
     360     16      239      275
     361      5      333      334
     362      6      334      335
     363      7      334      336
     364      8      336      337
     365      3      337      338
     366      4      333      339
     367      4      333      340
     368      4      337      341
     369      4      337      342
     370      4      338      343
     371      4      338      344
     372      3      256      333
     373      5      345      346
     374      6      346      347
     375      7      346      348
     376      8      348      349
     377      3      349      350
     378      4      345      351
     379      4      345      352
     380      4      349      353
     381      4      349      354
     382      4      350      355
     383      4      350      356
     384      3      268      345
     385      9      357      358
     386      9      358      359
     387      9      359      360
     388     10      360      361
     389     11      361      362
     390     12      362      363
     391     13      363      364
     392      9      364      365
     393     10      365      366
     394      9      366      367
     395      9      367      368
     396     13      368      369
     397     12      369      370
     398     11      370      371
     399      9      371      372
     400     10      372      373
     401      9      373      374
     402      9      374      375
     403      9      375      376
     404      9      376      377
     405      9      377      378
     406     11      372      379
     407     12      379      380
     408     13      380      381
     409      9      365      382
     410      9      382      383
     411     13      383      384
     412     12      384      385
     413     11      385      386
     414     10      386      387
     415      9      387      388
     416      9      388      389
     417      9      389      390
     418      9      390      391
     419      9      391      392
     420      9      360      393
     421      9      393      394
     422      9      394      357
     423     10      386      361
     424      9      392      387
     425     14      384      363
     426      9      381      366
     427     14      380      369
     428      9      378      373
     429     15      358      395
     430     15      359      396
     431     15      364      397
     432     15      367      398
     433     15      368      399
     434     15      374      400
     435     15      375      401
     436     15      376      402
     437     15      377      403
     438     15      378      404
     439     15      381      405
     440     15      382      406
     441     15      383      407
     442     15      388      408
     443     15      389      409
     444     15      390      410
     445     15      391      411
     446     15      392      412
     447     15      393      413
     448     15      394      414
     449     10      289      357
     450      5      415      416
     451      6      416      417
     452      7      416      418
     453      8      418      419
     454      3      419      420
     455      4      415      421
     456      4      415      422
     457      4      419      423
     458      4      419      424
     459      4      420      425
     460      4      420      426
     461      3      338      415
     462      9      427      428
     463      9      428      429
     464      9      429      430
     465     10      430      431
     466     11      431      432
     467     12      432      433
     468     13      433      434
     469      9      434      435
     470     10      435      436
     471      9      436      437
     472      9      437      438
     473     13      438      439
     474     12      439      440
     475     11      440      441
     476     10      441      442
     477     10      442      443
     478      9      443      444
     479      9      444      445
     480      9      445      446
     481      9      446      447
     482      9      447      448
     483     11      442      449
     484     12      449      450
     485     13      450      451
     486      9      435      452
     487      9      452      453
     488     13      453      454
     489     12      454      455
     490     11      455      456
     491     10      456      457
     492      9      457      458
     493      9      458      459
     494      9      459      460
     495      9      460      461
     496      9      461      462
     497      9      430      463
     498      9      463      464
     499      9      464      427
     500     10      456      431
     501      9      462      457
     502     14      454      433
     503      9      451      436
     504     14      450      439
     505      9      448      443
     506     15      428      465
     507     15      429      466
     508     15      434      467
     509     15      437      468
     510     15      438      469
     511     15      444      470
     512     15      445      471
     513     15      446      472
     514     15      447      473
     515     15      448      474
     516     15      451      475
     517     15      452      476
     518     15      453      477
     519     15      458      478
     520     15      459      479
     521     15      460      480
     522     15      461      481
     523     15      462      482
     524     15      463      483
     525     15      464      484
     526     16      350      427
     527      5      485      486
     528      6      486      487
     529      7      486      488
     530      8      488      489
     531      3      489      490
     532      4      485      491
     533      4      485      492
     534      4      489      493
     535      4      489      494
     536      4      490      495
     537      4      490      496
     538     16      371      485
     539      9      497      498
     540      9      498      499
     541      9      499      500
     542     10      500      501
     543     11      501      502
     544     12      502      503
     545     13      503      504
     546      9      504      505
     547     10      505      506
     548      9      506      507
     549      9      507      508
     550     13      508      509
     551     12      509      510
     552     11      510      511
     553     10      511      512
     554     10      512      513
     555      9      513      514
     556      9      514      515
     557      9      515      516
     558      9      516      517
     559      9      517      518
     560     11      512      519
     561     12      519      520
     562     13      520      521
     563      9      505      522
     564      9      522      523
     565     13      523      524
     566     12      524      525
     567     11      525      526
     568     10      526      527
     569      9      527      528
     570      9      528      529
     571      9      529      530
     572      9      530      531
     573      9      531      532
     574      9      500      533
     575      9      533      534
     576      9      534      497
     577     10      526      501
     578      9      532      527
     579     14      524      503
     580      9      521      506
     581     14      520      509
     582      9      518      513
     583     15      498      535
     584     15      499      536
     585     15      504      537
     586     15      507      538
     587     15      508      539
     588     15      514      540
     589     15      515      541
     590     15      516      542
     591     15      517      543
     592     15      518      544
     593     15      521      545
     594     15      522      546
     595     15      523      547
     596     15      528      548
     597     15      529      549
     598     15      530      550
     599     15      531      551
     600     15      532      552
     601     15      533      553
     602     15      534      554
     603     16      420      497
     604      9      555      556
     605      9      556      557
     606      9      557      558
     607     10      558      559
     608     11      559      560
     609     12      560      561
     610     13      561      562
     611      9      562      563
     612     10      563      564
     613      9      564      565
     614      9      565      566
     615     13      566      567
     616     12      567      568
     617     11      568      569
     618     10      569      570
     619     10      570      571
     620      9      571      572
     621      9      572      573
     622      9      573      574
     623      9      574      575
     624      9      575      576
     625     11      570      577
     626     12      577      578
     627     13      578      579
     628      9      563      580
     629      9      580      581
     630     13      581      582
     631     12      582      583
     632     11      583      584
     633     10      584      585
     634      9      585      586
     635      9      586      587
     636      9      587      588
     637      9      588      589
     638      9      589      590
     639      9      558      591
     640      9      591      592
     641      9      592      555
     642     10      584      559
     643      9      590      585
     644     14      582      561
     645      9      579      564
     646     14      578      567
     647      9      576      571
     648     15      556      593
     649     15      557      594
     650     15      562      595
     651     15      565      596
     652     15      566      597
     653     15      572      598
     654     15      573      599
     655     15      574      600
     656     15      575      601
     657     15      576      602
     658     15      579      603
     659     15      580      604
     660     15      581      605
     661     15      586      606
     662     15      587      607
     663     15      588      608
     664     15      589      609
     665     15      590      610
     666     15      591      611
     667     15      592      612
     668     10      441      555
     669      9      613      614
     670      9      614      615
     671      9      615      616
     672     10      616      617
     673     11      617      618
     674     12      618      619
     675     13      619      620
     676      9      620      621
     677     10      621      622
     678      9      622      623
     679      9      623      624
     680     13      624      625
     681     12      625      626
     682     11      626      627
     683      9      627      628
     684     10      628      629
     685      9      629      630
     686      9      630      631
     687      9      631      632
     688      9      632      633
     689      9      633      634
     690     11      628      635
     691     12      635      636
     692     13      636      637
     693      9      621      638
     694      9      638      639
     695     13      639      640
     696     12      640      641
     697     11      641      642
     698     10      642      643
     699      9      643      644
     700      9      644      645
     701      9      645      646
     702      9      646      647
     703      9      647      648
     704      9      616      649
     705      9      649      650
     706      9      650      613
     707     10      642      617
     708      9      648      643
     709     14      640      619
     710      9      637      622
     711     14      636      625
     712      9      634      629
     713     15      614      651
     714     15      615      652
     715     15      620      653
     716     15      623      654
     717     15      624      655
     718     15      630      656
     719     15      631      657
     720     15      632      658
     721     15      633      659
     722     15      634      660
     723     15      637      661
     724     15      638      662
     725     15      639      663
     726     15      644      664
     727     15      645      665
     728     15      646      666
     729     15      647      667
     730     15      648      668
     731     15      649      669
     732     15      650      670
     733     16      490      613
     734      9      671      672
     735      9      672      673
     736      9      673      674
     737     10      674      675
     738     11      675      676
     739     12      676      677
     740     13      677      678
     741      9      678      679
     742     10      679      680
     743      9      680      681
     744      9      681      682
     745     13      682      683
     746     12      683      684
     747     11      684      685
     748      9      685      686
     749     10      686      687
     750      9      687      688
     751      9      688      689
     752      9      689      690
     753      9      690      691
     754      9      691      692
     755     11      686      693
     756     12      693      694
     757     13      694      695
     758      9      679      696
     759      9      696      697
     760     13      697      698
     761     12      698      699
     762     11      699      700
     763     10      700      701
     764      9      701      702
     765      9      702      703
     766      9      703      704
     767      9      704      705
     768      9      705      706
     769      9      674      707
     770      9      707      708
     771      9      708      671
     772     10      700      675
     773      9      706      701
     774     14      698      677
     775      9      695      680
     776     14      694      683
     777      9      692      687
     778     15      672      709
     779     15      673      710
     780     15      678      711
     781     15      681      712
     782     15      682      713
     783     15      688      714
     784     15      689      715
     785     15      690      716
     786     15      691      717
     787     15      692      718
     788     15      695      719
     789     15      696      720
     790     15      697      721
     791     15      702      722
     792     15      703      723
     793     15      704      724
     794     15      705      725
     795     15      706      726
     796     15      707      727
     797     15      708      728
     798     10      511      671
     799      9      729      730
     800      9      730      731
     801      9      731      732
     802     10      732      733
     803     11      733      734
     804     12      734      735
     805     13      735      736
     806      9      736      737
     807     10      737      738
     808      9      738      739
     809      9      739      740
     810     13      740      741
     811     12      741      742
     812     11      742      743
     813      9      743      744
     814     10      744      745
     815      9      745      746
     816      9      746      747
     817      9      747      748
     818      9      748      749
     819      9      749      750
     820     11      744      751
     821     12      751      752
     822     13      752      753
     823      9      737      754
     824      9      754      755
     825     13      755      756
     826     12      756      757
     827     11      757      758
     828     10      758      759
     829      9      759      760
     830      9      760      761
     831      9      761      762
     832      9      762      763
     833      9      763      764
     834      9      732      765
     835      9      765      766
     836      9      766      729
     837     10      758      733
     838      9      764      759
     839     14      756      735
     840      9      753      738
     841     14      752      741
     842      9      750      745
     843     15      730      767
     844     15      731      768
     845     15      736      769
     846     15      739      770
     847     15      740      771
     848     15      746      772
     849     15      747      773
     850     15      748      774
     851     15      749      775
     852     15      750      776
     853     15      753      777
     854     15      754      778
     855     15      755      779
     856     15      760      780
     857     15      761      781
     858     15      762      782
     859     15      763      783
     860     15      764      784
     861     15      765      785
     862     15      766      786
     863     10      569      729
     864      5      787      788
     865      6      788      789
     866      7      788      790
     867      8      790      791
     868      3      791      792
     869      4      787      793
     870      4      787      794
     871      4      791      795
     872      4      791      796
     873      4      792      797
     874      4      792      798
     875     16      627      787
     876      5      799      800
     877      6      800      801
     878      7      800      802
     879      8      802      803
     880      3      803      804
     881      4      799      805
     882      4      799      806
     883      4      803      807
     884      4      803      808
     885      4      804      809
     886      4      804      810
     887     16      685      799
     888      5      811      812
     889      6      812      813
     890      7      812      814
     891      8      814      815
     892      3      815      816
     893      4      811      817
     894      4      811      818
     895      4      815      819
     896      4      815      820
     897      4      816      821
     898      4      816      822
     899     16      743      811
     900      9      823      824
     901      9      824      825
     902      9      825      826
     903     10      826      827
     904     11      827      828
     905     12      828      829
     906     13      829      830
     907      9      830      831
     908     10      831      832
     909      9      832      833
     910      9      833      834
     911     13      834      835
     912     12      835      836
     913     11      836      837
     914      9      837      838
     915     10      838      839
     916      9      839      840
     917      9      840      841
     918      9      841      842
     919      9      842      843
     920      9      843      844
     921     11      838      845
     922     12      845      846
     923     13      846      847
     924      9      831      848
     925      9      848      849
     926     13      849      850
     927     12      850      851
     928     11      851      852
     929     10      852      853
     930      9      853      854
     931      9      854      855
     932      9      855      856
     933      9      856      857
     934      9      857      858
     935      9      826      859
     936      9      859      860
     937      9      860      823
     938     10      852      827
     939      9      858      853
     940     14      850      829
     941      9      847      832
     942     14      846      835
     943      9      844      839
     944     15      824      861
     945     15      825      862
     946     15      830      863
     947     15      833      864
     948     15      834      865
     949     15      840      866
     950     15      841      867
     951     15      842      868
     952     15      843      869
     953     15      844      870
     954     15      847      871
     955     15      848      872
     956     15      849      873
     957     15      854      874
     958     15      855      875
     959     15      856      876
     960     15      857      877
     961     15      858      878
     962     15      859      879
     963     15      860      880
     964     16      792      823
     965      1      881      882
     966      2      882      883
     967      3      883      884
     968      4      883      885
     969      4      883      886
     970      4      884      887
     971      4      884      888
     972      3      804      884
     973      1      889      890
     974      2      890      891
     975      3      891      892
     976      4      891      893
     977      4      891      894
     978      4      892      895
     979      4      892      896
     980      3      816      892
     981      1      897      898
     982      2      898      899
     983      3      899      900
     984      4      899      901
     985      4      899      902
     986      4      900      903
     987      4      900      904
     988     16      837      900

Angles

       1      1        1        2        3
       2      2        2        3        4
       3      3        2        3        5
       4      3        2        3        6
       5      4        4        3        5
       6      4        4        3        6
       7      5        5        3        6
       8      4        3        4        7
       9      4        3        4        8
      10      2        3        4        9
      11      5        7        4        8
      12      4        7        4        9
      13      4        8        4        9
      14      6       10        9       15
      15      6       10        9       16
      16      7       10        9        4
      17      5       15        9       16
      18      4       15        9        4
      19      4       16        9        4
      20      8        9       10       11
      21      9        9       10       12
      22     10       11       10       12
      23     11       10       12       13
      24     12       12       13       14
      25      6       12       13       17
      26      6       12       13       18
      27      4       14       13       17
      28      4       14       13       18
      29      5       17       13       18
      30      4       13       14       19
      31      4       13       14       20
      32      2       13       14       21
      33      5       19       14       20
      34      4       19       14       21
      35      4       20       14       21
      36      6       22       21       27
      37      6       22       21       28
      38      7       22       21       14
      39      5       27       21       28
      40      4       27       21       14
      41      4       28       21       14
      42      8       21       22       23
      43      9       21       22       24
      44     10       23       22       24
      45     11       22       24       25
      46     12       24       25       26
      47      6       24       25       29
      48      6       24       25       30
      49      4       26       25       29
      50      4       26       25       30
      51      5       29       25       30
      52      4       25       26       31
      53      4       25       26       32
      54     13       25       26       33
      55      5       31       26       32
      56      6       31       26       33
      57      6       32       26       33
      58     14       34       33       70
      59     15       34       33       26
      60     15       70       33       26
      61     14       33       34       35
      62     16       33       34       71
      63     16       35       34       71
      64     14       34       35       36
      65     16       34       35       72
      66     16       36       35       72
      67     14       35       36       37
      68     14       35       36       69
      69     14       37       36       69
      70     15       36       37       38
      71     14       36       37       62
      72     15       38       37       62
      73     17       37       38       39
      74     18       38       39       40
      75     19       38       39       60
      76     20       40       39       60
      77     14       39       40       41
      78     16       39       40       73
      79     16       41       40       73
      80     14       40       41       42
      81     14       40       41       58
      82     14       42       41       58
      83     14       41       42       43
      84     14       41       42       57
      85     14       43       42       57
      86     14       42       43       44
      87     16       42       43       74
      88     16       44       43       74
      89     14       43       44       45
      90     16       43       44       75
      91     16       45       44       75
      92     18       44       45       46
      93     20       44       45       56
      94     19       46       45       56
      95     17       45       46       47
      96     15       46       47       48
      97     15       46       47       91
      98     14       48       47       91
      99     14       47       48       49
     100     15       47       48       55
     101     15       49       48       55
     102     14       48       49       50
     103     14       48       49       54
     104     14       50       49       54
     105     14       49       50       51
     106     16       49       50       76
     107     16       51       50       76
     108     14       50       51       52
     109     16       50       51       77
     110     16       52       51       77
     111     14       51       52       53
     112     16       51       52       78
     113     16       53       52       78
     114     14       52       53       54
     115     16       52       53       79
     116     16       54       53       79
     117     14       53       54       49
     118     16       53       54       80
     119     16       49       54       80
     120     17       48       55       56
     121     18       55       56       57
     122     19       55       56       45
     123     20       57       56       45
     124     14       56       57       42
     125     16       56       57       81
     126     16       42       57       81
     127     14       41       58       59
     128     16       41       58       82
     129     16       59       58       82
     130     14       58       59       60
     131     16       58       59       83
     132     16       60       59       83
     133     18       59       60       61
     134     20       59       60       39
     135     19       61       60       39
     136     17       60       61       62
     137     15       61       62       63
     138     15       61       62       37
     139     14       63       62       37
     140     14       62       63       64
     141     14       62       63       68
     142     14       64       63       68
     143     14       63       64       65
     144     16       63       64       84
     145     16       65       64       84
     146     14       64       65       66
     147     16       64       65       85
     148     16       66       65       85
     149     14       65       66       67
     150     16       65       66       86
     151     16       67       66       86
     152     14       66       67       68
     153     16       66       67       87
     154     16       68       67       87
     155     14       67       68       63
     156     16       67       68       88
     157     16       63       68       88
     158     14       36       69       70
     159     16       36       69       89
     160     16       70       69       89
     161     14       69       70       33
     162     16       69       70       90
     163     16       33       70       90
     164     14       92       91      128
     165     14       92       91       47
     166     14      128       91       47
     167     14       91       92       93
     168     16       91       92      129
     169     16       93       92      129
     170     14       92       93       94
     171     16       92       93      130
     172     16       94       93      130
     173     14       93       94       95
     174     14       93       94      127
     175     14       95       94      127
     176     15       94       95       96
     177     14       94       95      120
     178     15       96       95      120
     179     17       95       96       97
     180     18       96       97       98
     181     19       96       97      118
     182     20       98       97      118
     183     14       97       98       99
     184     16       97       98      131
     185     16       99       98      131
     186     14       98       99      100
     187     14       98       99      116
     188     14      100       99      116
     189     14       99      100      101
     190     14       99      100      115
     191     14      101      100      115
     192     14      100      101      102
     193     16      100      101      132
     194     16      102      101      132
     195     14      101      102      103
     196     16      101      102      133
     197     16      103      102      133
     198     18      102      103      104
     199     20      102      103      114
     200     19      104      103      114
     201     21      103      104      105
     202     22      104      105      106
     203     23      104      105      149
     204     15      106      105      149
     205     14      105      106      107
     206     22      105      106      113
     207     15      107      106      113
     208     14      106      107      108
     209     14      106      107      112
     210     14      108      107      112
     211     14      107      108      109
     212     16      107      108      134
     213     16      109      108      134
     214     14      108      109      110
     215     16      108      109      135
     216     16      110      109      135
     217     14      109      110      111
     218     16      109      110      136
     219     16      111      110      136
     220     14      110      111      112
     221     16      110      111      137
     222     16      112      111      137
     223     14      111      112      107
     224     16      111      112      138
     225     16      107      112      138
     226     17      106      113      114
     227     18      113      114      115
     228     19      113      114      103
     229     20      115      114      103
     230     14      114      115      100
     231     16      114      115      139
     232     16      100      115      139
     233     14       99      116      117
     234     16       99      116      140
     235     16      117      116      140
     236     14      116      117      118
     237     16      116      117      141
     238     16      118      117      141
     239     18      117      118      119
     240     20      117      118       97
     241     19      119      118       97
     242     17      118      119      120
     243     15      119      120      121
     244     15      119      120       95
     245     14      121      120       95
     246     14      120      121      122
     247     14      120      121      126
     248     14      122      121      126
     249     14      121      122      123
     250     16      121      122      142
     251     16      123      122      142
     252     14      122      123      124
     253     16      122      123      143
     254     16      124      123      143
     255     14      123      124      125
     256     16      123      124      144
     257     16      125      124      144
     258     14      124      125      126
     259     16      124      125      145
     260     16      126      125      145
     261     14      125      126      121
     262     16      125      126      146
     263     16      121      126      146
     264     14       94      127      128
     265     16       94      127      147
     266     16      128      127      147
     267     14      127      128       91
     268     16      127      128      148
     269     16       91      128      148
     270      6      150      149      155
     271      6      150      149      156
     272     24      150      149      105
     273      5      155      149      156
     274      6      155      149      105
     275      6      156      149      105
     276      8      149      150      151
     277      9      149      150      152
     278     10      151      150      152
     279     11      150      152      153
     280     12      152      153      154
     281      6      152      153      157
     282      6      152      153      158
     283      4      154      153      157
     284      4      154      153      158
     285      5      157      153      158
     286      4      153      154      159
     287      4      153      154      160
     288     13      153      154      161
     289      5      159      154      160
     290      6      159      154      161
     291      6      160      154      161
     292     14      162      161      198
     293     15      162      161      154
     294     15      198      161      154
     295     14      161      162      163
     296     16      161      162      199
     297     16      163      162      199
     298     14      162      163      164
     299     16      162      163      200
     300     16      164      163      200
     301     14      163      164      165
     302     14      163      164      197
     303     14      165      164      197
     304     15      164      165      166
     305     14      164      165      190
     306     15      166      165      190
     307     17      165      166      167
     308     18      166      167      168
     309     19      166      167      188
     310     20      168      167      188
     311     14      167      168      169
     312     16      167      168      201
     313     16      169      168      201
     314     14      168      169      170
     315     14      168      169      186
     316     14      170      169      186
     317     14      169      170      171
     318     14      169      170      185
     319     14      171      170      185
     320     14      170      171      172
     321     16      170      171      202
     322     16      172      171      202
     323     14      171      172      173
     324     16      171      172      203
     325     16      173      172      203
     326     18      172      173      174
     327     20      172      173      184
     328     19      174      173      184
     329     21      173      174      175
     330     22      174      175      176
     331     23      174      175      219
     332     15      176      175      219
     333     14      175      176      177
     334     22      175      176      183
     335     15      177      176      183
     336     14      176      177      178
     337     14      176      177      182
     338     14      178      177      182
     339     14      177      178      179
     340     16      177      178      204
     341     16      179      178      204
     342     14      178      179      180
     343     16      178      179      205
     344     16      180      179      205
     345     14      179      180      181
     346     16      179      180      206
     347     16      181      180      206
     348     14      180      181      182
     349     16      180      181      207
     350     16      182      181      207
     351     14      181      182      177
     352     16      181      182      208
     353     16      177      182      208
     354     17      176      183      184
     355     18      183      184      185
     356     19      183      184      173
     357     20      185      184      173
     358     14      184      185      170
     359     16      184      185      209
     360     16      170      185      209
     361     14      169      186      187
     362     16      169      186      210
     363     16      187      186      210
     364     14      186      187      188
     365     16      186      187      211
     366     16      188      187      211
     367     18      187      188      189
     368     20      187      188      167
     369     19      189      188      167
     370     17      188      189      190
     371     15      189      190      191
     372     15      189      190      165
     373     14      191      190      165
     374     14      190      191      192
     375     14      190      191      196
     376     14      192      191      196
     377     14      191      192      193
     378     16      191      192      212
     379     16      193      192      212
     380     14      192      193      194
     381     16      192      193      213
     382     16      194      193      213
     383     14      193      194      195
     384     16      193      194      214
     385     16      195      194      214
     386     14      194      195      196
     387     16      194      195      215
     388     16      196      195      215
     389     14      195      196      191
     390     16      195      196      216
     391     16      191      196      216
     392     14      164      197      198
     393     16      164      197      217
     394     16      198      197      217
     395     14      197      198      161
     396     16      197      198      218
     397     16      161      198      218
     398      6      220      219      225
     399      6      220      219      226
     400     24      220      219      175
     401      5      225      219      226
     402      6      225      219      175
     403      6      226      219      175
     404      8      219      220      221
     405      9      219      220      222
     406     10      221      220      222
     407     11      220      222      223
     408     12      222      223      224
     409      6      222      223      227
     410      6      222      223      228
     411      4      224      223      227
     412      4      224      223      228
     413      5      227      223      228
     414      4      223      224      229
     415      4      223      224      230
     416      2      223      224      231
     417      5      229      224      230
     418      4      229      224      231
     419      4      230      224      231
     420      6      232      231      241
     421      6      232      231      242
     422     13      232      231      224
     423      5      241      231      242
     424      4      241      231      224
     425      4      242      231      224
     426     15      231      232      233
     427     15      231      232      240
     428     14      233      232      240
     429     15      232      233      234
     430     14      232      233      235
     431     15      234      233      235
     432      6      233      234      243
     433      6      233      234      244
     434     13      233      234      251
     435      5      243      234      244
     436      4      243      234      251
     437      4      244      234      251
     438     14      233      235      236
     439     16      233      235      245
     440     16      236      235      245
     441     15      235      236      237
     442     14      235      236      238
     443     15      237      236      238
     444      6      236      237      246
     445      6      236      237      247
     446     13      236      237      263
     447      5      246      237      247
     448      4      246      237      263
     449      4      247      237      263
     450     15      236      238      239
     451     14      236      238      240
     452     15      239      238      240
     453      6      238      239      248
     454      6      238      239      249
     455     25      238      239      275
     456      5      248      239      249
     457      6      248      239      275
     458      6      249      239      275
     459     14      238      240      232
     460     16      238      240      250
     461     16      232      240      250
     462      6      252      251      257
     463      6      252      251      258
     464      7      252      251      234
     465      5      257      251      258
     466      4      257      251      234
     467      4      258      251      234
     468      8      251      252      253
     469      9      251      252      254
     470     10      253      252      254
     471     11      252      254      255
     472     12      254      255      256
     473      6      254      255      259
     474      6      254      255      260
     475      4      256      255      259
     476      4      256      255      260
     477      5      259      255      260
     478      4      255      256      261
     479      4      255      256      262
     480      2      255      256      333
     481      5      261      256      262
     482      4      261      256      333
     483      4      262      256      333
     484      6      264      263      269
     485      6      264      263      270
     486      7      264      263      237
     487      5      269      263      270
     488      4      269      263      237
     489      4      270      263      237
     490      8      263      264      265
     491      9      263      264      266
     492     10      265      264      266
     493     11      264      266      267
     494     12      266      267      268
     495      6      266      267      271
     496      6      266      267      272
     497      4      268      267      271
     498      4      268      267      272
     499      5      271      267      272
     500      4      267      268      273
     501      4      267      268      274
     502      2      267      268      345
     503      5      273      268      274
     504      4      273      268      345
     505      4      274      268      345
     506     14      276      275      312
     507     15      276      275      239
     508     15      312      275      239
     509     14      275      276      277
     510     16      275      276      313
     511     16      277      276      313
     512     14      276      277      278
     513     16      276      277      314
     514     16      278      277      314
     515     14      277      278      279
     516     14      277      278      311
     517     14      279      278      311
     518     15      278      279      280
     519     14      278      279      304
     520     15      280      279      304
     521     17      279      280      281
     522     18      280      281      282
     523     19      280      281      302
     524     20      282      281      302
     525     14      281      282      283
     526     16      281      282      315
     527     16      283      282      315
     528     14      282      283      284
     529     14      282      283      300
     530     14      284      283      300
     531     14      283      284      285
     532     14      283      284      299
     533     14      285      284      299
     534     14      284      285      286
     535     16      284      285      316
     536     16      286      285      316
     537     14      285      286      287
     538     16      285      286      317
     539     16      287      286      317
     540     18      286      287      288
     541     20      286      287      298
     542     19      288      287      298
     543     17      287      288      289
     544     15      288      289      290
     545     15      288      289      357
     546     14      290      289      357
     547     14      289      290      291
     548     15      289      290      297
     549     15      291      290      297
     550     14      290      291      292
     551     14      290      291      296
     552     14      292      291      296
     553     14      291      292      293
     554     16      291      292      318
     555     16      293      292      318
     556     14      292      293      294
     557     16      292      293      319
     558     16      294      293      319
     559     14      293      294      295
     560     16      293      294      320
     561     16      295      294      320
     562     14      294      295      296
     563     16      294      295      321
     564     16      296      295      321
     565     14      295      296      291
     566     16      295      296      322
     567     16      291      296      322
     568     17      290      297      298
     569     18      297      298      299
     570     19      297      298      287
     571     20      299      298      287
     572     14      298      299      284
     573     16      298      299      323
     574     16      284      299      323
     575     14      283      300      301
     576     16      283      300      324
     577     16      301      300      324
     578     14      300      301      302
     579     16      300      301      325
     580     16      302      301      325
     581     18      301      302      303
     582     20      301      302      281
     583     19      303      302      281
     584     17      302      303      304
     585     15      303      304      305
     586     15      303      304      279
     587     14      305      304      279
     588     14      304      305      306
     589     14      304      305      310
     590     14      306      305      310
     591     14      305      306      307
     592     16      305      306      326
     593     16      307      306      326
     594     14      306      307      308
     595     16      306      307      327
     596     16      308      307      327
     597     14      307      308      309
     598     16      307      308      328
     599     16      309      308      328
     600     14      308      309      310
     601     16      308      309      329
     602     16      310      309      329
     603     14      309      310      305
     604     16      309      310      330
     605     16      305      310      330
     606     14      278      311      312
     607     16      278      311      331
     608     16      312      311      331
     609     14      311      312      275
     610     16      311      312      332
     611     16      275      312      332
     612      6      334      333      339
     613      6      334      333      340
     614      7      334      333      256
     615      5      339      333      340
     616      4      339      333      256
     617      4      340      333      256
     618      8      333      334      335
     619      9      333      334      336
     620     10      335      334      336
     621     11      334      336      337
     622     12      336      337      338
     623      6      336      337      341
     624      6      336      337      342
     625      4      338      337      341
     626      4      338      337      342
     627      5      341      337      342
     628      4      337      338      343
     629      4      337      338      344
     630      2      337      338      415
     631      5      343      338      344
     632      4      343      338      415
     633      4      344      338      415
     634      6      346      345      351
     635      6      346      345      352
     636      7      346      345      268
     637      5      351      345      352
     638      4      351      345      268
     639      4      352      345      268
     640      8      345      346      347
     641      9      345      346      348
     642     10      347      346      348
     643     11      346      348      349
     644     12      348      349      350
     645      6      348      349      353
     646      6      348      349      354
     647      4      350      349      353
     648      4      350      349      354
     649      5      353      349      354
     650      4      349      350      355
     651      4      349      350      356
     652     13      349      350      427
     653      5      355      350      356
     654      6      355      350      427
     655      6      356      350      427
     656     14      358      357      394
     657     14      358      357      289
     658     14      394      357      289
     659     14      357      358      359
     660     16      357      358      395
     661     16      359      358      395
     662     14      358      359      360
     663     16      358      359      396
     664     16      360      359      396
     665     14      359      360      361
     666     14      359      360      393
     667     14      361      360      393
     668     15      360      361      362
     669     14      360      361      386
     670     15      362      361      386
     671     17      361      362      363
     672     18      362      363      364
     673     19      362      363      384
     674     20      364      363      384
     675     14      363      364      365
     676     16      363      364      397
     677     16      365      364      397
     678     14      364      365      366
     679     14      364      365      382
     680     14      366      365      382
     681     14      365      366      367
     682     14      365      366      381
     683     14      367      366      381
     684     14      366      367      368
     685     16      366      367      398
     686     16      368      367      398
     687     14      367      368      369
     688     16      367      368      399
     689     16      369      368      399
     690     18      368      369      370
     691     20      368      369      380
     692     19      370      369      380
     693     21      369      370      371
     694     22      370      371      372
     695     23      370      371      485
     696     15      372      371      485
     697     14      371      372      373
     698     22      371      372      379
     699     15      373      372      379
     700     14      372      373      374
     701     14      372      373      378
     702     14      374      373      378
     703     14      373      374      375
     704     16      373      374      400
     705     16      375      374      400
     706     14      374      375      376
     707     16      374      375      401
     708     16      376      375      401
     709     14      375      376      377
     710     16      375      376      402
     711     16      377      376      402
     712     14      376      377      378
     713     16      376      377      403
     714     16      378      377      403
     715     14      377      378      373
     716     16      377      378      404
     717     16      373      378      404
     718     17      372      379      380
     719     18      379      380      381
     720     19      379      380      369
     721     20      381      380      369
     722     14      380      381      366
     723     16      380      381      405
     724     16      366      381      405
     725     14      365      382      383
     726     16      365      382      406
     727     16      383      382      406
     728     14      382      383      384
     729     16      382      383      407
     730     16      384      383      407
     731     18      383      384      385
     732     20      383      384      363
     733     19      385      384      363
     734     17      384      385      386
     735     15      385      386      387
     736     15      385      386      361
     737     14      387      386      361
     738     14      386      387      388
     739     14      386      387      392
     740     14      388      387      392
     741     14      387      388      389
     742     16      387      388      408
     743     16      389      388      408
     744     14      388      389      390
     745     16      388      389      409
     746     16      390      389      409
     747     14      389      390      391
     748     16      389      390      410
     749     16      391      390      410
     750     14      390      391      392
     751     16      390      391      411
     752     16      392      391      411
     753     14      391      392      387
     754     16      391      392      412
     755     16      387      392      412
     756     14      360      393      394
     757     16      360      393      413
     758     16      394      393      413
     759     14      393      394      357
     760     16      393      394      414
     761     16      357      394      414
     762      6      416      415      421
     763      6      416      415      422
     764      7      416      415      338
     765      5      421      415      422
     766      4      421      415      338
     767      4      422      415      338
     768      8      415      416      417
     769      9      415      416      418
     770     10      417      416      418
     771     11      416      418      419
     772     12      418      419      420
     773      6      418      419      423
     774      6      418      419      424
     775      4      420      419      423
     776      4      420      419      424
     777      5      423      419      424
     778      4      419      420      425
     779      4      419      420      426
     780     13      419      420      497
     781      5      425      420      426
     782      6      425      420      497
     783      6      426      420      497
     784     14      428      427      464
     785     15      428      427      350
     786     15      464      427      350
     787     14      427      428      429
     788     16      427      428      465
     789     16      429      428      465
     790     14      428      429      430
     791     16      428      429      466
     792     16      430      429      466
     793     14      429      430      431
     794     14      429      430      463
     795     14      431      430      463
     796     15      430      431      432
     797     14      430      431      456
     798     15      432      431      456
     799     17      431      432      433
     800     18      432      433      434
     801     19      432      433      454
     802     20      434      433      454
     803     14      433      434      435
     804     16      433      434      467
     805     16      435      434      467
     806     14      434      435      436
     807     14      434      435      452
     808     14      436      435      452
     809     14      435      436      437
     810     14      435      436      451
     811     14      437      436      451
     812     14      436      437      438
     813     16      436      437      468
     814     16      438      437      468
     815     14      437      438      439
     816     16      437      438      469
     817     16      439      438      469
     818     18      438      439      440
     819     20      438      439      450
     820     19      440      439      450
     821     17      439      440      441
     822     15      440      441      442
     823     15      440      441      555
     824     14      442      441      555
     825     14      441      442      443
     826     15      441      442      449
     827     15      443      442      449
     828     14      442      443      444
     829     14      442      443      448
     830     14      444      443      448
     831     14      443      444      445
     832     16      443      444      470
     833     16      445      444      470
     834     14      444      445      446
     835     16      444      445      471
     836     16      446      445      471
     837     14      445      446      447
     838     16      445      446      472
     839     16      447      446      472
     840     14      446      447      448
     841     16      446      447      473
     842     16      448      447      473
     843     14      447      448      443
     844     16      447      448      474
     845     16      443      448      474
     846     17      442      449      450
     847     18      449      450      451
     848     19      449      450      439
     849     20      451      450      439
     850     14      450      451      436
     851     16      450      451      475
     852     16      436      451      475
     853     14      435      452      453
     854     16      435      452      476
     855     16      453      452      476
     856     14      452      453      454
     857     16      452      453      477
     858     16      454      453      477
     859     18      453      454      455
     860     20      453      454      433
     861     19      455      454      433
     862     17      454      455      456
     863     15      455      456      457
     864     15      455      456      431
     865     14      457      456      431
     866     14      456      457      458
     867     14      456      457      462
     868     14      458      457      462
     869     14      457      458      459
     870     16      457      458      478
     871     16      459      458      478
     872     14      458      459      460
     873     16      458      459      479
     874     16      460      459      479
     875     14      459      460      461
     876     16      459      460      480
     877     16      461      460      480
     878     14      460      461      462
     879     16      460      461      481
     880     16      462      461      481
     881     14      461      462      457
     882     16      461      462      482
     883     16      457      462      482
     884     14      430      463      464
     885     16      430      463      483
     886     16      464      463      483
     887     14      463      464      427
     888     16      463      464      484
     889     16      427      464      484
     890      6      486      485      491
     891      6      486      485      492
     892     24      486      485      371
     893      5      491      485      492
     894      6      491      485      371
     895      6      492      485      371
     896      8      485      486      487
     897      9      485      486      488
     898     10      487      486      488
     899     11      486      488      489
     900     12      488      489      490
     901      6      488      489      493
     902      6      488      489      494
     903      4      490      489      493
     904      4      490      489      494
     905      5      493      489      494
     906      4      489      490      495
     907      4      489      490      496
     908     13      489      490      613
     909      5      495      490      496
     910      6      495      490      613
     911      6      496      490      613
     912     14      498      497      534
     913     15      498      497      420
     914     15      534      497      420
     915     14      497      498      499
     916     16      497      498      535
     917     16      499      498      535
     918     14      498      499      500
     919     16      498      499      536
     920     16      500      499      536
     921     14      499      500      501
     922     14      499      500      533
     923     14      501      500      533
     924     15      500      501      502
     925     14      500      501      526
     926     15      502      501      526
     927     17      501      502      503
     928     18      502      503      504
     929     19      502      503      524
     930     20      504      503      524
     931     14      503      504      505
     932     16      503      504      537
     933     16      505      504      537
     934     14      504      505      506
     935     14      504      505      522
     936     14      506      505      522
     937     14      505      506      507
     938     14      505      506      521
     939     14      507      506      521
     940     14      506      507      508
     941     16      506      507      538
     942     16      508      507      538
     943     14      507      508      509
     944     16      507      508      539
     945     16      509      508      539
     946     18      508      509      510
     947     20      508      509      520
     948     19      510      509      520
     949     17      509      510      511
     950     15      510      511      512
     951     15      510      511      671
     952     14      512      511      671
     953     14      511      512      513
     954     15      511      512      519
     955     15      513      512      519
     956     14      512      513      514
     957     14      512      513      518
     958     14      514      513      518
     959     14      513      514      515
     960     16      513      514      540
     961     16      515      514      540
     962     14      514      515      516
     963     16      514      515      541
     964     16      516      515      541
     965     14      515      516      517
     966     16      515      516      542
     967     16      517      516      542
     968     14      516      517      518
     969     16      516      517      543
     970     16      518      517      543
     971     14      517      518      513
     972     16      517      518      544
     973     16      513      518      544
     974     17      512      519      520
     975     18      519      520      521
     976     19      519      520      509
     977     20      521      520      509
     978     14      520      521      506
     979     16      520      521      545
     980     16      506      521      545
     981     14      505      522      523
     982     16      505      522      546
     983     16      523      522      546
     984     14      522      523      524
     985     16      522      523      547
     986     16      524      523      547
     987     18      523      524      525
     988     20      523      524      503
     989     19      525      524      503
     990     17      524      525      526
     991     15      525      526      527
     992     15      525      526      501
     993     14      527      526      501
     994     14      526      527      528
     995     14      526      527      532
     996     14      528      527      532
     997     14      527      528      529
     998     16      527      528      548
     999     16      529      528      548
    1000     14      528      529      530
    1001     16      528      529      549
    1002     16      530      529      549
    1003     14      529      530      531
    1004     16      529      530      550
    1005     16      531      530      550
    1006     14      530      531      532
    1007     16      530      531      551
    1008     16      532      531      551
    1009     14      531      532      527
    1010     16      531      532      552
    1011     16      527      532      552
    1012     14      500      533      534
    1013     16      500      533      553
    1014     16      534      533      553
    1015     14      533      534      497
    1016     16      533      534      554
    1017     16      497      534      554
    1018     14      556      555      592
    1019     14      556      555      441
    1020     14      592      555      441
    1021     14      555      556      557
    1022     16      555      556      593
    1023     16      557      556      593
    1024     14      556      557      558
    1025     16      556      557      594
    1026     16      558      557      594
    1027     14      557      558      559
    1028     14      557      558      591
    1029     14      559      558      591
    1030     15      558      559      560
    1031     14      558      559      584
    1032     15      560      559      584
    1033     17      559      560      561
    1034     18      560      561      562
    1035     19      560      561      582
    1036     20      562      561      582
    1037     14      561      562      563
    1038     16      561      562      595
    1039     16      563      562      595
    1040     14      562      563      564
    1041     14      562      563      580
    1042     14      564      563      580
    1043     14      563      564      565
    1044     14      563      564      579
    1045     14      565      564      579
    1046     14      564      565      566
    1047     16      564      565      596
    1048     16      566      565      596
    1049     14      565      566      567
    1050     16      565      566      597
    1051     16      567      566      597
    1052     18      566      567      568
    1053     20      566      567      578
    1054     19      568      567      578
    1055     17      567      568      569
    1056     15      568      569      570
    1057     15      568      569      729
    1058     14      570      569      729
    1059     14      569      570      571
    1060     15      569      570      577
    1061     15      571      570      577
    1062     14      570      571      572
    1063     14      570      571      576
    1064     14      572      571      576
    1065     14      571      572      573
    1066     16      571      572      598
    1067     16      573      572      598
    1068     14      572      573      574
    1069     16      572      573      599
    1070     16      574      573      599
    1071     14      573      574      575
    1072     16      573      574      600
    1073     16      575      574      600
    1074     14      574      575      576
    1075     16      574      575      601
    1076     16      576      575      601
    1077     14      575      576      571
    1078     16      575      576      602
    1079     16      571      576      602
    1080     17      570      577      578
    1081     18      577      578      579
    1082     19      577      578      567
    1083     20      579      578      567
    1084     14      578      579      564
    1085     16      578      579      603
    1086     16      564      579      603
    1087     14      563      580      581
    1088     16      563      580      604
    1089     16      581      580      604
    1090     14      580      581      582
    1091     16      580      581      605
    1092     16      582      581      605
    1093     18      581      582      583
    1094     20      581      582      561
    1095     19      583      582      561
    1096     17      582      583      584
    1097     15      583      584      585
    1098     15      583      584      559
    1099     14      585      584      559
    1100     14      584      585      586
    1101     14      584      585      590
    1102     14      586      585      590
    1103     14      585      586      587
    1104     16      585      586      606
    1105     16      587      586      606
    1106     14      586      587      588
    1107     16      586      587      607
    1108     16      588      587      607
    1109     14      587      588      589
    1110     16      587      588      608
    1111     16      589      588      608
    1112     14      588      589      590
    1113     16      588      589      609
    1114     16      590      589      609
    1115     14      589      590      585
    1116     16      589      590      610
    1117     16      585      590      610
    1118     14      558      591      592
    1119     16      558      591      611
    1120     16      592      591      611
    1121     14      591      592      555
    1122     16      591      592      612
    1123     16      555      592      612
    1124     14      614      613      650
    1125     15      614      613      490
    1126     15      650      613      490
    1127     14      613      614      615
    1128     16      613      614      651
    1129     16      615      614      651
    1130     14      614      615      616
    1131     16      614      615      652
    1132     16      616      615      652
    1133     14      615      616      617
    1134     14      615      616      649
    1135     14      617      616      649
    1136     15      616      617      618
    1137     14      616      617      642
    1138     15      618      617      642
    1139     17      617      618      619
    1140     18      618      619      620
    1141     19      618      619      640
    1142     20      620      619      640
    1143     14      619      620      621
    1144     16      619      620      653
    1145     16      621      620      653
    1146     14      620      621      622
    1147     14      620      621      638
    1148     14      622      621      638
    1149     14      621      622      623
    1150     14      621      622      637
    1151     14      623      622      637
    1152     14      622      623      624
    1153     16      622      623      654
    1154     16      624      623      654
    1155     14      623      624      625
    1156     16      623      624      655
    1157     16      625      624      655
    1158     18      624      625      626
    1159     20      624      625      636
    1160     19      626      625      636
    1161     21      625      626      627
    1162     22      626      627      628
    1163     23      626      627      787
    1164     15      628      627      787
    1165     14      627      628      629
    1166     22      627      628      635
    1167     15      629      628      635
    1168     14      628      629      630
    1169     14      628      629      634
    1170     14      630      629      634
    1171     14      629      630      631
    1172     16      629      630      656
    1173     16      631      630      656
    1174     14      630      631      632
    1175     16      630      631      657
    1176     16      632      631      657
    1177     14      631      632      633
    1178     16      631      632      658
    1179     16      633      632      658
    1180     14      632      633      634
    1181     16      632      633      659
    1182     16      634      633      659
    1183     14      633      634      629
    1184     16      633      634      660
    1185     16      629      634      660
    1186     17      628      635      636
    1187     18      635      636      637
    1188     19      635      636      625
    1189     20      637      636      625
    1190     14      636      637      622
    1191     16      636      637      661
    1192     16      622      637      661
    1193     14      621      638      639
    1194     16      621      638      662
    1195     16      639      638      662
    1196     14      638      639      640
    1197     16      638      639      663
    1198     16      640      639      663
    1199     18      639      640      641
    1200     20      639      640      619
    1201     19      641      640      619
    1202     17      640      641      642
    1203     15      641      642      643
    1204     15      641      642      617
    1205     14      643      642      617
    1206     14      642      643      644
    1207     14      642      643      648
    1208     14      644      643      648
    1209     14      643      644      645
    1210     16      643      644      664
    1211     16      645      644      664
    1212     14      644      645      646
    1213     16      644      645      665
    1214     16      646      645      665
    1215     14      645      646      647
    1216     16      645      646      666
    1217     16      647      646      666
    1218     14      646      647      648
    1219     16      646      647      667
    1220     16      648      647      667
    1221     14      647      648      643
    1222     16      647      648      668
    1223     16      643      648      668
    1224     14      616      649      650
    1225     16      616      649      669
    1226     16      650      649      669
    1227     14      649      650      613
    1228     16      649      650      670
    1229     16      613      650      670
    1230     14      672      671      708
    1231     14      672      671      511
    1232     14      708      671      511
    1233     14      671      672      673
    1234     16      671      672      709
    1235     16      673      672      709
    1236     14      672      673      674
    1237     16      672      673      710
    1238     16      674      673      710
    1239     14      673      674      675
    1240     14      673      674      707
    1241     14      675      674      707
    1242     15      674      675      676
    1243     14      674      675      700
    1244     15      676      675      700
    1245     17      675      676      677
    1246     18      676      677      678
    1247     19      676      677      698
    1248     20      678      677      698
    1249     14      677      678      679
    1250     16      677      678      711
    1251     16      679      678      711
    1252     14      678      679      680
    1253     14      678      679      696
    1254     14      680      679      696
    1255     14      679      680      681
    1256     14      679      680      695
    1257     14      681      680      695
    1258     14      680      681      682
    1259     16      680      681      712
    1260     16      682      681      712
    1261     14      681      682      683
    1262     16      681      682      713
    1263     16      683      682      713
    1264     18      682      683      684
    1265     20      682      683      694
    1266     19      684      683      694
    1267     21      683      684      685
    1268     22      684      685      686
    1269     23      684      685      799
    1270     15      686      685      799
    1271     14      685      686      687
    1272     22      685      686      693
    1273     15      687      686      693
    1274     14      686      687      688
    1275     14      686      687      692
    1276     14      688      687      692
    1277     14      687      688      689
    1278     16      687      688      714
    1279     16      689      688      714
    1280     14      688      689      690
    1281     16      688      689      715
    1282     16      690      689      715
    1283     14      689      690      691
    1284     16      689      690      716
    1285     16      691      690      716
    1286     14      690      691      692
    1287     16      690      691      717
    1288     16      692      691      717
    1289     14      691      692      687
    1290     16      691      692      718
    1291     16      687      692      718
    1292     17      686      693      694
    1293     18      693      694      695
    1294     19      693      694      683
    1295     20      695      694      683
    1296     14      694      695      680
    1297     16      694      695      719
    1298     16      680      695      719
    1299     14      679      696      697
    1300     16      679      696      720
    1301     16      697      696      720
    1302     14      696      697      698
    1303     16      696      697      721
    1304     16      698      697      721
    1305     18      697      698      699
    1306     20      697      698      677
    1307     19      699      698      677
    1308     17      698      699      700
    1309     15      699      700      701
    1310     15      699      700      675
    1311     14      701      700      675
    1312     14      700      701      702
    1313     14      700      701      706
    1314     14      702      701      706
    1315     14      701      702      703
    1316     16      701      702      722
    1317     16      703      702      722
    1318     14      702      703      704
    1319     16      702      703      723
    1320     16      704      703      723
    1321     14      703      704      705
    1322     16      703      704      724
    1323     16      705      704      724
    1324     14      704      705      706
    1325     16      704      705      725
    1326     16      706      705      725
    1327     14      705      706      701
    1328     16      705      706      726
    1329     16      701      706      726
    1330     14      674      707      708
    1331     16      674      707      727
    1332     16      708      707      727
    1333     14      707      708      671
    1334     16      707      708      728
    1335     16      671      708      728
    1336     14      730      729      766
    1337     14      730      729      569
    1338     14      766      729      569
    1339     14      729      730      731
    1340     16      729      730      767
    1341     16      731      730      767
    1342     14      730      731      732
    1343     16      730      731      768
    1344     16      732      731      768
    1345     14      731      732      733
    1346     14      731      732      765
    1347     14      733      732      765
    1348     15      732      733      734
    1349     14      732      733      758
    1350     15      734      733      758
    1351     17      733      734      735
    1352     18      734      735      736
    1353     19      734      735      756
    1354     20      736      735      756
    1355     14      735      736      737
    1356     16      735      736      769
    1357     16      737      736      769
    1358     14      736      737      738
    1359     14      736      737      754
    1360     14      738      737      754
    1361     14      737      738      739
    1362     14      737      738      753
    1363     14      739      738      753
    1364     14      738      739      740
    1365     16      738      739      770
    1366     16      740      739      770
    1367     14      739      740      741
    1368     16      739      740      771
    1369     16      741      740      771
    1370     18      740      741      742
    1371     20      740      741      752
    1372     19      742      741      752
    1373     21      741      742      743
    1374     22      742      743      744
    1375     23      742      743      811
    1376     15      744      743      811
    1377     14      743      744      745
    1378     22      743      744      751
    1379     15      745      744      751
    1380     14      744      745      746
    1381     14      744      745      750
    1382     14      746      745      750
    1383     14      745      746      747
    1384     16      745      746      772
    1385     16      747      746      772
    1386     14      746      747      748
    1387     16      746      747      773
    1388     16      748      747      773
    1389     14      747      748      749
    1390     16      747      748      774
    1391     16      749      748      774
    1392     14      748      749      750
    1393     16      748      749      775
    1394     16      750      749      775
    1395     14      749      750      745
    1396     16      749      750      776
    1397     16      745      750      776
    1398     17      744      751      752
    1399     18      751      752      753
    1400     19      751      752      741
    1401     20      753      752      741
    1402     14      752      753      738
    1403     16      752      753      777
    1404     16      738      753      777
    1405     14      737      754      755
    1406     16      737      754      778
    1407     16      755      754      778
    1408     14      754      755      756
    1409     16      754      755      779
    1410     16      756      755      779
    1411     18      755      756      757
    1412     20      755      756      735
    1413     19      757      756      735
    1414     17      756      757      758
    1415     15      757      758      759
    1416     15      757      758      733
    1417     14      759      758      733
    1418     14      758      759      760
    1419     14      758      759      764
    1420     14      760      759      764
    1421     14      759      760      761
    1422     16      759      760      780
    1423     16      761      760      780
    1424     14      760      761      762
    1425     16      760      761      781
    1426     16      762      761      781
    1427     14      761      762      763
    1428     16      761      762      782
    1429     16      763      762      782
    1430     14      762      763      764
    1431     16      762      763      783
    1432     16      764      763      783
    1433     14      763      764      759
    1434     16      763      764      784
    1435     16      759      764      784
    1436     14      732      765      766
    1437     16      732      765      785
    1438     16      766      765      785
    1439     14      765      766      729
    1440     16      765      766      786
    1441     16      729      766      786
    1442      6      788      787      793
    1443      6      788      787      794
    1444     24      788      787      627
    1445      5      793      787      794
    1446      6      793      787      627
    1447      6      794      787      627
    1448      8      787      788      789
    1449      9      787      788      790
    1450     10      789      788      790
    1451     11      788      790      791
    1452     12      790      791      792
    1453      6      790      791      795
    1454      6      790      791      796
    1455      4      792      791      795
    1456      4      792      791      796
    1457      5      795      791      796
    1458      4      791      792      797
    1459      4      791      792      798
    1460     13      791      792      823
    1461      5      797      792      798
    1462      6      797      792      823
    1463      6      798      792      823
    1464      6      800      799      805
    1465      6      800      799      806
    1466     24      800      799      685
    1467      5      805      799      806
    1468      6      805      799      685
    1469      6      806      799      685
    1470      8      799      800      801
    1471      9      799      800      802
    1472     10      801      800      802
    1473     11      800      802      803
    1474     12      802      803      804
    1475      6      802      803      807
    1476      6      802      803      808
    1477      4      804      803      807
    1478      4      804      803      808
    1479      5      807      803      808
    1480      4      803      804      809
    1481      4      803      804      810
    1482      2      803      804      884
    1483      5      809      804      810
    1484      4      809      804      884
    1485      4      810      804      884
    1486      6      812      811      817
    1487      6      812      811      818
    1488     24      812      811      743
    1489      5      817      811      818
    1490      6      817      811      743
    1491      6      818      811      743
    1492      8      811      812      813
    1493      9      811      812      814
    1494     10      813      812      814
    1495     11      812      814      815
    1496     12      814      815      816
    1497      6      814      815      819
    1498      6      814      815      820
    1499      4      816      815      819
    1500      4      816      815      820
    1501      5      819      815      820
    1502      4      815      816      821
    1503      4      815      816      822
    1504      2      815      816      892
    1505      5      821      816      822
    1506      4      821      816      892
    1507      4      822      816      892
    1508     14      824      823      860
    1509     15      824      823      792
    1510     15      860      823      792
    1511     14      823      824      825
    1512     16      823      824      861
    1513     16      825      824      861
    1514     14      824      825      826
    1515     16      824      825      862
    1516     16      826      825      862
    1517     14      825      826      827
    1518     14      825      826      859
    1519     14      827      826      859
    1520     15      826      827      828
    1521     14      826      827      852
    1522     15      828      827      852
    1523     17      827      828      829
    1524     18      828      829      830
    1525     19      828      829      850
    1526     20      830      829      850
    1527     14      829      830      831
    1528     16      829      830      863
    1529     16      831      830      863
    1530     14      830      831      832
    1531     14      830      831      848
    1532     14      832      831      848
    1533     14      831      832      833
    1534     14      831      832      847
    1535     14      833      832      847
    1536     14      832      833      834
    1537     16      832      833      864
    1538     16      834      833      864
    1539     14      833      834      835
    1540     16      833      834      865
    1541     16      835      834      865
    1542     18      834      835      836
    1543     20      834      835      846
    1544     19      836      835      846
    1545     21      835      836      837
    1546     22      836      837      838
    1547     23      836      837      900
    1548     15      838      837      900
    1549     14      837      838      839
    1550     22      837      838      845
    1551     15      839      838      845
    1552     14      838      839      840
    1553     14      838      839      844
    1554     14      840      839      844
    1555     14      839      840      841
    1556     16      839      840      866
    1557     16      841      840      866
    1558     14      840      841      842
    1559     16      840      841      867
    1560     16      842      841      867
    1561     14      841      842      843
    1562     16      841      842      868
    1563     16      843      842      868
    1564     14      842      843      844
    1565     16      842      843      869
    1566     16      844      843      869
    1567     14      843      844      839
    1568     16      843      844      870
    1569     16      839      844      870
    1570     17      838      845      846
    1571     18      845      846      847
    1572     19      845      846      835
    1573     20      847      846      835
    1574     14      846      847      832
    1575     16      846      847      871
    1576     16      832      847      871
    1577     14      831      848      849
    1578     16      831      848      872
    1579     16      849      848      872
    1580     14      848      849      850
    1581     16      848      849      873
    1582     16      850      849      873
    1583     18      849      850      851
    1584     20      849      850      829
    1585     19      851      850      829
    1586     17      850      851      852
    1587     15      851      852      853
    1588     15      851      852      827
    1589     14      853      852      827
    1590     14      852      853      854
    1591     14      852      853      858
    1592     14      854      853      858
    1593     14      853      854      855
    1594     16      853      854      874
    1595     16      855      854      874
    1596     14      854      855      856
    1597     16      854      855      875
    1598     16      856      855      875
    1599     14      855      856      857
    1600     16      855      856      876
    1601     16      857      856      876
    1602     14      856      857      858
    1603     16      856      857      877
    1604     16      858      857      877
    1605     14      857      858      853
    1606     16      857      858      878
    1607     16      853      858      878
    1608     14      826      859      860
    1609     16      826      859      879
    1610     16      860      859      879
    1611     14      859      860      823
    1612     16      859      860      880
    1613     16      823      860      880
    1614      1      881      882      883
    1615      2      882      883      884
    1616      3      882      883      885
    1617      3      882      883      886
    1618      4      884      883      885
    1619      4      884      883      886
    1620      5      885      883      886
    1621      4      883      884      887
    1622      4      883      884      888
    1623      2      883      884      804
    1624      5      887      884      888
    1625      4      887      884      804
    1626      4      888      884      804
    1627      1      889      890      891
    1628      2      890      891      892
    1629      3      890      891      893
    1630      3      890      891      894
    1631      4      892      891      893
    1632      4      892      891      894
    1633      5      893      891      894
    1634      4      891      892      895
    1635      4      891      892      896
    1636      2      891      892      816
    1637      5      895      892      896
    1638      4      895      892      816
    1639      4      896      892      816
    1640      1      897      898      899
    1641      2      898      899      900
    1642      3      898      899      901
    1643      3      898      899      902
    1644      4      900      899      901
    1645      4      900      899      902
    1646      5      901      899      902
    1647      4      899      900      903
    1648      4      899      900      904
    1649     13      899      900      837
    1650      5      903      900      904
    1651      6      903      900      837
    1652      6      904      900      837

Dihedrals

       1      1        1        2        3        4
       2      1        1        2        3        5
       3      1        1        2        3        6
       4      2        2        3        4        7
       5      2        2        3        4        8
       6      3        2        3        4        9
       7      4        5        3        4        7
       8      4        5        3        4        8
       9      4        5        3        4        9
      10      4        6        3        4        7
      11      4        6        3        4        8
      12      4        6        3        4        9
      13      1       15        9       10       11
      14      5       15        9       10       12
      15      1       16        9       10       11
      16      5       16        9       10       12
      17      6        4        9       10       11
      18      7        4        9       10       12
      19      8        9       10       12       13
      20      9       11       10       12       13
      21     10       10       12       13       14
      22     11       10       12       13       17
      23     11       10       12       13       18
      24      4       12       13       14       19
      25      4       12       13       14       20
      26     12       12       13       14       21
      27      4       17       13       14       19
      28      4       17       13       14       20
      29      4       17       13       14       21
      30      4       18       13       14       19
      31      4       18       13       14       20
      32      4       18       13       14       21
      33     13        3        4        9       10
      34      4        3        4        9       15
      35      4        3        4        9       16
      36     14        7        4        9       10
      37      4        7        4        9       15
      38      4        7        4        9       16
      39     14        8        4        9       10
      40      4        8        4        9       15
      41      4        8        4        9       16
      42      1       27       21       22       23
      43      5       27       21       22       24
      44      1       28       21       22       23
      45      5       28       21       22       24
      46      6       14       21       22       23
      47      7       14       21       22       24
      48      8       21       22       24       25
      49      9       23       22       24       25
      50     10       22       24       25       26
      51     11       22       24       25       29
      52     11       22       24       25       30
      53      4       24       25       26       31
      54      4       24       25       26       32
      55     12       24       25       26       33
      56      4       29       25       26       31
      57      4       29       25       26       32
      58     15       29       25       26       33
      59      4       30       25       26       31
      60      4       30       25       26       32
      61     15       30       25       26       33
      62     13       13       14       21       22
      63      4       13       14       21       27
      64      4       13       14       21       28
      65     14       19       14       21       22
      66      4       19       14       21       27
      67      4       19       14       21       28
      68     14       20       14       21       22
      69      4       20       14       21       27
      70      4       20       14       21       28
      71     16       70       33       34       35
      72     16       70       33       34       71
      73     16       26       33       34       35
      74     16       26       33       34       71
      75     16       33       34       35       36
      76     16       33       34       35       72
      77     16       71       34       35       36
      78     16       71       34       35       72
      79     16       34       35       36       37
      80     16       34       35       36       69
      81     16       72       35       36       37
      82     16       72       35       36       69
      83     17       35       36       37       38
      84     18       35       36       37       62
      85     17       69       36       37       38
      86     18       69       36       37       62
      87     16       36       37       38       39
      88     16       62       37       38       39
      89     16       37       38       39       40
      90     16       37       38       39       60
      91     19       38       39       40       41
      92     19       38       39       40       73
      93     19       60       39       40       41
      94     16       60       39       40       73
      95     16       39       40       41       42
      96     16       39       40       41       58
      97     16       73       40       41       42
      98     16       73       40       41       58
      99     18       40       41       42       43
     100     18       40       41       42       57
     101     18       58       41       42       43
     102     18       58       41       42       57
     103     16       41       42       43       44
     104     16       41       42       43       74
     105     16       57       42       43       44
     106     16       57       42       43       74
     107     16       42       43       44       45
     108     16       42       43       44       75
     109     16       74       43       44       45
     110     16       74       43       44       75
     111     19       43       44       45       46
     112     16       43       44       45       56
     113     19       75       44       45       46
     114     16       75       44       45       56
     115     16       44       45       46       47
     116     16       56       45       46       47
     117     16       45       46       47       48
     118     16       45       46       47       91
     119     17       46       47       48       49
     120     20       46       47       48       55
     121     18       91       47       48       49
     122     17       91       47       48       55
     123     18       47       48       49       50
     124     18       47       48       49       54
     125     17       55       48       49       50
     126     17       55       48       49       54
     127     16       48       49       50       51
     128     16       48       49       50       76
     129     16       54       49       50       51
     130     16       54       49       50       76
     131     16       49       50       51       52
     132     16       49       50       51       77
     133     16       76       50       51       52
     134     16       76       50       51       77
     135     16       50       51       52       53
     136     16       50       51       52       78
     137     16       77       51       52       53
     138     16       77       51       52       78
     139     16       51       52       53       54
     140     16       51       52       53       79
     141     16       78       52       53       54
     142     16       78       52       53       79
     143     16       52       53       54       49
     144     16       52       53       54       80
     145     16       79       53       54       49
     146     16       79       53       54       80
     147     16       47       48       55       56
     148     16       49       48       55       56
     149     16       48       55       56       57
     150     16       48       55       56       45
     151     19       55       56       57       42
     152     19       55       56       57       81
     153     19       45       56       57       42
     154     16       45       56       57       81
     155     16       40       41       58       59
     156     16       40       41       58       82
     157     16       42       41       58       59
     158     16       42       41       58       82
     159     16       41       58       59       60
     160     16       41       58       59       83
     161     16       82       58       59       60
     162     16       82       58       59       83
     163     19       58       59       60       61
     164     16       58       59       60       39
     165     19       83       59       60       61
     166     16       83       59       60       39
     167     16       59       60       61       62
     168     16       39       60       61       62
     169     16       60       61       62       63
     170     16       60       61       62       37
     171     17       61       62       63       64
     172     17       61       62       63       68
     173     18       37       62       63       64
     174     18       37       62       63       68
     175     16       62       63       64       65
     176     16       62       63       64       84
     177     16       68       63       64       65
     178     16       68       63       64       84
     179     16       63       64       65       66
     180     16       63       64       65       85
     181     16       84       64       65       66
     182     16       84       64       65       85
     183     16       64       65       66       67
     184     16       64       65       66       86
     185     16       85       65       66       67
     186     16       85       65       66       86
     187     16       65       66       67       68
     188     16       65       66       67       87
     189     16       86       66       67       68
     190     16       86       66       67       87
     191     16       66       67       68       63
     192     16       66       67       68       88
     193     16       87       67       68       63
     194     16       87       67       68       88
     195     16       35       36       69       70
     196     16       35       36       69       89
     197     16       37       36       69       70
     198     16       37       36       69       89
     199     16       36       69       70       33
     200     16       36       69       70       90
     201     16       89       69       70       33
     202     16       89       69       70       90
     203     16       69       70       33       34
     204     16       69       70       33       26
     205     16       90       70       33       34
     206     16       90       70       33       26
     207     17       61       62       37       36
     208     20       61       62       37       38
     209     18       63       62       37       36
     210     17       63       62       37       38
     211     16       67       68       63       62
     212     16       67       68       63       64
     213     16       88       68       63       62
     214     16       88       68       63       64
     215     16       59       60       39       38
     216     16       59       60       39       40
     217     16       61       60       39       38
     218     16       61       60       39       40
     219     16       56       57       42       41
     220     16       56       57       42       43
     221     16       81       57       42       41
     222     16       81       57       42       43
     223     16       55       56       45       44
     224     16       55       56       45       46
     225     16       57       56       45       44
     226     16       57       56       45       46
     227     16       53       54       49       48
     228     16       53       54       49       50
     229     16       80       54       49       48
     230     16       80       54       49       50
     231     21       25       26       33       34
     232     21       25       26       33       70
     233      1       31       26       33       34
     234      1       31       26       33       70
     235      1       32       26       33       34
     236      1       32       26       33       70
     237     16      128       91       92       93
     238     16      128       91       92      129
     239     16       47       91       92       93
     240     16       47       91       92      129
     241     16       91       92       93       94
     242     16       91       92       93      130
     243     16      129       92       93       94
     244     16      129       92       93      130
     245     16       92       93       94       95
     246     16       92       93       94      127
     247     16      130       93       94       95
     248     16      130       93       94      127
     249     17       93       94       95       96
     250     18       93       94       95      120
     251     17      127       94       95       96
     252     18      127       94       95      120
     253     16       94       95       96       97
     254     16      120       95       96       97
     255     16       95       96       97       98
     256     16       95       96       97      118
     257     19       96       97       98       99
     258     19       96       97       98      131
     259     19      118       97       98       99
     260     16      118       97       98      131
     261     16       97       98       99      100
     262     16       97       98       99      116
     263     16      131       98       99      100
     264     16      131       98       99      116
     265     18       98       99      100      101
     266     18       98       99      100      115
     267     18      116       99      100      101
     268     18      116       99      100      115
     269     16       99      100      101      102
     270     16       99      100      101      132
     271     16      115      100      101      102
     272     16      115      100      101      132
     273     16      100      101      102      103
     274     16      100      101      102      133
     275     16      132      101      102      103
     276     16      132      101      102      133
     277     19      101      102      103      104
     278     16      101      102      103      114
     279     19      133      102      103      104
     280     16      133      102      103      114
     281     16      102      103      104      105
     282     16      114      103      104      105
     283     16      103      104      105      106
     284     16      103      104      105      149
     285     16      104      105      106      107
     286     20      104      105      106      113
     287     16      149      105      106      107
     288     16      149      105      106      113
     289     18      105      106      107      108
     290     18      105      106      107      112
     291     17      113      106      107      108
     292     17      113      106      107      112
     293     16      106      107      108      109
     294     16      106      107      108      134
     295     16      112      107      108      109
     296     16      112      107      108      134
     297     16      107      108      109      110
     298     16      107      108      109      135
     299     16      134      108      109      110
     300     16      134      108      109      135
     301     16      108      109      110      111
     302     16      108      109      110      136
     303     16      135      109      110      111
     304     16      135      109      110      136
     305     16      109      110      111      112
     306     16      109      110      111      137
     307     16      136      110      111      112
     308     16      136      110      111      137
     309     16      110      111      112      107
     310     16      110      111      112      138
     311     16      137      111      112      107
     312     16      137      111      112      138
     313     16      105      106      113      114
     314     16      107      106      113      114
     315     16      106      113      114      115
     316     16      106      113      114      103
     317     19      113      114      115      100
     318     19      113      114      115      139
     319     19      103      114      115      100
     320     16      103      114      115      139
     321     16       98       99      116      117
     322     16       98       99      116      140
     323     16      100       99      116      117
     324     16      100       99      116      140
     325     16       99      116      117      118
     326     16       99      116      117      141
     327     16      140      116      117      118
     328     16      140      116      117      141
     329     19      116      117      118      119
     330     16      116      117      118       97
     331     19      141      117      118      119
     332     16      141      117      118       97
     333     16      117      118      119      120
     334     16       97      118      119      120
     335     16      118      119      120      121
     336     16      118      119      120       95
     337     17      119      120      121      122
     338     17      119      120      121      126
     339     18       95      120      121      122
     340     18       95      120      121      126
     341     16      120      121      122      123
     342     16      120      121      122      142
     343     16      126      121      122      123
     344     16      126      121      122      142
     345     16      121      122      123      124
     346     16      121      122      123      143
     347     16      142      122      123      124
     348     16      142      122      123      143
     349     16      122      123      124      125
     350     16      122      123      124      144
     351     16      143      123      124      125
     352     16      143      123      124      144
     353     16      123      124      125      126
     354     16      123      124      125      145
     355     16      144      124      125      126
     356     16      144      124      125      145
     357     16      124      125      126      121
     358     16      124      125      126      146
     359     16      145      125      126      121
     360     16      145      125      126      146
     361     16       93       94      127      128
     362     16       93       94      127      147
     363     16       95       94      127      128
     364     16       95       94      127      147
     365     16       94      127      128       91
     366     16       94      127      128      148
     367     16      147      127      128       91
     368     16      147      127      128      148
     369     16      127      128       91       92
     370     16      127      128       91       47
     371     16      148      128       91       92
     372     16      148      128       91       47
     373     17      119      120       95       94
     374     20      119      120       95       96
     375     18      121      120       95       94
     376     17      121      120       95       96
     377     16      125      126      121      120
     378     16      125      126      121      122
     379     16      146      126      121      120
     380     16      146      126      121      122
     381     16      117      118       97       96
     382     16      117      118       97       98
     383     16      119      118       97       96
     384     16      119      118       97       98
     385     16      114      115      100       99
     386     16      114      115      100      101
     387     16      139      115      100       99
     388     16      139      115      100      101
     389     16      113      114      103      102
     390     16      113      114      103      104
     391     16      115      114      103      102
     392     16      115      114      103      104
     393     16      111      112      107      106
     394     16      111      112      107      108
     395     16      138      112      107      106
     396     16      138      112      107      108
     397     17       46       47       91       92
     398     17       46       47       91      128
     399     18       48       47       91       92
     400     18       48       47       91      128
     401      1      155      149      150      151
     402      5      155      149      150      152
     403      1      156      149      150      151
     404      5      156      149      150      152
     405     22      105      149      150      151
     406     22      105      149      150      152
     407      8      149      150      152      153
     408      9      151      150      152      153
     409     10      150      152      153      154
     410     11      150      152      153      157
     411     11      150      152      153      158
     412      4      152      153      154      159
     413      4      152      153      154      160
     414     12      152      153      154      161
     415      4      157      153      154      159
     416      4      157      153      154      160
     417     15      157      153      154      161
     418      4      158      153      154      159
     419      4      158      153      154      160
     420     15      158      153      154      161
     421     23      104      105      149      150
     422     24      104      105      149      155
     423     24      104      105      149      156
     424     25      106      105      149      150
     425      1      106      105      149      155
     426      1      106      105      149      156
     427     16      198      161      162      163
     428     16      198      161      162      199
     429     16      154      161      162      163
     430     16      154      161      162      199
     431     16      161      162      163      164
     432     16      161      162      163      200
     433     16      199      162      163      164
     434     16      199      162      163      200
     435     16      162      163      164      165
     436     16      162      163      164      197
     437     16      200      163      164      165
     438     16      200      163      164      197
     439     17      163      164      165      166
     440     18      163      164      165      190
     441     17      197      164      165      166
     442     18      197      164      165      190
     443     16      164      165      166      167
     444     16      190      165      166      167
     445     16      165      166      167      168
     446     16      165      166      167      188
     447     19      166      167      168      169
     448     19      166      167      168      201
     449     19      188      167      168      169
     450     16      188      167      168      201
     451     16      167      168      169      170
     452     16      167      168      169      186
     453     16      201      168      169      170
     454     16      201      168      169      186
     455     18      168      169      170      171
     456     18      168      169      170      185
     457     18      186      169      170      171
     458     18      186      169      170      185
     459     16      169      170      171      172
     460     16      169      170      171      202
     461     16      185      170      171      172
     462     16      185      170      171      202
     463     16      170      171      172      173
     464     16      170      171      172      203
     465     16      202      171      172      173
     466     16      202      171      172      203
     467     19      171      172      173      174
     468     16      171      172      173      184
     469     19      203      172      173      174
     470     16      203      172      173      184
     471     16      172      173      174      175
     472     16      184      173      174      175
     473     16      173      174      175      176
     474     16      173      174      175      219
     475     16      174      175      176      177
     476     20      174      175      176      183
     477     16      219      175      176      177
     478     16      219      175      176      183
     479     18      175      176      177      178
     480     18      175      176      177      182
     481     17      183      176      177      178
     482     17      183      176      177      182
     483     16      176      177      178      179
     484     16      176      177      178      204
     485     16      182      177      178      179
     486     16      182      177      178      204
     487     16      177      178      179      180
     488     16      177      178      179      205
     489     16      204      178      179      180
     490     16      204      178      179      205
     491     16      178      179      180      181
     492     16      178      179      180      206
     493     16      205      179      180      181
     494     16      205      179      180      206
     495     16      179      180      181      182
     496     16      179      180      181      207
     497     16      206      180      181      182
     498     16      206      180      181      207
     499     16      180      181      182      177
     500     16      180      181      182      208
     501     16      207      181      182      177
     502     16      207      181      182      208
     503     16      175      176      183      184
     504     16      177      176      183      184
     505     16      176      183      184      185
     506     16      176      183      184      173
     507     19      183      184      185      170
     508     19      183      184      185      209
     509     19      173      184      185      170
     510     16      173      184      185      209
     511     16      168      169      186      187
     512     16      168      169      186      210
     513     16      170      169      186      187
     514     16      170      169      186      210
     515     16      169      186      187      188
     516     16      169      186      187      211
     517     16      210      186      187      188
     518     16      210      186      187      211
     519     19      186      187      188      189
     520     16      186      187      188      167
     521     19      211      187      188      189
     522     16      211      187      188      167
     523     16      187      188      189      190
     524     16      167      188      189      190
     525     16      188      189      190      191
     526     16      188      189      190      165
     527     17      189      190      191      192
     528     17      189      190      191      196
     529     18      165      190      191      192
     530     18      165      190      191      196
     531     16      190      191      192      193
     532     16      190      191      192      212
     533     16      196      191      192      193
     534     16      196      191      192      212
     535     16      191      192      193      194
     536     16      191      192      193      213
     537     16      212      192      193      194
     538     16      212      192      193      213
     539     16      192      193      194      195
     540     16      192      193      194      214
     541     16      213      193      194      195
     542     16      213      193      194      214
     543     16      193      194      195      196
     544     16      193      194      195      215
     545     16      214      194      195      196
     546     16      214      194      195      215
     547     16      194      195      196      191
     548     16      194      195      196      216
     549     16      215      195      196      191
     550     16      215      195      196      216
     551     16      163      164      197      198
     552     16      163      164      197      217
     553     16      165      164      197      198
     554     16      165      164      197      217
     555     16      164      197      198      161
     556     16      164      197      198      218
     557     16      217      197      198      161
     558     16      217      197      198      218
     559     16      197      198      161      162
     560     16      197      198      161      154
     561     16      218      198      161      162
     562     16      218      198      161      154
     563     17      189      190      165      164
     564     20      189      190      165      166
     565     18      191      190      165      164
     566     17      191      190      165      166
     567     16      195      196      191      190
     568     16      195      196      191      192
     569     16      216      196      191      190
     570     16      216      196      191      192
     571     16      187      188      167      166
     572     16      187      188      167      168
     573     16      189      188      167      166
     574     16      189      188      167      168
     575     16      184      185      170      169
     576     16      184      185      170      171
     577     16      209      185      170      169
     578     16      209      185      170      171
     579     16      183      184      173      172
     580     16      183      184      173      174
     581     16      185      184      173      172
     582     16      185      184      173      174
     583     16      181      182      177      176
     584     16      181      182      177      178
     585     16      208      182      177      176
     586     16      208      182      177      178
     587     21      153      154      161      162
     588     21      153      154      161      198
     589      1      159      154      161      162
     590      1      159      154      161      198
     591      1      160      154      161      162
     592      1      160      154      161      198
     593      1      225      219      220      221
     594      5      225      219      220      222
     595      1      226      219      220      221
     596      5      226      219      220      222
     597     22      175      219      220      221
     598     22      175      219      220      222
     599      8      219      220      222      223
     600      9      221      220      222      223
     601     10      220      222      223      224
     602     11      220      222      223      227
     603     11      220      222      223      228
     604      4      222      223      224      229
     605      4      222      223      224      230
     606     12      222      223      224      231
     607      4      227      223      224      229
     608      4      227      223      224      230
     609      4      227      223      224      231
     610      4      228      223      224      229
     611      4      228      223      224      230
     612      4      228      223      224      231
     613     23      174      175      219      220
     614     24      174      175      219      225
     615     24      174      175      219      226
     616     25      176      175      219      220
     617      1      176      175      219      225
     618      1      176      175      219      226
     619      1      241      231      232      233
     620      1      241      231      232      240
     621      1      242      231      232      233
     622      1      242      231      232      240
     623     21      224      231      232      233
     624     21      224      231      232      240
     625     16      231      232      233      234
     626     16      231      232      233      235
     627     16      240      232      233      234
     628     16      240      232      233      235
     629      1      232      233      234      243
     630      1      232      233      234      244
     631     21      232      233      234      251
     632      1      235      233      234      243
     633      1      235      233      234      244
     634     21      235      233      234      251
     635     16      232      233      235      236
     636     16      232      233      235      245
     637     16      234      233      235      236
     638     16      234      233      235      245
     639     16      233      235      236      237
     640     16      233      235      236      238
     641     16      245      235      236      237
     642     16      245      235      236      238
     643      1      235      236      237      246
     644      1      235      236      237      247
     645     21      235      236      237      263
     646      1      238      236      237      246
     647      1      238      236      237      247
     648     21      238      236      237      263
     649     16      235      236      238      239
     650     16      235      236      238      240
     651     16      237      236      238      239
     652     16      237      236      238      240
     653      1      236      238      239      248
     654      1      236      238      239      249
     655     25      236      238      239      275
     656      1      240      238      239      248
     657      1      240      238      239      249
     658     25      240      238      239      275
     659     16      236      238      240      232
     660     16      236      238      240      250
     661     16      239      238      240      232
     662     16      239      238      240      250
     663     16      238      240      232      231
     664     16      238      240      232      233
     665     16      250      240      232      231
     666     16      250      240      232      233
     667      1      223      224      231      232
     668      4      223      224      231      241
     669      4      223      224      231      242
     670     15      229      224      231      232
     671      4      229      224      231      241
     672      4      229      224      231      242
     673     15      230      224      231      232
     674      4      230      224      231      241
     675      4      230      224      231      242
     676      1      257      251      252      253
     677      5      257      251      252      254
     678      1      258      251      252      253
     679      5      258      251      252      254
     680      6      234      251      252      253
     681      7      234      251      252      254
     682      8      251      252      254      255
     683      9      253      252      254      255
     684     10      252      254      255      256
     685     11      252      254      255      259
     686     11      252      254      255      260
     687      4      254      255      256      261
     688      4      254      255      256      262
     689     12      254      255      256      333
     690      4      259      255      256      261
     691      4      259      255      256      262
     692      4      259      255      256      333
     693      4      260      255      256      261
     694      4      260      255      256      262
     695      4      260      255      256      333
     696     13      233      234      251      252
     697     15      233      234      251      257
     698     15      233      234      251      258
     699     14      243      234      251      252
     700      4      243      234      251      257
     701      4      243      234      251      258
     702     14      244      234      251      252
     703      4      244      234      251      257
     704      4      244      234      251      258
     705      1      269      263      264      265
     706      5      269      263      264      266
     707      1      270      263      264      265
     708      5      270      263      264      266
     709      6      237      263      264      265
     710      7      237      263      264      266
     711      8      263      264      266      267
     712      9      265      264      266      267
     713     10      264      266      267      268
     714     11      264      266      267      271
     715     11      264      266      267      272
     716      4      266      267      268      273
     717      4      266      267      268      274
     718     12      266      267      268      345
     719      4      271      267      268      273
     720      4      271      267      268      274
     721      4      271      267      268      345
     722      4      272      267      268      273
     723      4      272      267      268      274
     724      4      272      267      268      345
     725     13      236      237      263      264
     726     15      236      237      263      269
     727     15      236      237      263      270
     728     14      246      237      263      264
     729      4      246      237      263      269
     730      4      246      237      263      270
     731     14      247      237      263      264
     732      4      247      237      263      269
     733      4      247      237      263      270
     734     16      312      275      276      277
     735     16      312      275      276      313
     736     16      239      275      276      277
     737     16      239      275      276      313
     738     16      275      276      277      278
     739     16      275      276      277      314
     740     16      313      276      277      278
     741     16      313      276      277      314
     742     16      276      277      278      279
     743     16      276      277      278      311
     744     16      314      277      278      279
     745     16      314      277      278      311
     746     17      277      278      279      280
     747     18      277      278      279      304
     748     17      311      278      279      280
     749     18      311      278      279      304
     750     16      278      279      280      281
     751     16      304      279      280      281
     752     16      279      280      281      282
     753     16      279      280      281      302
     754     19      280      281      282      283
     755     19      280      281      282      315
     756     19      302      281      282      283
     757     16      302      281      282      315
     758     16      281      282      283      284
     759     16      281      282      283      300
     760     16      315      282      283      284
     761     16      315      282      283      300
     762     18      282      283      284      285
     763     18      282      283      284      299
     764     18      300      283      284      285
     765     18      300      283      284      299
     766     16      283      284      285      286
     767     16      283      284      285      316
     768     16      299      284      285      286
     769     16      299      284      285      316
     770     16      284      285      286      287
     771     16      284      285      286      317
     772     16      316      285      286      287
     773     16      316      285      286      317
     774     19      285      286      287      288
     775     16      285      286      287      298
     776     19      317      286      287      288
     777     16      317      286      287      298
     778     16      286      287      288      289
     779     16      298      287      288      289
     780     16      287      288      289      290
     781     16      287      288      289      357
     782     17      288      289      290      291
     783     20      288      289      290      297
     784     18      357      289      290      291
     785     17      357      289      290      297
     786     18      289      290      291      292
     787     18      289      290      291      296
     788     17      297      290      291      292
     789     17      297      290      291      296
     790     16      290      291      292      293
     791     16      290      291      292      318
     792     16      296      291      292      293
     793     16      296      291      292      318
     794     16      291      292      293      294
     795     16      291      292      293      319
     796     16      318      292      293      294
     797     16      318      292      293      319
     798     16      292      293      294      295
     799     16      292      293      294      320
     800     16      319      293      294      295
     801     16      319      293      294      320
     802     16      293      294      295      296
     803     16      293      294      295      321
     804     16      320      294      295      296
     805     16      320      294      295      321
     806     16      294      295      296      291
     807     16      294      295      296      322
     808     16      321      295      296      291
     809     16      321      295      296      322
     810     16      289      290      297      298
     811     16      291      290      297      298
     812     16      290      297      298      299
     813     16      290      297      298      287
     814     19      297      298      299      284
     815     19      297      298      299      323
     816     19      287      298      299      284
     817     16      287      298      299      323
     818     16      282      283      300      301
     819     16      282      283      300      324
     820     16      284      283      300      301
     821     16      284      283      300      324
     822     16      283      300      301      302
     823     16      283      300      301      325
     824     16      324      300      301      302
     825     16      324      300      301      325
     826     19      300      301      302      303
     827     16      300      301      302      281
     828     19      325      301      302      303
     829     16      325      301      302      281
     830     16      301      302      303      304
     831     16      281      302      303      304
     832     16      302      303      304      305
     833     16      302      303      304      279
     834     17      303      304      305      306
     835     17      303      304      305      310
     836     18      279      304      305      306
     837     18      279      304      305      310
     838     16      304      305      306      307
     839     16      304      305      306      326
     840     16      310      305      306      307
     841     16      310      305      306      326
     842     16      305      306      307      308
     843     16      305      306      307      327
     844     16      326      306      307      308
     845     16      326      306      307      327
     846     16      306      307      308      309
     847     16      306      307      308      328
     848     16      327      307      308      309
     849     16      327      307      308      328
     850     16      307      308      309      310
     851     16      307      308      309      329
     852     16      328      308      309      310
     853     16      328      308      309      329
     854     16      308      309      310      305
     855     16      308      309      310      330
     856     16      329      309      310      305
     857     16      329      309      310      330
     858     16      277      278      311      312
     859     16      277      278      311      331
     860     16      279      278      311      312
     861     16      279      278      311      331
     862     16      278      311      312      275
     863     16      278      311      312      332
     864     16      331      311      312      275
     865     16      331      311      312      332
     866     16      311      312      275      276
     867     16      311      312      275      239
     868     16      332      312      275      276
     869     16      332      312      275      239
     870     17      303      304      279      278
     871     20      303      304      279      280
     872     18      305      304      279      278
     873     17      305      304      279      280
     874     16      309      310      305      304
     875     16      309      310      305      306
     876     16      330      310      305      304
     877     16      330      310      305      306
     878     16      301      302      281      280
     879     16      301      302      281      282
     880     16      303      302      281      280
     881     16      303      302      281      282
     882     16      298      299      284      283
     883     16      298      299      284      285
     884     16      323      299      284      283
     885     16      323      299      284      285
     886     16      297      298      287      286
     887     16      297      298      287      288
     888     16      299      298      287      286
     889     16      299      298      287      288
     890     16      295      296      291      290
     891     16      295      296      291      292
     892     16      322      296      291      290
     893     16      322      296      291      292
     894     25      238      239      275      276
     895     25      238      239      275      312
     896      1      248      239      275      276
     897      1      248      239      275      312
     898      1      249      239      275      276
     899      1      249      239      275      312
     900      1      339      333      334      335
     901      5      339      333      334      336
     902      1      340      333      334      335
     903      5      340      333      334      336
     904      6      256      333      334      335
     905      7      256      333      334      336
     906      8      333      334      336      337
     907      9      335      334      336      337
     908     10      334      336      337      338
     909     11      334      336      337      341
     910     11      334      336      337      342
     911      4      336      337      338      343
     912      4      336      337      338      344
     913     12      336      337      338      415
     914      4      341      337      338      343
     915      4      341      337      338      344
     916      4      341      337      338      415
     917      4      342      337      338      343
     918      4      342      337      338      344
     919      4      342      337      338      415
     920     13      255      256      333      334
     921      4      255      256      333      339
     922      4      255      256      333      340
     923     14      261      256      333      334
     924      4      261      256      333      339
     925      4      261      256      333      340
     926     14      262      256      333      334
     927      4      262      256      333      339
     928      4      262      256      333      340
     929      1      351      345      346      347
     930      5      351      345      346      348
     931      1      352      345      346      347
     932      5      352      345      346      348
     933      6      268      345      346      347
     934      7      268      345      346      348
     935      8      345      346      348      349
     936      9      347      346      348      349
     937     10      346      348      349      350
     938     11      346      348      349      353
     939     11      346      348      349      354
     940      4      348      349      350      355
     941      4      348      349      350      356
     942     12      348      349      350      427
     943      4      353      349      350      355
     944      4      353      349      350      356
     945     15      353      349      350      427
     946      4      354      349      350      355
     947      4      354      349      350      356
     948     15      354      349      350      427
     949     13      267      268      345      346
     950      4      267      268      345      351
     951      4      267      268      345      352
     952     14      273      268      345      346
     953      4      273      268      345      351
     954      4      273      268      345      352
     955     14      274      268      345      346
     956      4      274      268      345      351
     957      4      274      268      345      352
     958     16      394      357      358      359
     959     16      394      357      358      395
     960     16      289      357      358      359
     961     16      289      357      358      395
     962     16      357      358      359      360
     963     16      357      358      359      396
     964     16      395      358      359      360
     965     16      395      358      359      396
     966     16      358      359      360      361
     967     16      358      359      360      393
     968     16      396      359      360      361
     969     16      396      359      360      393
     970     17      359      360      361      362
     971     18      359      360      361      386
     972     17      393      360      361      362
     973     18      393      360      361      386
     974     16      360      361      362      363
     975     16      386      361      362      363
     976     16      361      362      363      364
     977     16      361      362      363      384
     978     19      362      363      364      365
     979     19      362      363      364      397
     980     19      384      363      364      365
     981     16      384      363      364      397
     982     16      363      364      365      366
     983     16      363      364      365      382
     984     16      397      364      365      366
     985     16      397      364      365      382
     986     18      364      365      366      367
     987     18      364      365      366      381
     988     18      382      365      366      367
     989     18      382      365      366      381
     990     16      365      366      367      368
     991     16      365      366      367      398
     992     16      381      366      367      368
     993     16      381      366      367      398
     994     16      366      367      368      369
     995     16      366      367      368      399
     996     16      398      367      368      369
     997     16      398      367      368      399
     998     19      367      368      369      370
     999     16      367      368      369      380
    1000     19      399      368      369      370
    1001     16      399      368      369      380
    1002     16      368      369      370      371
    1003     16      380      369      370      371
    1004     16      369      370      371      372
    1005     16      369      370      371      485
    1006     16      370      371      372      373
    1007     20      370      371      372      379
    1008     16      485      371      372      373
    1009     16      485      371      372      379
    1010     18      371      372      373      374
    1011     18      371      372      373      378
    1012     17      379      372      373      374
    1013     17      379      372      373      378
    1014     16      372      373      374      375
    1015     16      372      373      374      400
    1016     16      378      373      374      375
    1017     16      378      373      374      400
    1018     16      373      374      375      376
    1019     16      373      374      375      401
    1020     16      400      374      375      376
    1021     16      400      374      375      401
    1022     16      374      375      376      377
    1023     16      374      375      376      402
    1024     16      401      375      376      377
    1025     16      401      375      376      402
    1026     16      375      376      377      378
    1027     16      375      376      377      403
    1028     16      402      376      377      378
    1029     16      402      376      377      403
    1030     16      376      377      378      373
    1031     16      376      377      378      404
    1032     16      403      377      378      373
    1033     16      403      377      378      404
    1034     16      371      372      379      380
    1035     16      373      372      379      380
    1036     16      372      379      380      381
    1037     16      372      379      380      369
    1038     19      379      380      381      366
    1039     19      379      380      381      405
    1040     19      369      380      381      366
    1041     16      369      380      381      405
    1042     16      364      365      382      383
    1043     16      364      365      382      406
    1044     16      366      365      382      383
    1045     16      366      365      382      406
    1046     16      365      382      383      384
    1047     16      365      382      383      407
    1048     16      406      382      383      384
    1049     16      406      382      383      407
    1050     19      382      383      384      385
    1051     16      382      383      384      363
    1052     19      407      383      384      385
    1053     16      407      383      384      363
    1054     16      383      384      385      386
    1055     16      363      384      385      386
    1056     16      384      385      386      387
    1057     16      384      385      386      361
    1058     17      385      386      387      388
    1059     17      385      386      387      392
    1060     18      361      386      387      388
    1061     18      361      386      387      392
    1062     16      386      387      388      389
    1063     16      386      387      388      408
    1064     16      392      387      388      389
    1065     16      392      387      388      408
    1066     16      387      388      389      390
    1067     16      387      388      389      409
    1068     16      408      388      389      390
    1069     16      408      388      389      409
    1070     16      388      389      390      391
    1071     16      388      389      390      410
    1072     16      409      389      390      391
    1073     16      409      389      390      410
    1074     16      389      390      391      392
    1075     16      389      390      391      411
    1076     16      410      390      391      392
    1077     16      410      390      391      411
    1078     16      390      391      392      387
    1079     16      390      391      392      412
    1080     16      411      391      392      387
    1081     16      411      391      392      412
    1082     16      359      360      393      394
    1083     16      359      360      393      413
    1084     16      361      360      393      394
    1085     16      361      360      393      413
    1086     16      360      393      394      357
    1087     16      360      393      394      414
    1088     16      413      393      394      357
    1089     16      413      393      394      414
    1090     16      393      394      357      358
    1091     16      393      394      357      289
    1092     16      414      394      357      358
    1093     16      414      394      357      289
    1094     17      385      386      361      360
    1095     20      385      386      361      362
    1096     18      387      386      361      360
    1097     17      387      386      361      362
    1098     16      391      392      387      386
    1099     16      391      392      387      388
    1100     16      412      392      387      386
    1101     16      412      392      387      388
    1102     16      383      384      363      362
    1103     16      383      384      363      364
    1104     16      385      384      363      362
    1105     16      385      384      363      364
    1106     16      380      381      366      365
    1107     16      380      381      366      367
    1108     16      405      381      366      365
    1109     16      405      381      366      367
    1110     16      379      380      369      368
    1111     16      379      380      369      370
    1112     16      381      380      369      368
    1113     16      381      380      369      370
    1114     16      377      378      373      372
    1115     16      377      378      373      374
    1116     16      404      378      373      372
    1117     16      404      378      373      374
    1118     17      288      289      357      358
    1119     17      288      289      357      394
    1120     18      290      289      357      358
    1121     18      290      289      357      394
    1122      1      421      415      416      417
    1123      5      421      415      416      418
    1124      1      422      415      416      417
    1125      5      422      415      416      418
    1126      6      338      415      416      417
    1127      7      338      415      416      418
    1128      8      415      416      418      419
    1129      9      417      416      418      419
    1130     10      416      418      419      420
    1131     11      416      418      419      423
    1132     11      416      418      419      424
    1133      4      418      419      420      425
    1134      4      418      419      420      426
    1135     12      418      419      420      497
    1136      4      423      419      420      425
    1137      4      423      419      420      426
    1138     15      423      419      420      497
    1139      4      424      419      420      425
    1140      4      424      419      420      426
    1141     15      424      419      420      497
    1142     13      337      338      415      416
    1143      4      337      338      415      421
    1144      4      337      338      415      422
    1145     14      343      338      415      416
    1146      4      343      338      415      421
    1147      4      343      338      415      422
    1148     14      344      338      415      416
    1149      4      344      338      415      421
    1150      4      344      338      415      422
    1151     16      464      427      428      429
    1152     16      464      427      428      465
    1153     16      350      427      428      429
    1154     16      350      427      428      465
    1155     16      427      428      429      430
    1156     16      427      428      429      466
    1157     16      465      428      429      430
    1158     16      465      428      429      466
    1159     16      428      429      430      431
    1160     16      428      429      430      463
    1161     16      466      429      430      431
    1162     16      466      429      430      463
    1163     17      429      430      431      432
    1164     18      429      430      431      456
    1165     17      463      430      431      432
    1166     18      463      430      431      456
    1167     16      430      431      432      433
    1168     16      456      431      432      433
    1169     16      431      432      433      434
    1170     16      431      432      433      454
    1171     19      432      433      434      435
    1172     19      432      433      434      467
    1173     19      454      433      434      435
    1174     16      454      433      434      467
    1175     16      433      434      435      436
    1176     16      433      434      435      452
    1177     16      467      434      435      436
    1178     16      467      434      435      452
    1179     18      434      435      436      437
    1180     18      434      435      436      451
    1181     18      452      435      436      437
    1182     18      452      435      436      451
    1183     16      435      436      437      438
    1184     16      435      436      437      468
    1185     16      451      436      437      438
    1186     16      451      436      437      468
    1187     16      436      437      438      439
    1188     16      436      437      438      469
    1189     16      468      437      438      439
    1190     16      468      437      438      469
    1191     19      437      438      439      440
    1192     16      437      438      439      450
    1193     19      469      438      439      440
    1194     16      469      438      439      450
    1195     16      438      439      440      441
    1196     16      450      439      440      441
    1197     16      439      440      441      442
    1198     16      439      440      441      555
    1199     17      440      441      442      443
    1200     20      440      441      442      449
    1201     18      555      441      442      443
    1202     17      555      441      442      449
    1203     18      441      442      443      444
    1204     18      441      442      443      448
    1205     17      449      442      443      444
    1206     17      449      442      443      448
    1207     16      442      443      444      445
    1208     16      442      443      444      470
    1209     16      448      443      444      445
    1210     16      448      443      444      470
    1211     16      443      444      445      446
    1212     16      443      444      445      471
    1213     16      470      444      445      446
    1214     16      470      444      445      471
    1215     16      444      445      446      447
    1216     16      444      445      446      472
    1217     16      471      445      446      447
    1218     16      471      445      446      472
    1219     16      445      446      447      448
    1220     16      445      446      447      473
    1221     16      472      446      447      448
    1222     16      472      446      447      473
    1223     16      446      447      448      443
    1224     16      446      447      448      474
    1225     16      473      447      448      443
    1226     16      473      447      448      474
    1227     16      441      442      449      450
    1228     16      443      442      449      450
    1229     16      442      449      450      451
    1230     16      442      449      450      439
    1231     19      449      450      451      436
    1232     19      449      450      451      475
    1233     19      439      450      451      436
    1234     16      439      450      451      475
    1235     16      434      435      452      453
    1236     16      434      435      452      476
    1237     16      436      435      452      453
    1238     16      436      435      452      476
    1239     16      435      452      453      454
    1240     16      435      452      453      477
    1241     16      476      452      453      454
    1242     16      476      452      453      477
    1243     19      452      453      454      455
    1244     16      452      453      454      433
    1245     19      477      453      454      455
    1246     16      477      453      454      433
    1247     16      453      454      455      456
    1248     16      433      454      455      456
    1249     16      454      455      456      457
    1250     16      454      455      456      431
    1251     17      455      456      457      458
    1252     17      455      456      457      462
    1253     18      431      456      457      458
    1254     18      431      456      457      462
    1255     16      456      457      458      459
    1256     16      456      457      458      478
    1257     16      462      457      458      459
    1258     16      462      457      458      478
    1259     16      457      458      459      460
    1260     16      457      458      459      479
    1261     16      478      458      459      460
    1262     16      478      458      459      479
    1263     16      458      459      460      461
    1264     16      458      459      460      480
    1265     16      479      459      460      461
    1266     16      479      459      460      480
    1267     16      459      460      461      462
    1268     16      459      460      461      481
    1269     16      480      460      461      462
    1270     16      480      460      461      481
    1271     16      460      461      462      457
    1272     16      460      461      462      482
    1273     16      481      461      462      457
    1274     16      481      461      462      482
    1275     16      429      430      463      464
    1276     16      429      430      463      483
    1277     16      431      430      463      464
    1278     16      431      430      463      483
    1279     16      430      463      464      427
    1280     16      430      463      464      484
    1281     16      483      463      464      427
    1282     16      483      463      464      484
    1283     16      463      464      427      428
    1284     16      463      464      427      350
    1285     16      484      464      427      428
    1286     16      484      464      427      350
    1287     17      455      456      431      430
    1288     20      455      456      431      432
    1289     18      457      456      431      430
    1290     17      457      456      431      432
    1291     16      461      462      457      456
    1292     16      461      462      457      458
    1293     16      482      462      457      456
    1294     16      482      462      457      458
    1295     16      453      454      433      432
    1296     16      453      454      433      434
    1297     16      455      454      433      432
    1298     16      455      454      433      434
    1299     16      450      451      436      435
    1300     16      450      451      436      437
    1301     16      475      451      436      435
    1302     16      475      451      436      437
    1303     16      449      450      439      438
    1304     16      449      450      439      440
    1305     16      451      450      439      438
    1306     16      451      450      439      440
    1307     16      447      448      443      442
    1308     16      447      448      443      444
    1309     16      474      448      443      442
    1310     16      474      448      443      444
    1311     21      349      350      427      428
    1312     21      349      350      427      464
    1313      1      355      350      427      428
    1314      1      355      350      427      464
    1315      1      356      350      427      428
    1316      1      356      350      427      464
    1317      1      491      485      486      487
    1318      5      491      485      486      488
    1319      1      492      485      486      487
    1320      5      492      485      486      488
    1321     22      371      485      486      487
    1322     22      371      485      486      488
    1323      8      485      486      488      489
    1324      9      487      486      488      489
    1325     10      486      488      489      490
    1326     11      486      488      489      493
    1327     11      486      488      489      494
    1328      4      488      489      490      495
    1329      4      488      489      490      496
    1330     12      488      489      490      613
    1331      4      493      489      490      495
    1332      4      493      489      490      496
    1333     15      493      489      490      613
    1334      4      494      489      490      495
    1335      4      494      489      490      496
    1336     15      494      489      490      613
    1337     23      370      371      485      486
    1338     24      370      371      485      491
    1339     24      370      371      485      492
    1340     25      372      371      485      486
    1341      1      372      371      485      491
    1342      1      372      371      485      492
    1343     16      534      497      498      499
    1344     16      534      497      498      535
    1345     16      420      497      498      499
    1346     16      420      497      498      535
    1347     16      497      498      499      500
    1348     16      497      498      499      536
    1349     16      535      498      499      500
    1350     16      535      498      499      536
    1351     16      498      499      500      501
    1352     16      498      499      500      533
    1353     16      536      499      500      501
    1354     16      536      499      500      533
    1355     17      499      500      501      502
    1356     18      499      500      501      526
    1357     17      533      500      501      502
    1358     18      533      500      501      526
    1359     16      500      501      502      503
    1360     16      526      501      502      503
    1361     16      501      502      503      504
    1362     16      501      502      503      524
    1363     19      502      503      504      505
    1364     19      502      503      504      537
    1365     19      524      503      504      505
    1366     16      524      503      504      537
    1367     16      503      504      505      506
    1368     16      503      504      505      522
    1369     16      537      504      505      506
    1370     16      537      504      505      522
    1371     18      504      505      506      507
    1372     18      504      505      506      521
    1373     18      522      505      506      507
    1374     18      522      505      506      521
    1375     16      505      506      507      508
    1376     16      505      506      507      538
    1377     16      521      506      507      508
    1378     16      521      506      507      538
    1379     16      506      507      508      509
    1380     16      506      507      508      539
    1381     16      538      507      508      509
    1382     16      538      507      508      539
    1383     19      507      508      509      510
    1384     16      507      508      509      520
    1385     19      539      508      509      510
    1386     16      539      508      509      520
    1387     16      508      509      510      511
    1388     16      520      509      510      511
    1389     16      509      510      511      512
    1390     16      509      510      511      671
    1391     17      510      511      512      513
    1392     20      510      511      512      519
    1393     18      671      511      512      513
    1394     17      671      511      512      519
    1395     18      511      512      513      514
    1396     18      511      512      513      518
    1397     17      519      512      513      514
    1398     17      519      512      513      518
    1399     16      512      513      514      515
    1400     16      512      513      514      540
    1401     16      518      513      514      515
    1402     16      518      513      514      540
    1403     16      513      514      515      516
    1404     16      513      514      515      541
    1405     16      540      514      515      516
    1406     16      540      514      515      541
    1407     16      514      515      516      517
    1408     16      514      515      516      542
    1409     16      541      515      516      517
    1410     16      541      515      516      542
    1411     16      515      516      517      518
    1412     16      515      516      517      543
    1413     16      542      516      517      518
    1414     16      542      516      517      543
    1415     16      516      517      518      513
    1416     16      516      517      518      544
    1417     16      543      517      518      513
    1418     16      543      517      518      544
    1419     16      511      512      519      520
    1420     16      513      512      519      520
    1421     16      512      519      520      521
    1422     16      512      519      520      509
    1423     19      519      520      521      506
    1424     19      519      520      521      545
    1425     19      509      520      521      506
    1426     16      509      520      521      545
    1427     16      504      505      522      523
    1428     16      504      505      522      546
    1429     16      506      505      522      523
    1430     16      506      505      522      546
    1431     16      505      522      523      524
    1432     16      505      522      523      547
    1433     16      546      522      523      524
    1434     16      546      522      523      547
    1435     19      522      523      524      525
    1436     16      522      523      524      503
    1437     19      547      523      524      525
    1438     16      547      523      524      503
    1439     16      523      524      525      526
    1440     16      503      524      525      526
    1441     16      524      525      526      527
    1442     16      524      525      526      501
    1443     17      525      526      527      528
    1444     17      525      526      527      532
    1445     18      501      526      527      528
    1446     18      501      526      527      532
    1447     16      526      527      528      529
    1448     16      526      527      528      548
    1449     16      532      527      528      529
    1450     16      532      527      528      548
    1451     16      527      528      529      530
    1452     16      527      528      529      549
    1453     16      548      528      529      530
    1454     16      548      528      529      549
    1455     16      528      529      530      531
    1456     16      528      529      530      550
    1457     16      549      529      530      531
    1458     16      549      529      530      550
    1459     16      529      530      531      532
    1460     16      529      530      531      551
    1461     16      550      530      531      532
    1462     16      550      530      531      551
    1463     16      530      531      532      527
    1464     16      530      531      532      552
    1465     16      551      531      532      527
    1466     16      551      531      532      552
    1467     16      499      500      533      534
    1468     16      499      500      533      553
    1469     16      501      500      533      534
    1470     16      501      500      533      553
    1471     16      500      533      534      497
    1472     16      500      533      534      554
    1473     16      553      533      534      497
    1474     16      553      533      534      554
    1475     16      533      534      497      498
    1476     16      533      534      497      420
    1477     16      554      534      497      498
    1478     16      554      534      497      420
    1479     17      525      526      501      500
    1480     20      525      526      501      502
    1481     18      527      526      501      500
    1482     17      527      526      501      502
    1483     16      531      532      527      526
    1484     16      531      532      527      528
    1485     16      552      532      527      526
    1486     16      552      532      527      528
    1487     16      523      524      503      502
    1488     16      523      524      503      504
    1489     16      525      524      503      502
    1490     16      525      524      503      504
    1491     16      520      521      506      505
    1492     16      520      521      506      507
    1493     16      545      521      506      505
    1494     16      545      521      506      507
    1495     16      519      520      509      508
    1496     16      519      520      509      510
    1497     16      521      520      509      508
    1498     16      521      520      509      510
    1499     16      517      518      513      512
    1500     16      517      518      513      514
    1501     16      544      518      513      512
    1502     16      544      518      513      514
    1503     21      419      420      497      498
    1504     21      419      420      497      534
    1505      1      425      420      497      498
    1506      1      425      420      497      534
    1507      1      426      420      497      498
    1508      1      426      420      497      534
    1509     16      592      555      556      557
    1510     16      592      555      556      593
    1511     16      441      555      556      557
    1512     16      441      555      556      593
    1513     16      555      556      557      558
    1514     16      555      556      557      594
    1515     16      593      556      557      558
    1516     16      593      556      557      594
    1517     16      556      557      558      559
    1518     16      556      557      558      591
    1519     16      594      557      558      559
    1520     16      594      557      558      591
    1521     17      557      558      559      560
    1522     18      557      558      559      584
    1523     17      591      558      559      560
    1524     18      591      558      559      584
    1525     16      558      559      560      561
    1526     16      584      559      560      561
    1527     16      559      560      561      562
    1528     16      559      560      561      582
    1529     19      560      561      562      563
    1530     19      560      561      562      595
    1531     19      582      561      562      563
    1532     16      582      561      562      595
    1533     16      561      562      563      564
    1534     16      561      562      563      580
    1535     16      595      562      563      564
    1536     16      595      562      563      580
    1537     18      562      563      564      565
    1538     18      562      563      564      579
    1539     18      580      563      564      565
    1540     18      580      563      564      579
    1541     16      563      564      565      566
    1542     16      563      564      565      596
    1543     16      579      564      565      566
    1544     16      579      564      565      596
    1545     16      564      565      566      567
    1546     16      564      565      566      597
    1547     16      596      565      566      567
    1548     16      596      565      566      597
    1549     19      565      566      567      568
    1550     16      565      566      567      578
    1551     19      597      566      567      568
    1552     16      597      566      567      578
    1553     16      566      567      568      569
    1554     16      578      567      568      569
    1555     16      567      568      569      570
    1556     16      567      568      569      729
    1557     17      568      569      570      571
    1558     20      568      569      570      577
    1559     18      729      569      570      571
    1560     17      729      569      570      577
    1561     18      569      570      571      572
    1562     18      569      570      571      576
    1563     17      577      570      571      572
    1564     17      577      570      571      576
    1565     16      570      571      572      573
    1566     16      570      571      572      598
    1567     16      576      571      572      573
    1568     16      576      571      572      598
    1569     16      571      572      573      574
    1570     16      571      572      573      599
    1571     16      598      572      573      574
    1572     16      598      572      573      599
    1573     16      572      573      574      575
    1574     16      572      573      574      600
    1575     16      599      573      574      575
    1576     16      599      573      574      600
    1577     16      573      574      575      576
    1578     16      573      574      575      601
    1579     16      600      574      575      576
    1580     16      600      574      575      601
    1581     16      574      575      576      571
    1582     16      574      575      576      602
    1583     16      601      575      576      571
    1584     16      601      575      576      602
    1585     16      569      570      577      578
    1586     16      571      570      577      578
    1587     16      570      577      578      579
    1588     16      570      577      578      567
    1589     19      577      578      579      564
    1590     19      577      578      579      603
    1591     19      567      578      579      564
    1592     16      567      578      579      603
    1593     16      562      563      580      581
    1594     16      562      563      580      604
    1595     16      564      563      580      581
    1596     16      564      563      580      604
    1597     16      563      580      581      582
    1598     16      563      580      581      605
    1599     16      604      580      581      582
    1600     16      604      580      581      605
    1601     19      580      581      582      583
    1602     16      580      581      582      561
    1603     19      605      581      582      583
    1604     16      605      581      582      561
    1605     16      581      582      583      584
    1606     16      561      582      583      584
    1607     16      582      583      584      585
    1608     16      582      583      584      559
    1609     17      583      584      585      586
    1610     17      583      584      585      590
    1611     18      559      584      585      586
    1612     18      559      584      585      590
    1613     16      584      585      586      587
    1614     16      584      585      586      606
    1615     16      590      585      586      587
    1616     16      590      585      586      606
    1617     16      585      586      587      588
    1618     16      585      586      587      607
    1619     16      606      586      587      588
    1620     16      606      586      587      607
    1621     16      586      587      588      589
    1622     16      586      587      588      608
    1623     16      607      587      588      589
    1624     16      607      587      588      608
    1625     16      587      588      589      590
    1626     16      587      588      589      609
    1627     16      608      588      589      590
    1628     16      608      588      589      609
    1629     16      588      589      590      585
    1630     16      588      589      590      610
    1631     16      609      589      590      585
    1632     16      609      589      590      610
    1633     16      557      558      591      592
    1634     16      557      558      591      611
    1635     16      559      558      591      592
    1636     16      559      558      591      611
    1637     16      558      591      592      555
    1638     16      558      591      592      612
    1639     16      611      591      592      555
    1640     16      611      591      592      612
    1641     16      591      592      555      556
    1642     16      591      592      555      441
    1643     16      612      592      555      556
    1644     16      612      592      555      441
    1645     17      583      584      559      558
    1646     20      583      584      559      560
    1647     18      585      584      559      558
    1648     17      585      584      559      560
    1649     16      589      590      585      584
    1650     16      589      590      585      586
    1651     16      610      590      585      584
    1652     16      610      590      585      586
    1653     16      581      582      561      560
    1654     16      581      582      561      562
    1655     16      583      582      561      560
    1656     16      583      582      561      562
    1657     16      578      579      564      563
    1658     16      578      579      564      565
    1659     16      603      579      564      563
    1660     16      603      579      564      565
    1661     16      577      578      567      566
    1662     16      577      578      567      568
    1663     16      579      578      567      566
    1664     16      579      578      567      568
    1665     16      575      576      571      570
    1666     16      575      576      571      572
    1667     16      602      576      571      570
    1668     16      602      576      571      572
    1669     17      440      441      555      556
    1670     17      440      441      555      592
    1671     18      442      441      555      556
    1672     18      442      441      555      592
    1673     16      650      613      614      615
    1674     16      650      613      614      651
    1675     16      490      613      614      615
    1676     16      490      613      614      651
    1677     16      613      614      615      616
    1678     16      613      614      615      652
    1679     16      651      614      615      616
    1680     16      651      614      615      652
    1681     16      614      615      616      617
    1682     16      614      615      616      649
    1683     16      652      615      616      617
    1684     16      652      615      616      649
    1685     17      615      616      617      618
    1686     18      615      616      617      642
    1687     17      649      616      617      618
    1688     18      649      616      617      642
    1689     16      616      617      618      619
    1690     16      642      617      618      619
    1691     16      617      618      619      620
    1692     16      617      618      619      640
    1693     19      618      619      620      621
    1694     19      618      619      620      653
    1695     19      640      619      620      621
    1696     16      640      619      620      653
    1697     16      619      620      621      622
    1698     16      619      620      621      638
    1699     16      653      620      621      622
    1700     16      653      620      621      638
    1701     18      620      621      622      623
    1702     18      620      621      622      637
    1703     18      638      621      622      623
    1704     18      638      621      622      637
    1705     16      621      622      623      624
    1706     16      621      622      623      654
    1707     16      637      622      623      624
    1708     16      637      622      623      654
    1709     16      622      623      624      625
    1710     16      622      623      624      655
    1711     16      654      623      624      625
    1712     16      654      623      624      655
    1713     19      623      624      625      626
    1714     16      623      624      625      636
    1715     19      655      624      625      626
    1716     16      655      624      625      636
    1717     16      624      625      626      627
    1718     16      636      625      626      627
    1719     16      625      626      627      628
    1720     16      625      626      627      787
    1721     16      626      627      628      629
    1722     20      626      627      628      635
    1723     16      787      627      628      629
    1724     16      787      627      628      635
    1725     18      627      628      629      630
    1726     18      627      628      629      634
    1727     17      635      628      629      630
    1728     17      635      628      629      634
    1729     16      628      629      630      631
    1730     16      628      629      630      656
    1731     16      634      629      630      631
    1732     16      634      629      630      656
    1733     16      629      630      631      632
    1734     16      629      630      631      657
    1735     16      656      630      631      632
    1736     16      656      630      631      657
    1737     16      630      631      632      633
    1738     16      630      631      632      658
    1739     16      657      631      632      633
    1740     16      657      631      632      658
    1741     16      631      632      633      634
    1742     16      631      632      633      659
    1743     16      658      632      633      634
    1744     16      658      632      633      659
    1745     16      632      633      634      629
    1746     16      632      633      634      660
    1747     16      659      633      634      629
    1748     16      659      633      634      660
    1749     16      627      628      635      636
    1750     16      629      628      635      636
    1751     16      628      635      636      637
    1752     16      628      635      636      625
    1753     19      635      636      637      622
    1754     19      635      636      637      661
    1755     19      625      636      637      622
    1756     16      625      636      637      661
    1757     16      620      621      638      639
    1758     16      620      621      638      662
    1759     16      622      621      638      639
    1760     16      622      621      638      662
    1761     16      621      638      639      640
    1762     16      621      638      639      663
    1763     16      662      638      639      640
    1764     16      662      638      639      663
    1765     19      638      639      640      641
    1766     16      638      639      640      619
    1767     19      663      639      640      641
    1768     16      663      639      640      619
    1769     16      639      640      641      642
    1770     16      619      640      641      642
    1771     16      640      641      642      643
    1772     16      640      641      642      617
    1773     17      641      642      643      644
    1774     17      641      642      643      648
    1775     18      617      642      643      644
    1776     18      617      642      643      648
    1777     16      642      643      644      645
    1778     16      642      643      644      664
    1779     16      648      643      644      645
    1780     16      648      643      644      664
    1781     16      643      644      645      646
    1782     16      643      644      645      665
    1783     16      664      644      645      646
    1784     16      664      644      645      665
    1785     16      644      645      646      647
    1786     16      644      645      646      666
    1787     16      665      645      646      647
    1788     16      665      645      646      666
    1789     16      645      646      647      648
    1790     16      645      646      647      667
    1791     16      666      646      647      648
    1792     16      666      646      647      667
    1793     16      646      647      648      643
    1794     16      646      647      648      668
    1795     16      667      647      648      643
    1796     16      667      647      648      668
    1797     16      615      616      649      650
    1798     16      615      616      649      669
    1799     16      617      616      649      650
    1800     16      617      616      649      669
    1801     16      616      649      650      613
    1802     16      616      649      650      670
    1803     16      669      649      650      613
    1804     16      669      649      650      670
    1805     16      649      650      613      614
    1806     16      649      650      613      490
    1807     16      670      650      613      614
    1808     16      670      650      613      490
    1809     17      641      642      617      616
    1810     20      641      642      617      618
    1811     18      643      642      617      616
    1812     17      643      642      617      618
    1813     16      647      648      643      642
    1814     16      647      648      643      644
    1815     16      668      648      643      642
    1816     16      668      648      643      644
    1817     16      639      640      619      618
    1818     16      639      640      619      620
    1819     16      641      640      619      618
    1820     16      641      640      619      620
    1821     16      636      637      622      621
    1822     16      636      637      622      623
    1823     16      661      637      622      621
    1824     16      661      637      622      623
    1825     16      635      636      625      624
    1826     16      635      636      625      626
    1827     16      637      636      625      624
    1828     16      637      636      625      626
    1829     16      633      634      629      628
    1830     16      633      634      629      630
    1831     16      660      634      629      628
    1832     16      660      634      629      630
    1833     21      489      490      613      614
    1834     21      489      490      613      650
    1835      1      495      490      613      614
    1836      1      495      490      613      650
    1837      1      496      490      613      614
    1838      1      496      490      613      650
    1839     16      708      671      672      673
    1840     16      708      671      672      709
    1841     16      511      671      672      673
    1842     16      511      671      672      709
    1843     16      671      672      673      674
    1844     16      671      672      673      710
    1845     16      709      672      673      674
    1846     16      709      672      673      710
    1847     16      672      673      674      675
    1848     16      672      673      674      707
    1849     16      710      673      674      675
    1850     16      710      673      674      707
    1851     17      673      674      675      676
    1852     18      673      674      675      700
    1853     17      707      674      675      676
    1854     18      707      674      675      700
    1855     16      674      675      676      677
    1856     16      700      675      676      677
    1857     16      675      676      677      678
    1858     16      675      676      677      698
    1859     19      676      677      678      679
    1860     19      676      677      678      711
    1861     19      698      677      678      679
    1862     16      698      677      678      711
    1863     16      677      678      679      680
    1864     16      677      678      679      696
    1865     16      711      678      679      680
    1866     16      711      678      679      696
    1867     18      678      679      680      681
    1868     18      678      679      680      695
    1869     18      696      679      680      681
    1870     18      696      679      680      695
    1871     16      679      680      681      682
    1872     16      679      680      681      712
    1873     16      695      680      681      682
    1874     16      695      680      681      712
    1875     16      680      681      682      683
    1876     16      680      681      682      713
    1877     16      712      681      682      683
    1878     16      712      681      682      713
    1879     19      681      682      683      684
    1880     16      681      682      683      694
    1881     19      713      682      683      684
    1882     16      713      682      683      694
    1883     16      682      683      684      685
    1884     16      694      683      684      685
    1885     16      683      684      685      686
    1886     16      683      684      685      799
    1887     16      684      685      686      687
    1888     20      684      685      686      693
    1889     16      799      685      686      687
    1890     16      799      685      686      693
    1891     18      685      686      687      688
    1892     18      685      686      687      692
    1893     17      693      686      687      688
    1894     17      693      686      687      692
    1895     16      686      687      688      689
    1896     16      686      687      688      714
    1897     16      692      687      688      689
    1898     16      692      687      688      714
    1899     16      687      688      689      690
    1900     16      687      688      689      715
    1901     16      714      688      689      690
    1902     16      714      688      689      715
    1903     16      688      689      690      691
    1904     16      688      689      690      716
    1905     16      715      689      690      691
    1906     16      715      689      690      716
    1907     16      689      690      691      692
    1908     16      689      690      691      717
    1909     16      716      690      691      692
    1910     16      716      690      691      717
    1911     16      690      691      692      687
    1912     16      690      691      692      718
    1913     16      717      691      692      687
    1914     16      717      691      692      718
    1915     16      685      686      693      694
    1916     16      687      686      693      694
    1917     16      686      693      694      695
    1918     16      686      693      694      683
    1919     19      693      694      695      680
    1920     19      693      694      695      719
    1921     19      683      694      695      680
    1922     16      683      694      695      719
    1923     16      678      679      696      697
    1924     16      678      679      696      720
    1925     16      680      679      696      697
    1926     16      680      679      696      720
    1927     16      679      696      697      698
    1928     16      679      696      697      721
    1929     16      720      696      697      698
    1930     16      720      696      697      721
    1931     19      696      697      698      699
    1932     16      696      697      698      677
    1933     19      721      697      698      699
    1934     16      721      697      698      677
    1935     16      697      698      699      700
    1936     16      677      698      699      700
    1937     16      698      699      700      701
    1938     16      698      699      700      675
    1939     17      699      700      701      702
    1940     17      699      700      701      706
    1941     18      675      700      701      702
    1942     18      675      700      701      706
    1943     16      700      701      702      703
    1944     16      700      701      702      722
    1945     16      706      701      702      703
    1946     16      706      701      702      722
    1947     16      701      702      703      704
    1948     16      701      702      703      723
    1949     16      722      702      703      704
    1950     16      722      702      703      723
    1951     16      702      703      704      705
    1952     16      702      703      704      724
    1953     16      723      703      704      705
    1954     16      723      703      704      724
    1955     16      703      704      705      706
    1956     16      703      704      705      725
    1957     16      724      704      705      706
    1958     16      724      704      705      725
    1959     16      704      705      706      701
    1960     16      704      705      706      726
    1961     16      725      705      706      701
    1962     16      725      705      706      726
    1963     16      673      674      707      708
    1964     16      673      674      707      727
    1965     16      675      674      707      708
    1966     16      675      674      707      727
    1967     16      674      707      708      671
    1968     16      674      707      708      728
    1969     16      727      707      708      671
    1970     16      727      707      708      728
    1971     16      707      708      671      672
    1972     16      707      708      671      511
    1973     16      728      708      671      672
    1974     16      728      708      671      511
    1975     17      699      700      675      674
    1976     20      699      700      675      676
    1977     18      701      700      675      674
    1978     17      701      700      675      676
    1979     16      705      706      701      700
    1980     16      705      706      701      702
    1981     16      726      706      701      700
    1982     16      726      706      701      702
    1983     16      697      698      677      676
    1984     16      697      698      677      678
    1985     16      699      698      677      676
    1986     16      699      698      677      678
    1987     16      694      695      680      679
    1988     16      694      695      680      681
    1989     16      719      695      680      679
    1990     16      719      695      680      681
    1991     16      693      694      683      682
    1992     16      693      694      683      684
    1993     16      695      694      683      682
    1994     16      695      694      683      684
    1995     16      691      692      687      686
    1996     16      691      692      687      688
    1997     16      718      692      687      686
    1998     16      718      692      687      688
    1999     17      510      511      671      672
    2000     17      510      511      671      708
    2001     18      512      511      671      672
    2002     18      512      511      671      708
    2003     16      766      729      730      731
    2004     16      766      729      730      767
    2005     16      569      729      730      731
    2006     16      569      729      730      767
    2007     16      729      730      731      732
    2008     16      729      730      731      768
    2009     16      767      730      731      732
    2010     16      767      730      731      768
    2011     16      730      731      732      733
    2012     16      730      731      732      765
    2013     16      768      731      732      733
    2014     16      768      731      732      765
    2015     17      731      732      733      734
    2016     18      731      732      733      758
    2017     17      765      732      733      734
    2018     18      765      732      733      758
    2019     16      732      733      734      735
    2020     16      758      733      734      735
    2021     16      733      734      735      736
    2022     16      733      734      735      756
    2023     19      734      735      736      737
    2024     19      734      735      736      769
    2025     19      756      735      736      737
    2026     16      756      735      736      769
    2027     16      735      736      737      738
    2028     16      735      736      737      754
    2029     16      769      736      737      738
    2030     16      769      736      737      754
    2031     18      736      737      738      739
    2032     18      736      737      738      753
    2033     18      754      737      738      739
    2034     18      754      737      738      753
    2035     16      737      738      739      740
    2036     16      737      738      739      770
    2037     16      753      738      739      740
    2038     16      753      738      739      770
    2039     16      738      739      740      741
    2040     16      738      739      740      771
    2041     16      770      739      740      741
    2042     16      770      739      740      771
    2043     19      739      740      741      742
    2044     16      739      740      741      752
    2045     19      771      740      741      742
    2046     16      771      740      741      752
    2047     16      740      741      742      743
    2048     16      752      741      742      743
    2049     16      741      742      743      744
    2050     16      741      742      743      811
    2051     16      742      743      744      745
    2052     20      742      743      744      751
    2053     16      811      743      744      745
    2054     16      811      743      744      751
    2055     18      743      744      745      746
    2056     18      743      744      745      750
    2057     17      751      744      745      746
    2058     17      751      744      745      750
    2059     16      744      745      746      747
    2060     16      744      745      746      772
    2061     16      750      745      746      747
    2062     16      750      745      746      772
    2063     16      745      746      747      748
    2064     16      745      746      747      773
    2065     16      772      746      747      748
    2066     16      772      746      747      773
    2067     16      746      747      748      749
    2068     16      746      747      748      774
    2069     16      773      747      748      749
    2070     16      773      747      748      774
    2071     16      747      748      749      750
    2072     16      747      748      749      775
    2073     16      774      748      749      750
    2074     16      774      748      749      775
    2075     16      748      749      750      745
    2076     16      748      749      750      776
    2077     16      775      749      750      745
    2078     16      775      749      750      776
    2079     16      743      744      751      752
    2080     16      745      744      751      752
    2081     16      744      751      752      753
    2082     16      744      751      752      741
    2083     19      751      752      753      738
    2084     19      751      752      753      777
    2085     19      741      752      753      738
    2086     16      741      752      753      777
    2087     16      736      737      754      755
    2088     16      736      737      754      778
    2089     16      738      737      754      755
    2090     16      738      737      754      778
    2091     16      737      754      755      756
    2092     16      737      754      755      779
    2093     16      778      754      755      756
    2094     16      778      754      755      779
    2095     19      754      755      756      757
    2096     16      754      755      756      735
    2097     19      779      755      756      757
    2098     16      779      755      756      735
    2099     16      755      756      757      758
    2100     16      735      756      757      758
    2101     16      756      757      758      759
    2102     16      756      757      758      733
    2103     17      757      758      759      760
    2104     17      757      758      759      764
    2105     18      733      758      759      760
    2106     18      733      758      759      764
    2107     16      758      759      760      761
    2108     16      758      759      760      780
    2109     16      764      759      760      761
    2110     16      764      759      760      780
    2111     16      759      760      761      762
    2112     16      759      760      761      781
    2113     16      780      760      761      762
    2114     16      780      760      761      781
    2115     16      760      761      762      763
    2116     16      760      761      762      782
    2117     16      781      761      762      763
    2118     16      781      761      762      782
    2119     16      761      762      763      764
    2120     16      761      762      763      783
    2121     16      782      762      763      764
    2122     16      782      762      763      783
    2123     16      762      763      764      759
    2124     16      762      763      764      784
    2125     16      783      763      764      759
    2126     16      783      763      764      784
    2127     16      731      732      765      766
    2128     16      731      732      765      785
    2129     16      733      732      765      766
    2130     16      733      732      765      785
    2131     16      732      765      766      729
    2132     16      732      765      766      786
    2133     16      785      765      766      729
    2134     16      785      765      766      786
    2135     16      765      766      729      730
    2136     16      765      766      729      569
    2137     16      786      766      729      730
    2138     16      786      766      729      569
    2139     17      757      758      733      732
    2140     20      757      758      733      734
    2141     18      759      758      733      732
    2142     17      759      758      733      734
    2143     16      763      764      759      758
    2144     16      763      764      759      760
    2145     16      784      764      759      758
    2146     16      784      764      759      760
    2147     16      755      756      735      734
    2148     16      755      756      735      736
    2149     16      757      756      735      734
    2150     16      757      756      735      736
    2151     16      752      753      738      737
    2152     16      752      753      738      739
    2153     16      777      753      738      737
    2154     16      777      753      738      739
    2155     16      751      752      741      740
    2156     16      751      752      741      742
    2157     16      753      752      741      740
    2158     16      753      752      741      742
    2159     16      749      750      745      744
    2160     16      749      750      745      746
    2161     16      776      750      745      744
    2162     16      776      750      745      746
    2163     17      568      569      729      730
    2164     17      568      569      729      766
    2165     18      570      569      729      730
    2166     18      570      569      729      766
    2167      1      793      787      788      789
    2168      5      793      787      788      790
    2169      1      794      787      788      789
    2170      5      794      787      788      790
    2171     22      627      787      788      789
    2172     22      627      787      788      790
    2173      8      787      788      790      791
    2174      9      789      788      790      791
    2175     10      788      790      791      792
    2176     11      788      790      791      795
    2177     11      788      790      791      796
    2178      4      790      791      792      797
    2179      4      790      791      792      798
    2180     12      790      791      792      823
    2181      4      795      791      792      797
    2182      4      795      791      792      798
    2183     15      795      791      792      823
    2184      4      796      791      792      797
    2185      4      796      791      792      798
    2186     15      796      791      792      823
    2187     23      626      627      787      788
    2188     24      626      627      787      793
    2189     24      626      627      787      794
    2190     25      628      627      787      788
    2191      1      628      627      787      793
    2192      1      628      627      787      794
    2193      1      805      799      800      801
    2194      5      805      799      800      802
    2195      1      806      799      800      801
    2196      5      806      799      800      802
    2197     22      685      799      800      801
    2198     22      685      799      800      802
    2199      8      799      800      802      803
    2200      9      801      800      802      803
    2201     10      800      802      803      804
    2202     11      800      802      803      807
    2203     11      800      802      803      808
    2204      4      802      803      804      809
    2205      4      802      803      804      810
    2206     12      802      803      804      884
    2207      4      807      803      804      809
    2208      4      807      803      804      810
    2209      4      807      803      804      884
    2210      4      808      803      804      809
    2211      4      808      803      804      810
    2212      4      808      803      804      884
    2213     23      684      685      799      800
    2214     24      684      685      799      805
    2215     24      684      685      799      806
    2216     25      686      685      799      800
    2217      1      686      685      799      805
    2218      1      686      685      799      806
    2219      1      817      811      812      813
    2220      5      817      811      812      814
    2221      1      818      811      812      813
    2222      5      818      811      812      814
    2223     22      743      811      812      813
    2224     22      743      811      812      814
    2225      8      811      812      814      815
    2226      9      813      812      814      815
    2227     10      812      814      815      816
    2228     11      812      814      815      819
    2229     11      812      814      815      820
    2230      4      814      815      816      821
    2231      4      814      815      816      822
    2232     12      814      815      816      892
    2233      4      819      815      816      821
    2234      4      819      815      816      822
    2235      4      819      815      816      892
    2236      4      820      815      816      821
    2237      4      820      815      816      822
    2238      4      820      815      816      892
    2239     23      742      743      811      812
    2240     24      742      743      811      817
    2241     24      742      743      811      818
    2242     25      744      743      811      812
    2243      1      744      743      811      817
    2244      1      744      743      811      818
    2245     16      860      823      824      825
    2246     16      860      823      824      861
    2247     16      792      823      824      825
    2248     16      792      823      824      861
    2249     16      823      824      825      826
    2250     16      823      824      825      862
    2251     16      861      824      825      826
    2252     16      861      824      825      862
    2253     16      824      825      826      827
    2254     16      824      825      826      859
    2255     16      862      825      826      827
    2256     16      862      825      826      859
    2257     17      825      826      827      828
    2258     18      825      826      827      852
    2259     17      859      826      827      828
    2260     18      859      826      827      852
    2261     16      826      827      828      829
    2262     16      852      827      828      829
    2263     16      827      828      829      830
    2264     16      827      828      829      850
    2265     19      828      829      830      831
    2266     19      828      829      830      863
    2267     19      850      829      830      831
    2268     16      850      829      830      863
    2269     16      829      830      831      832
    2270     16      829      830      831      848
    2271     16      863      830      831      832
    2272     16      863      830      831      848
    2273     18      830      831      832      833
    2274     18      830      831      832      847
    2275     18      848      831      832      833
    2276     18      848      831      832      847
    2277     16      831      832      833      834
    2278     16      831      832      833      864
    2279     16      847      832      833      834
    2280     16      847      832      833      864
    2281     16      832      833      834      835
    2282     16      832      833      834      865
    2283     16      864      833      834      835
    2284     16      864      833      834      865
    2285     19      833      834      835      836
    2286     16      833      834      835      846
    2287     19      865      834      835      836
    2288     16      865      834      835      846
    2289     16      834      835      836      837
    2290     16      846      835      836      837
    2291     16      835      836      837      838
    2292     16      835      836      837      900
    2293     16      836      837      838      839
    2294     20      836      837      838      845
    2295     16      900      837      838      839
    2296     16      900      837      838      845
    2297     18      837      838      839      840
    2298     18      837      838      839      844
    2299     17      845      838      839      840
    2300     17      845      838      839      844
    2301     16      838      839      840      841
    2302     16      838      839      840      866
    2303     16      844      839      840      841
    2304     16      844      839      840      866
    2305     16      839      840      841      842
    2306     16      839      840      841      867
    2307     16      866      840      841      842
    2308     16      866      840      841      867
    2309     16      840      841      842      843
    2310     16      840      841      842      868
    2311     16      867      841      842      843
    2312     16      867      841      842      868
    2313     16      841      842      843      844
    2314     16      841      842      843      869
    2315     16      868      842      843      844
    2316     16      868      842      843      869
    2317     16      842      843      844      839
    2318     16      842      843      844      870
    2319     16      869      843      844      839
    2320     16      869      843      844      870
    2321     16      837      838      845      846
    2322     16      839      838      845      846
    2323     16      838      845      846      847
    2324     16      838      845      846      835
    2325     19      845      846      847      832
    2326     19      845      846      847      871
    2327     19      835      846      847      832
    2328     16      835      846      847      871
    2329     16      830      831      848      849
    2330     16      830      831      848      872
    2331     16      832      831      848      849
    2332     16      832      831      848      872
    2333     16      831      848      849      850
    2334     16      831      848      849      873
    2335     16      872      848      849      850
    2336     16      872      848      849      873
    2337     19      848      849      850      851
    2338     16      848      849      850      829
    2339     19      873      849      850      851
    2340     16      873      849      850      829
    2341     16      849      850      851      852
    2342     16      829      850      851      852
    2343     16      850      851      852      853
    2344     16      850      851      852      827
    2345     17      851      852      853      854
    2346     17      851      852      853      858
    2347     18      827      852      853      854
    2348     18      827      852      853      858
    2349     16      852      853      854      855
    2350     16      852      853      854      874
    2351     16      858      853      854      855
    2352     16      858      853      854      874
    2353     16      853      854      855      856
    2354     16      853      854      855      875
    2355     16      874      854      855      856
    2356     16      874      854      855      875
    2357     16      854      855      856      857
    2358     16      854      855      856      876
    2359     16      875      855      856      857
    2360     16      875      855      856      876
    2361     16      855      856      857      858
    2362     16      855      856      857      877
    2363     16      876      856      857      858
    2364     16      876      856      857      877
    2365     16      856      857      858      853
    2366     16      856      857      858      878
    2367     16      877      857      858      853
    2368     16      877      857      858      878
    2369     16      825      826      859      860
    2370     16      825      826      859      879
    2371     16      827      826      859      860
    2372     16      827      826      859      879
    2373     16      826      859      860      823
    2374     16      826      859      860      880
    2375     16      879      859      860      823
    2376     16      879      859      860      880
    2377     16      859      860      823      824
    2378     16      859      860      823      792
    2379     16      880      860      823      824
    2380     16      880      860      823      792
    2381     17      851      852      827      826
    2382     20      851      852      827      828
    2383     18      853      852      827      826
    2384     17      853      852      827      828
    2385     16      857      858      853      852
    2386     16      857      858      853      854
    2387     16      878      858      853      852
    2388     16      878      858      853      854
    2389     16      849      850      829      828
    2390     16      849      850      829      830
    2391     16      851      850      829      828
    2392     16      851      850      829      830
    2393     16      846      847      832      831
    2394     16      846      847      832      833
    2395     16      871      847      832      831
    2396     16      871      847      832      833
    2397     16      845      846      835      834
    2398     16      845      846      835      836
    2399     16      847      846      835      834
    2400     16      847      846      835      836
    2401     16      843      844      839      838
    2402     16      843      844      839      840
    2403     16      870      844      839      838
    2404     16      870      844      839      840
    2405     21      791      792      823      824
    2406     21      791      792      823      860
    2407      1      797      792      823      824
    2408      1      797      792      823      860
    2409      1      798      792      823      824
    2410      1      798      792      823      860
    2411      1      881      882      883      884
    2412      1      881      882      883      885
    2413      1      881      882      883      886
    2414      2      882      883      884      887
    2415      2      882      883      884      888
    2416      3      882      883      884      804
    2417      4      885      883      884      887
    2418      4      885      883      884      888
    2419      4      885      883      884      804
    2420      4      886      883      884      887
    2421      4      886      883      884      888
    2422      4      886      883      884      804
    2423     26      803      804      884      883
    2424      4      803      804      884      887
    2425      4      803      804      884      888
    2426      4      809      804      884      883
    2427      4      809      804      884      887
    2428      4      809      804      884      888
    2429      4      810      804      884      883
    2430      4      810      804      884      887
    2431      4      810      804      884      888
    2432      1      889      890      891      892
    2433      1      889      890      891      893
    2434      1      889      890      891      894
    2435      2      890      891      892      895
    2436      2      890      891      892      896
    2437      3      890      891      892      816
    2438      4      893      891      892      895
    2439      4      893      891      892      896
    2440      4      893      891      892      816
    2441      4      894      891      892      895
    2442      4      894      891      892      896
    2443      4      894      891      892      816
    2444     26      815      816      892      891
    2445      4      815      816      892      895
    2446      4      815      816      892      896
    2447      4      821      816      892      891
    2448      4      821      816      892      895
    2449      4      821      816      892      896
    2450      4      822      816      892      891
    2451      4      822      816      892      895
    2452      4      822      816      892      896
    2453      1      897      898      899      900
    2454      1      897      898      899      901
    2455      1      897      898      899      902
    2456      2      898      899      900      903
    2457      2      898      899      900      904
    2458      1      898      899      900      837
    2459      4      901      899      900      903
    2460      4      901      899      900      904
    2461     15      901      899      900      837
    2462      4      902      899      900      903
    2463      4      902      899      900      904
    2464     15      902      899      900      837
    2465     23      836      837      900      899
    2466     24      836      837      900      903
    2467     24      836      837      900      904
    2468     25      838      837      900      899
    2469      1      838      837      900      903
    2470      1      838      837      900      904

Impropers

       1      1       10        9       11       12
       2      1       22       21       23       24
       3      2       33       34       70       26
       4      2       34       33       35       71
       5      2       35       36       34       72
       6      2       36       37       35       69
       7      2       37       36       62       38
       8      2       39       40       60       38
       9      2       40       41       39       73
      10      2       41       42       40       58
      11      2       42       41       43       57
      12      2       43       42       44       74
      13      2       44       43       45       75
      14      2       45       44       56       46
      15      2       47       48       91       46
      16      2       48       47       49       55
      17      2       49       48       50       54
      18      2       50       49       51       76
      19      2       51       50       52       77
      20      2       52       51       53       78
      21      2       53       52       54       79
      22      2       54       49       53       80
      23      2       56       57       45       55
      24      2       57       42       56       81
      25      2       58       41       59       82
      26      2       59       58       60       83
      27      2       60       59       39       61
      28      2       62       37       63       61
      29      2       63       62       64       68
      30      2       64       63       65       84
      31      2       65       64       66       85
      32      2       66       65       67       86
      33      2       67       66       68       87
      34      2       68       63       67       88
      35      2       69       36       70       89
      36      2       70       33       69       90
      37      2       91       47       92      128
      38      2       92       91       93      129
      39      2       93       94       92      130
      40      2       94       95       93      127
      41      2       95       94      120       96
      42      2       97       98      118       96
      43      2       98       99       97      131
      44      2       99      100       98      116
      45      2      100       99      101      115
      46      2      101      100      102      132
      47      2      102      101      103      133
      48      2      103      102      114      104
      49      2      105      106      149      104
      50      2      106      107      105      113
      51      2      107      106      108      112
      52      2      108      107      109      134
      53      2      109      108      110      135
      54      2      110      109      111      136
      55      2      111      110      112      137
      56      2      112      107      111      138
      57      2      114      115      103      113
      58      2      115      100      114      139
      59      2      116       99      117      140
      60      2      117      116      118      141
      61      2      118      117       97      119
      62      2      120       95      121      119
      63      2      121      120      122      126
      64      2      122      121      123      142
      65      2      123      122      124      143
      66      2      124      123      125      144
      67      2      125      124      126      145
      68      2      126      121      125      146
      69      2      127       94      128      147
      70      2      128       91      127      148
      71      1      150      149      151      152
      72      2      161      162      198      154
      73      2      162      161      163      199
      74      2      163      164      162      200
      75      2      164      165      163      197
      76      2      165      164      190      166
      77      2      167      168      188      166
      78      2      168      169      167      201
      79      2      169      170      168      186
      80      2      170      169      171      185
      81      2      171      170      172      202
      82      2      172      171      173      203
      83      2      173      172      184      174
      84      2      175      176      219      174
      85      2      176      177      175      183
      86      2      177      176      178      182
      87      2      178      177      179      204
      88      2      179      178      180      205
      89      2      180      179      181      206
      90      2      181      180      182      207
      91      2      182      177      181      208
      92      2      184      185      173      183
      93      2      185      170      184      209
      94      2      186      169      187      210
      95      2      187      186      188      211
      96      2      188      187      167      189
      97      2      190      165      191      189
      98      2      191      190      192      196
      99      2      192      191      193      212
     100      2      193      192      194      213
     101      2      194      193      195      214
     102      2      195      194      196      215
     103      2      196      191      195      216
     104      2      197      164      198      217
     105      2      198      161      197      218
     106      1      220      219      221      222
     107      2      232      233      240      231
     108      2      233      232      235      234
     109      2      235      233      236      245
     110      2      236      235      238      237
     111      2      238      236      240      239
     112      2      240      232      238      250
     113      1      252      251      253      254
     114      1      264      263      265      266
     115      2      275      276      312      239
     116      2      276      275      277      313
     117      2      277      278      276      314
     118      2      278      279      277      311
     119      2      279      278      304      280
     120      2      281      282      302      280
     121      2      282      283      281      315
     122      2      283      284      282      300
     123      2      284      283      285      299
     124      2      285      284      286      316
     125      2      286      285      287      317
     126      2      287      286      298      288
     127      2      289      290      357      288
     128      2      290      289      291      297
     129      2      291      290      292      296
     130      2      292      291      293      318
     131      2      293      292      294      319
     132      2      294      293      295      320
     133      2      295      294      296      321
     134      2      296      291      295      322
     135      2      298      299      287      297
     136      2      299      284      298      323
     137      2      300      283      301      324
     138      2      301      300      302      325
     139      2      302      301      281      303
     140      2      304      279      305      303
     141      2      305      304      306      310
     142      2      306      305      307      326
     143      2      307      306      308      327
     144      2      308      307      309      328
     145      2      309      308      310      329
     146      2      310      305      309      330
     147      2      311      278      312      331
     148      2      312      275      311      332
     149      1      334      333      335      336
     150      1      346      345      347      348
     151      2      357      289      358      394
     152      2      358      357      359      395
     153      2      359      360      358      396
     154      2      360      361      359      393
     155      2      361      360      386      362
     156      2      363      364      384      362
     157      2      364      365      363      397
     158      2      365      366      364      382
     159      2      366      365      367      381
     160      2      367      366      368      398
     161      2      368      367      369      399
     162      2      369      368      380      370
     163      2      371      372      485      370
     164      2      372      373      371      379
     165      2      373      372      374      378
     166      2      374      373      375      400
     167      2      375      374      376      401
     168      2      376      375      377      402
     169      2      377      376      378      403
     170      2      378      373      377      404
     171      2      380      381      369      379
     172      2      381      366      380      405
     173      2      382      365      383      406
     174      2      383      382      384      407
     175      2      384      383      363      385
     176      2      386      361      387      385
     177      2      387      386      388      392
     178      2      388      387      389      408
     179      2      389      388      390      409
     180      2      390      389      391      410
     181      2      391      390      392      411
     182      2      392      387      391      412
     183      2      393      360      394      413
     184      2      394      357      393      414
     185      1      416      415      417      418
     186      2      427      428      464      350
     187      2      428      427      429      465
     188      2      429      430      428      466
     189      2      430      431      429      463
     190      2      431      430      456      432
     191      2      433      434      454      432
     192      2      434      435      433      467
     193      2      435      436      434      452
     194      2      436      435      437      451
     195      2      437      436      438      468
     196      2      438      437      439      469
     197      2      439      438      450      440
     198      2      441      442      555      440
     199      2      442      441      443      449
     200      2      443      442      444      448
     201      2      444      443      445      470
     202      2      445      444      446      471
     203      2      446      445      447      472
     204      2      447      446      448      473
     205      2      448      443      447      474
     206      2      450      451      439      449
     207      2      451      436      450      475
     208      2      452      435      453      476
     209      2      453      452      454      477
     210      2      454      453      433      455
     211      2      456      431      457      455
     212      2      457      456      458      462
     213      2      458      457      459      478
     214      2      459      458      460      479
     215      2      460      459      461      480
     216      2      461      460      462      481
     217      2      462      457      461      482
     218      2      463      430      464      483
     219      2      464      427      463      484
     220      1      486      485      487      488
     221      2      497      498      534      420
     222      2      498      497      499      535
     223      2      499      500      498      536
     224      2      500      501      499      533
     225      2      501      500      526      502
     226      2      503      504      524      502
     227      2      504      505      503      537
     228      2      505      506      504      522
     229      2      506      505      507      521
     230      2      507      506      508      538
     231      2      508      507      509      539
     232      2      509      508      520      510
     233      2      511      512      671      510
     234      2      512      511      513      519
     235      2      513      512      514      518
     236      2      514      513      515      540
     237      2      515      514      516      541
     238      2      516      515      517      542
     239      2      517      516      518      543
     240      2      518      513      517      544
     241      2      520      521      509      519
     242      2      521      506      520      545
     243      2      522      505      523      546
     244      2      523      522      524      547
     245      2      524      523      503      525
     246      2      526      501      527      525
     247      2      527      526      528      532
     248      2      528      527      529      548
     249      2      529      528      530      549
     250      2      530      529      531      550
     251      2      531      530      532      551
     252      2      532      527      531      552
     253      2      533      500      534      553
     254      2      534      497      533      554
     255      2      555      441      556      592
     256      2      556      555      557      593
     257      2      557      558      556      594
     258      2      558      559      557      591
     259      2      559      558      584      560
     260      2      561      562      582      560
     261      2      562      563      561      595
     262      2      563      564      562      580
     263      2      564      563      565      579
     264      2      565      564      566      596
     265      2      566      565      567      597
     266      2      567      566      578      568
     267      2      569      570      729      568
     268      2      570      569      571      577
     269      2      571      570      572      576
     270      2      572      571      573      598
     271      2      573      572      574      599
     272      2      574      573      575      600
     273      2      575      574      576      601
     274      2      576      571      575      602
     275      2      578      579      567      577
     276      2      579      564      578      603
     277      2      580      563      581      604
     278      2      581      580      582      605
     279      2      582      581      561      583
     280      2      584      559      585      583
     281      2      585      584      586      590
     282      2      586      585      587      606
     283      2      587      586      588      607
     284      2      588      587      589      608
     285      2      589      588      590      609
     286      2      590      585      589      610
     287      2      591      558      592      611
     288      2      592      555      591      612
     289      2      613      614      650      490
     290      2      614      613      615      651
     291      2      615      616      614      652
     292      2      616      617      615      649
     293      2      617      616      642      618
     294      2      619      620      640      618
     295      2      620      621      619      653
     296      2      621      622      620      638
     297      2      622      621      623      637
     298      2      623      622      624      654
     299      2      624      623      625      655
     300      2      625      624      636      626
     301      2      627      628      787      626
     302      2      628      629      627      635
     303      2      629      628      630      634
     304      2      630      629      631      656
     305      2      631      630      632      657
     306      2      632      631      633      658
     307      2      633      632      634      659
     308      2      634      629      633      660
     309      2      636      637      625      635
     310      2      637      622      636      661
     311      2      638      621      639      662
     312      2      639      638      640      663
     313      2      640      639      619      641
     314      2      642      617      643      641
     315      2      643      642      644      648
     316      2      644      643      645      664
     317      2      645      644      646      665
     318      2      646      645      647      666
     319      2      647      646      648      667
     320      2      648      643      647      668
     321      2      649      616      650      669
     322      2      650      613      649      670
     323      2      671      511      672      708
     324      2      672      671      673      709
     325      2      673      674      672      710
     326      2      674      675      673      707
     327      2      675      674      700      676
     328      2      677      678      698      676
     329      2      678      679      677      711
     330      2      679      680      678      696
     331      2      680      679      681      695
     332      2      681      680      682      712
     333      2      682      681      683      713
     334      2      683      682      694      684
     335      2      685      686      799      684
     336      2      686      687      685      693
     337      2      687      686      688      692
     338      2      688      687      689      714
     339      2      689      688      690      715
     340      2      690      689      691      716
     341      2      691      690      692      717
     342      2      692      687      691      718
     343      2      694      695      683      693
     344      2      695      680      694      719
     345      2      696      679      697      720
     346      2      697      696      698      721
     347      2      698      697      677      699
     348      2      700      675      701      699
     349      2      701      700      702      706
     350      2      702      701      703      722
     351      2      703      702      704      723
     352      2      704      703      705      724
     353      2      705      704      706      725
     354      2      706      701      705      726
     355      2      707      674      708      727
     356      2      708      671      707      728
     357      2      729      569      730      766
     358      2      730      729      731      767
     359      2      731      732      730      768
     360      2      732      733      731      765
     361      2      733      732      758      734
     362      2      735      736      756      734
     363      2      736      737      735      769
     364      2      737      738      736      754
     365      2      738      737      739      753
     366      2      739      738      740      770
     367      2      740      739      741      771
     368      2      741      740      752      742
     369      2      743      744      811      742
     370      2      744      745      743      751
     371      2      745      744      746      750
     372      2      746      745      747      772
     373      2      747      746      748      773
     374      2      748      747      749      774
     375      2      749      748      750      775
     376      2      750      745      749      776
     377      2      752      753      741      751
     378      2      753      738      752      777
     379      2      754      737      755      778
     380      2      755      754      756      779
     381      2      756      755      735      757
     382      2      758      733      759      757
     383      2      759      758      760      764
     384      2      760      759      761      780
     385      2      761      760      762      781
     386      2      762      761      763      782
     387      2      763      762      764      783
     388      2      764      759      763      784
     389      2      765      732      766      785
     390      2      766      729      765      786
     391      1      788      787      789      790
     392      1      800      799      801      802
     393      1      812      811      813      814
     394      2      823      824      860      792
     395      2      824      823      825      861
     396      2      825      826      824      862
     397      2      826      827      825      859
     398      2      827      826      852      828
     399      2      829      830      850      828
     400      2      830      831      829      863
     401      2      831      832      830      848
     402      2      832      831      833      847
     403      2      833      832      834      864
     404      2      834      833      835      865
     405      2      835      834      846      836
     406      2      837      838      900      836
     407      2      838      839      837      845
     408      2      839      838      840      844
     409      2      840      839      841      866
     410      2      841      840      842      867
     411      2      842      841      843      868
     412      2      843      842      844      869
     413      2      844      839      843      870
     414      2      846      847      835      845
     415      2      847      832      846      871
     416      2      848      831      849      872
     417      2      849      848      850      873
     418      2      850      849      829      851
     419      2      852      827      853      851
     420      2      853      852      854      858
     421      2      854      853      855      874
     422      2      855      854      856      875
     423      2      856      855      857      876
     424      2      857      856      858      877
     425      2      858      853      857      878
     426      2      859      826      860      879
     427      2      860      823      859      880

