LAMMPS data file generated by GM 1-hop + monomer-charge pipeline

    1000 atoms
    1024 bonds
    1846 angles
    2590 dihedrals
     198 impropers

      16 atom types
      22 bond types
      39 angle types
      50 dihedral types
       4 improper types

  -50.726400    54.814400 xlo xhi
  -61.065600    68.072500 ylo yhi
  -70.629500    61.573600 zlo zhi

Masses

       1    12.011000
       2    12.011000
       3    12.011000
       4    12.011000
       5    12.011000
       6    12.011000
       7    12.011000
       8    12.011000
       9    12.011000
      10     1.008000
      11     1.008000
      12     1.008000
      13    14.007000
      14    14.007000
      15    15.999000
      16    15.999000

Pair Coeffs

       1     0.066000     3.300000
       2     0.070000     3.550000
       3     0.070000     3.550000
       4     0.070000     3.550000
       5     0.066000     3.500000
       6     0.066000     3.500000
       7     0.066000     3.500000
       8     0.066000     3.500000
       9     0.066000     3.500000
      10     0.030000     2.420000
      11     0.030000     2.500000
      12     0.000000     0.000000
      13     0.170000     3.200000
      14     0.170000     3.250000
      15     0.210000     2.960000
      16     0.140000     2.900000

Bond Coeffs

       1   390.000000     1.470000
       2   650.000000     1.157000
       3   469.000000     1.400000
       4   469.000000     1.400000
       5   367.000000     1.080000
       6   450.000000     1.364000
       7   317.000000     1.522000
       8   490.000000     1.335000
       9   570.000000     1.229000
      10   268.000000     1.529000
      11   340.000000     1.090000
      12   268.000000     1.529000
      13   340.000000     1.090000
      14   337.000000     1.449000
      15   268.000000     1.529000
      16   340.000000     1.090000
      17   320.000000     1.410000
      18   268.000000     1.529000
      19   268.000000     1.529000
      20   340.000000     1.090000
      21   340.000000     1.090000
      22   434.000000     1.010000

Angle Coeffs

       1    58.350000   112.700000
       2    35.000000   108.500000
       3    63.000000   120.000000
       4    35.000000   120.000000
       5    63.000000   120.000000
       6    70.000000   120.000000
       7    35.000000   120.000000
       8    75.000000   111.000000
       9    63.000000   111.100000
      10    35.000000   109.500000
      11    50.000000   121.900000
      12    35.000000   119.800000
      13    70.000000   116.600000
      14    80.000000   120.400000
      15    58.350000   112.700000
      16    37.500000   110.700000
      17    58.350000   112.700000
      18    37.500000   110.700000
      19    38.000000   118.400000
      20    58.350000   112.700000
      21    37.500000   110.700000
      22    37.500000   110.700000
      23    37.500000   110.700000
      24    80.000000   109.700000
      25    37.500000   110.700000
      26    50.000000   109.500000
      27    58.350000   112.700000
      28    37.500000   110.700000
      29    37.500000   110.700000
      30   150.000000   180.000000
      31    37.500000   110.700000
      32    33.000000   107.800000
      33    33.000000   107.800000
      34    35.000000   109.500000
      35    33.000000   107.800000
      36    35.000000   109.500000
      37    33.000000   107.800000
      38    33.000000   107.800000
      39    80.000000   122.900000

Dihedral Coeffs

       1     0.000000    -0.650000     0.000000     0.000000
       2     0.000000     0.000000     0.366000     0.000000
       3     0.000000     7.250000     0.000000     0.000000
       4     0.000000     7.250000     0.000000     0.000000
       5     0.000000     7.250000     0.000000     0.000000
       6     0.000000     3.370000     0.000000     0.300000
       7     0.000000     7.250000     0.000000     0.000000
       8     0.000000     7.250000     0.000000     0.000000
       9     0.250000    -0.250000     0.500000     0.000000
      10     0.000000     0.000000     0.760000     0.000000
      11    -2.060000    -0.313000     0.315000     0.000000
      12     0.000000     0.000000    -0.100000     0.000000
      13    -0.682000     0.130000     0.338000     0.000000
      14     0.000000     0.000000     0.000000     0.000000
      15     2.300000     6.089000     0.000000     0.000000
      16     0.000000     4.900000     0.000000     0.000000
      17     0.850000    -0.200000     0.200000     0.000000
      18     0.850000    -0.200000     0.200000     0.000000
      19     0.000000     0.000000     0.300000     0.000000
      20     0.850000    -0.200000     0.200000     0.000000
      21     0.000000     0.000000     0.300000     0.000000
      22     0.000000     6.089000     0.000000     0.000000
      23     0.850000    -0.200000     0.200000     0.000000
      24     0.850000    -0.200000     0.200000     0.000000
      25     0.000000     0.000000     0.300000     0.000000
      26     1.779000     0.419000    -0.110000     0.000000
      27     0.000000     0.000000     0.000000     0.000000
      28     0.000000     0.000000     0.000000     0.000000
      29     0.000000     0.000000     0.300000     0.000000
      30     0.000000     0.000000     0.300000     0.000000
      31     1.572000     0.159000     0.200000     0.000000
      32     0.000000     0.000000     0.300000     0.000000
      33     1.300000    -0.500000     0.000000     0.000000
      34     0.000000     0.000000     0.300000     0.000000
      35     0.000000     0.000000     0.000000     0.000000
      36     0.000000     0.000000     0.300000     0.000000
      37     0.000000     7.250000     0.000000     0.000000
      38     0.000000     7.250000     0.000000     0.000000
      39     0.000000     0.000000     0.000000     0.000000
      40     0.000000     0.000000     0.000000     0.000000
      41     0.000000     0.000000     0.300000     0.000000
      42     0.000000     0.000000     0.300000     0.000000
      43     0.000000     0.000000     0.000000     0.000000
      44     0.000000     0.000000     0.300000     0.000000
      45     0.000000     0.000000     0.464000     0.000000
      46     0.000000     0.000000     0.300000     0.000000
      47     0.000000     0.000000     0.300000     0.000000
      48     0.000000     0.000000     0.300000     0.000000
      49     0.000000     0.000000     0.000000     0.000000
      50     0.000000     4.900000     0.000000     0.000000

Improper Coeffs

       1     2.500000   -1    2
       2     2.500000   -1    2
       3    10.500000   -1    2
       4     2.500000   -1    2

Atoms

       1    1     13  -0.41172475     7.715900    43.589000   -34.239700
       2    1      1   0.13012325     7.063700    43.079400   -32.977100
       3    1      9  -0.04381475     6.397600    42.561300   -31.689500
       4    1      8  -0.18500275     5.638600    41.258500   -31.998700
       5    1     11   0.13637825     5.662800    43.344200   -31.308800
       6    1     11   0.13637825     7.192600    42.362100   -30.897400
       7    1     11   0.11883125     5.139300    40.868900   -31.052200
       8    1     11   0.11883125     6.366000    40.474200   -32.392400
       9    1     13  -0.40657313   -27.842600   -40.458200   -37.918800
      10    1      1   0.13376287   -28.923900   -39.407700   -37.836000
      11    1      9  -0.04057013   -30.025900   -38.335400   -37.752200
      12    1      8  -0.18647113   -29.371300   -36.942000   -37.767300
      13    1     11   0.13764687   -30.616900   -38.468900   -36.786600
      14    1     11   0.13764687   -30.726400   -38.437400   -38.645900
      15    1     11   0.11227887   -30.176700   -36.137400   -37.707900
      16    1     11   0.11227887   -28.774600   -36.813400   -38.730100
      17    1      8  -0.18676121     4.571800    41.553700   -33.067900
      18    1      7  -0.02900421     3.590100    42.635000   -32.575500
      19    1     16  -0.31231621     2.834300    42.180600   -31.348300
      20    1      3   0.06835579     3.726600    42.133800   -30.131600
      21    1      2  -0.16285821     4.442100    43.411500   -29.653500
      22    1      2  -0.12557921     5.319500    43.376300   -28.390200
      23    1      3   0.04077879     5.479800    42.064400   -27.600000
      24    1     16  -0.34806221     6.272600    42.050500   -26.316700
      25    1      7  -0.00581521     6.104700    43.395000   -25.651900
      26    1      8  -0.19565221     4.599600    43.708700   -25.569400
      27    1      2  -0.12557921     4.777900    40.782300   -28.086700
      28    1      2  -0.16285821     3.903800    40.816400   -29.352700
      29    1     11   0.11840979     5.091100    41.929200   -34.010700
      30    1     11   0.11840979     3.996700    40.599200   -33.307900
      31    1     11   0.09869879     2.839000    42.841300   -33.407800
      32    1     11   0.09869879     4.159800    43.593500   -32.337200
      33    1     10   0.17224679     4.317400    44.383100   -30.236000
      34    1     10   0.16717679     5.840000    44.323600   -28.029300
      35    1     11   0.09878479     6.619300    44.199000   -26.275400
      36    1     11   0.09878479     6.560100    43.367200   -24.607200
      37    1     11   0.11735879     4.440100    44.713700   -25.055300
      38    1     11   0.11735879     4.168800    43.749900   -26.623900
      39    1     10   0.16717679     4.899800    39.811500   -27.502300
      40    1     10   0.17224679     3.380900    39.869600   -29.711300
      41    1      8  -0.18770333     3.881400    42.598600   -24.781700
      42    1      7  -0.02450133     2.370800    42.897900   -24.758800
      43    1     16  -0.31219133     1.646100    41.818700   -23.990800
      44    1      3   0.05622167     2.129000    41.822600   -22.561800
      45    1      2  -0.15013933     1.215500    42.354400   -21.440600
      46    1      2  -0.14512533     1.712000    42.368800   -19.984700
      47    1      3   0.07780067     3.124800    41.854800   -19.646600
      48    1     16  -0.35497233     3.613300    41.871400   -18.219800
      49    1      7   0.01045667     3.944500    43.287800   -17.814700
      50    1      8  -0.18808133     2.688900    44.161700   -17.985500
      51    1      2  -0.14512533     4.031300    41.305600   -20.765700
      52    1      2  -0.15013933     3.533500    41.288500   -22.220200
      53    1     11   0.10392067     4.060300    41.595400   -25.293400
      54    1     11   0.10392067     4.288300    42.562500   -23.717700
      55    1     11   0.10321667     1.978700    42.929600   -25.828800
      56    1     11   0.10321667     2.189300    43.906000   -24.258200
      57    1     10   0.17262267     0.173400    42.739600   -21.693100
      58    1     10   0.16739167     1.039600    42.766900   -19.154900
      59    1     11   0.09804667     4.784600    43.693000   -18.470200
      60    1     11   0.09804667     4.271700    43.299900   -16.722800
      61    1     11   0.11155167     2.910100    45.227700   -17.647300
      62    1     11   0.11155167     2.374100    44.167600   -19.080900
      63    1     10   0.16739167     5.071100    40.915600   -20.511400
      64    1     10   0.17262267     4.203900    40.890100   -23.050700
      65    1      8  -0.18770333     1.556600    43.562500   -17.132300
      66    1      7  -0.02450133     0.278300    44.405200   -17.288900
      67    1     16  -0.31219133    -0.802500    43.797800   -16.428100
      68    1      3   0.05622167    -0.304800    43.767100   -15.004000
      69    1      2  -0.15013933     0.247200    45.050200   -14.354000
      70    1      2  -0.14512533     0.781400    45.015000   -12.911400
      71    1      3   0.07780067     0.780800    43.692500   -12.120800
      72    1     16  -0.35497233     1.340400    43.652800   -10.720300
      73    1      7   0.01045667     1.399600    45.057600   -10.169700
      74    1      8  -0.18808133    -0.030700    45.590900    -9.968900
      75    1      2  -0.14512533     0.214000    42.412000   -12.765500
      76    1      2  -0.15013933    -0.324900    42.449000   -14.206100
      77    1     11   0.10392067     1.350800    42.496100   -17.479300
      78    1     11   0.10392067     1.870600    43.552600   -16.036400
      79    1     11   0.10321667    -0.050300    44.409900   -18.380600
      80    1     11   0.10321667     0.482900    45.472400   -16.944100
      81    1     10   0.17262267     0.261600    46.023900   -14.945500
      82    1     10   0.16739167     1.186400    45.963900   -12.427400
      83    1     11   0.09804667     1.962500    45.726900   -10.901200
      84    1     11   0.09804667     1.938900    45.050900    -9.165400
      85    1     11   0.11155167     0.012400    46.655100    -9.562500
      86    1     11   0.11155167    -0.586800    45.582600   -10.963900
      87    1     10   0.16739167     0.202700    41.437700   -12.174800
      88    1     10   0.17262267    -0.735600    41.501600   -14.687400
      89    1      8  -0.18770333    -0.752600    44.684400    -8.954500
      90    1      7  -0.02450133    -2.186100    45.189700    -8.708100
      91    1     16  -0.31219133    -2.834600    44.293800    -7.680700
      92    1      3   0.05622167    -1.980000    44.352400    -6.438400
      93    1      2  -0.15013933    -1.458600    45.710200    -5.933500
      94    1      2  -0.14512533    -0.539100    45.771900    -4.701200
      95    1      3   0.07780067    -0.127200    44.474300    -3.981700
      96    1     16  -0.35497233     0.810200    44.539300    -2.800600
      97    1      7   0.01045667     0.851500    45.970700    -2.322100
      98    1      8  -0.18808133    -0.511300    46.348600    -1.712600
      99    1      2  -0.14512533    -0.666400    43.117100    -4.472400
     100    1      2  -0.15013933    -1.591300    43.056200    -5.702300
     101    1     11   0.10392067    -0.788800    43.618600    -9.357200
     102    1     11   0.10392067    -0.180300    44.696400    -7.968700
     103    1     11   0.10321667    -2.780500    45.165500    -9.680400
     104    1     11   0.10321667    -2.147400    46.256000    -8.306900
     105    1     10   0.17262267    -1.748900    46.668300    -6.478400
     106    1     10   0.16739167    -0.153500    46.776700    -4.325400
     107    1     11   0.09804667     1.077000    46.650900    -3.208900
     108    1     11   0.09804667     1.662900    46.093000    -1.530900
     109    1     11   0.11155167    -0.493800    47.444600    -1.399600
     110    1     11   0.11155167    -1.333400    46.186300    -2.485600
     111    1     10   0.16739167    -0.373300    42.158100    -3.930600
     112    1     10   0.17262267    -1.982000    42.051900    -6.073500
     113    1      8  -0.18770333    -0.771100    45.476700    -0.468800
     114    1      7  -0.02450133    -2.125600    45.855800     0.159500
     115    1     16  -0.31219133    -2.356800    45.043000     1.412300
     116    1      3   0.05622167    -1.292900    45.383400     2.430200
     117    1      2  -0.15013933    -1.371300    46.708300     3.211800
     118    1      2  -0.14512533    -0.257400    47.082600     4.208900
     119    1      3   0.07780067     0.937800    46.134700     4.418800
     120    1     16  -0.35497233     2.104400    46.564400     5.278600
     121    1      7   0.01045667     2.490600    45.535300     6.315500
     122    1      8  -0.18808133     1.561500    45.595300     7.542700
     123    1      2  -0.14512533     0.976900    44.776200     3.693900
     124    1      2  -0.15013933    -0.136200    44.402600     2.695900
     125    1     11   0.10392067    -0.781200    44.376100    -0.766300
     126    1     11   0.10392067     0.058000    45.656100     0.292900
     127    1     11   0.10321667    -2.959400    45.652100    -0.590700
     128    1     11   0.10321667    -2.121000    46.963200     0.430400
     129    1     10   0.17262267    -2.246600    47.418900     3.042000
     130    1     10   0.16739167    -0.306400    48.072500     4.772100
     131    1     11   0.09804667     3.549200    45.764900     6.670700
     132    1     11   0.09804667     2.469600    44.495000     5.849600
     133    1     11   0.11155167     1.917300    44.833200     8.311900
     134    1     11   0.11155167     1.610000    46.639300     7.997900
     135    1     10   0.16739167     1.842700    44.057400     3.877600
     136    1     10   0.17262267    -0.095700    43.405600     2.144700
     137    1      8  -0.18770333     0.106700    45.277600     7.157700
     138    1      7  -0.02450133    -0.801400    45.363100     8.401500
     139    1     16  -0.31219133    -0.380800    44.383600     9.474800
     140    1      3   0.05622167     0.906300    44.816700    10.138200
     141    1      2  -0.15013933     1.261600    46.312300    10.221100
     142    1      2  -0.14512533     2.582600    46.755600    10.878000
     143    1      3   0.07780067     3.554900    45.702900    11.443400
     144    1     16  -0.35497233     4.879400    46.137800    12.028200
     145    1      7   0.01045667     5.562300    45.032800    12.802000
     146    1      8  -0.18808133     4.943300    44.846000    14.201300
     147    1      2  -0.14512533     3.191100    44.208200    11.377800
     148    1      2  -0.15013933     1.869700    43.764500    10.719800
     149    1     11   0.10392067    -0.249100    46.030600     6.379000
     150    1     11   0.10392067     0.054000    44.227100     6.718500
     151    1     11   0.10321667    -0.769100    46.419400     8.829300
     152    1     11   0.10321667    -1.868500    45.120600     8.082200
     153    1     10   0.17262267     0.549400    47.091000     9.789600
     154    1     10   0.16739167     2.846500    47.863100    10.935200
     155    1     11   0.09804667     6.658400    45.313800    12.940100
     156    1     11   0.09804667     5.496100    44.060200    12.210800
     157    1     11   0.11155167     5.509400    44.022900    14.750100
     158    1     11   0.11155167     5.034600    45.819800    14.786900
     159    1     10   0.16739167     3.902200    43.429600    11.811700
     160    1     10   0.17262267     1.605700    42.656900    10.662800
     161    1      8  -0.18770333     3.458900    44.456100    14.094900
     162    1      7  -0.02450133     2.838000    44.286900    15.496000
     163    1     16  -0.31219133     3.509000    43.180800    16.278600
     164    1      3   0.05622167     4.911400    43.556200    16.698100
     165    1      2  -0.15013933     5.222100    44.996600    17.143600
     166    1      2  -0.14512533     6.651400    45.378200    17.575500
     167    1      3   0.07780067     7.774100    44.323600    17.545800
     168    1     16  -0.35497233     9.187000    44.713800    17.915600
     169    1      7   0.01045667    10.046800    43.515400    18.249000
     170    1      8  -0.18808133     9.754200    42.974300    19.662600
     171    1      2  -0.14512533     7.461200    42.880900    17.109200
     172    1      2  -0.15013933     6.031700    42.499000    16.678100
     173    1     11   0.10392067     2.900500    45.278200    13.536200
     174    1     11   0.10392067     3.365300    43.478700    13.515700
     175    1     11   0.10321667     2.923300    45.264700    16.076100
     176    1     11   0.10321667     1.736700    44.022100    15.367300
     177    1     10   0.17262267     4.394800    45.781000    17.154200
     178    1     10   0.16739167     6.880000    46.444700    17.907200
     179    1     11   0.09804667    11.140200    43.836500    18.217500
     180    1     11   0.09804667     9.873500    42.698200    17.473000
     181    1     11   0.11155167    10.444100    42.092100    19.874800
     182    1     11   0.11155167     9.947800    43.796500    20.428100
     183    1     10   0.16739167     8.288800    42.096700    17.099400
     184    1     10   0.17262267     5.802700    41.432600    16.346200
     185    1      8  -0.18770333     8.292300    42.510100    19.776100
     186    1      7  -0.02450133     8.000500    41.983700    21.195600
     187    1     16  -0.31219133     8.852200    40.782600    21.541400
     188    1      3   0.05622167    10.299900    41.138600    21.795000
     189    1      2  -0.15013933    10.657500    42.215500    22.836100
     190    1      2  -0.14512533    12.134300    42.547200    23.127100
     191    1      3   0.07780067    13.254400    41.813400    22.365800
     192    1     16  -0.35497233    14.701400    42.176100    22.612600
     193    1      7   0.01045667    15.614500    40.971300    22.576400
     194    1      8  -0.18808133    15.497800    40.126500    23.860600
     195    1      2  -0.14512533    12.897300    40.729000    21.332800
     196    1      2  -0.15013933    11.420200    40.398000    21.040800
     197    1     11   0.10392067     7.604900    43.392700    19.556100
     198    1     11   0.10392067     8.097000    41.684000    19.015200
     199    1     11   0.10321667     8.182900    42.809000    21.960700
     200    1     11   0.10321667     6.905000    41.671500    21.237300
     201    1     10   0.17262267     9.829500    42.763900    23.395900
     202    1     10   0.16739167    12.397400    43.343000    23.900000
     203    1     11   0.09804667    16.691300    41.335800    22.492300
     204    1     11   0.09804667    15.362000    40.334500    21.665100
     205    1     11   0.11155167    15.770800    40.768600    24.762200
     206    1     11   0.11155167    16.217300    39.244700    23.795200
     207    1     10   0.16739167    13.725500    40.176200    20.777300
     208    1     10   0.17262267    11.157400    39.599800    20.270300
     209    1      8  -0.18770333    14.063600    39.597700    24.029700
     210    1      7  -0.02450133    13.948500    38.756900    25.316700
     211    1     16  -0.31219133    14.850400    37.543600    25.279000
     212    1      3   0.05622167    16.310400    37.887500    25.468900
     213    1      2  -0.15013933    16.736300    38.846100    26.596200
     214    1      2  -0.14512533    18.229800    39.146900    26.829700
     215    1      3   0.07780067    19.297400    38.503200    25.924900
     216    1     16  -0.35497233    20.761700    38.806700    26.147400
     217    1      7   0.01045667    21.646500    37.646600    25.749400
     218    1      8  -0.18808133    21.558700    36.483500    26.757800
     219    1      2  -0.14512533    18.870800    37.553500    24.790500
     220    1      2  -0.15013933    17.377700    37.252400    24.556900
     221    1     11   0.10392067    13.788400    38.954800    23.129400
     222    1     11   0.10392067    13.346100    40.481300    24.094200
     223    1     11   0.10321667    14.211100    39.395100    26.224300
     224    1     11   0.10321667    12.869600    38.400900    25.409400
     225    1     10   0.17262267    15.947300    39.325600    27.264900
     226    1     10   0.16739167    18.544500    39.848900    27.671000
     227    1     11   0.09804667    22.727400    38.007500    25.717400
     228    1     11   0.09804667    21.341800    37.282900    24.712600
     229    1     11   0.11155167    21.885000    36.845600    27.788300
     230    1     11   0.11155167    22.249000    35.642000    26.418500
     231    1     10   0.16739167    19.660900    37.073300    24.123600
     232    1     10   0.17262267    17.062800    36.550200    23.715800
     233    1      8  -0.18770333    20.116800    35.953800    26.838000
     234    1      7  -0.02450133    20.020100    34.778100    27.829700
     235    1     16  -0.31219133    20.872400    33.609300    27.390600
     236    1      3   0.05622167    22.345800    33.837200    27.639100
     237    1      2  -0.15013933    22.805000    34.647300    28.865200
     238    1      2  -0.14512533    24.308300    34.806700    29.164500
     239    1      3   0.07780067    25.353400    34.174400    28.225500
     240    1     16  -0.35497233    26.827100    34.304300    28.535000
     241    1      7   0.01045667    27.615200    33.126200    28.006400
     242    1      8  -0.18808133    27.333600    31.834300    28.800700
     243    1      2  -0.14512533    24.894000    33.396900    26.978200
     244    1      2  -0.15013933    23.391100    33.232600    26.682500
     245    1     11   0.10392067    19.785100    35.604100    25.804900
     246    1     11   0.10392067    19.430800    36.794300    27.187700
     247    1     11   0.10321667    20.342100    35.114400    28.870500
     248    1     11   0.10321667    18.932800    34.437200    27.864500
     249    1     10   0.17262267    22.032200    35.115900    29.560000
     250    1     10   0.16739167    24.647300    35.390800    30.083000
     251    1     11   0.09804667    28.727000    33.363200    28.092900
     252    1     11   0.09804667    27.351000    32.965400    26.909000
     253    1     11   0.11155167    27.617500    31.985000    29.894400
     254    1     11   0.11155167    27.955600    30.984600    28.363600
     255    1     10   0.16739167    25.667200    32.934300    26.279900
     256    1     10   0.17262267    23.051600    32.650100    25.763400
     257    1      8  -0.18770333    25.842400    31.468900    28.705500
     258    1      7  -0.02450133    25.539000    30.157900    29.454900
     259    1     16  -0.31219133    26.295900    28.998600    28.849800
     260    1      3   0.05622167    27.741400    28.960200    29.289400
     261    1      2  -0.15013933    28.111000    29.299800    30.744600
     262    1      2  -0.14512533    29.561800    29.120400    31.231800
     263    1      3   0.07780067    30.644600    28.619900    30.258200
     264    1     16  -0.35497233    32.036500    28.323000    30.765400
     265    1      7   0.01045667    32.585100    27.061100    30.136500
     266    1      8  -0.18808133    31.775300    25.803000    30.517200
     267    1      2  -0.14512533    30.291300    28.361600    28.782200
     268    1      2  -0.15013933    28.838500    28.533200    28.296900
     269    1     11   0.10392067    25.557200    31.343900    27.608800
     270    1     11   0.10392067    25.222600    32.309700    29.161400
     271    1     11   0.10321667    25.807600    30.257800    30.558500
     272    1     11   0.10321667    24.422500    29.949900    29.356600
     273    1     10   0.17262267    27.306400    29.658300    31.468600
     274    1     10   0.16739167    29.829100    29.340700    32.318000
     275    1     11   0.09804667    32.575400    27.180700    29.002700
     276    1     11   0.09804667    33.660600    26.919200    30.486600
     277    1     11   0.11155167    31.784300    25.656500    31.647700
     278    1     11   0.11155167    32.251800    24.896100    30.016900
     279    1     10   0.16739167    31.098200    28.017000    28.054000
     280    1     10   0.17262267    28.573000    28.319100    27.208900
     281    1      8  -0.18770333    30.323400    25.936000    30.023300
     282    1      7  -0.02450133    29.503000    24.661800    30.293300
     283    1     16  -0.31219133    30.103400    23.481700    29.566900
     284    1      3   0.05622167    31.222300    22.862800    30.369500
     285    1      2  -0.15013933    31.360500    23.181100    31.869700
     286    1      2  -0.14512533    32.391000    22.420300    32.724600
     287    1      3   0.07780067    33.293600    21.355100    32.074300
     288    1     16  -0.35497233    34.176700    20.484300    32.934400
     289    1      7   0.01045667    34.087000    19.050700    32.459300
     290    1      8  -0.18808133    32.669000    18.458200    32.613300
     291    1      2  -0.14512533    33.226800    21.114300    30.554800
     292    1      2  -0.15013933    32.189300    21.867200    29.702200
     293    1     11   0.10392067    30.333200    26.129300    28.899900
     294    1     11   0.10392067    29.822300    26.812300    30.551700
     295    1     11   0.10321667    28.448700    24.835600    29.896100
     296    1     11   0.10321667    29.454200    24.443200    31.411300
     297    1     10   0.17262267    30.678500    23.957200    32.351700
     298    1     10   0.16739167    32.467800    22.626400    33.842900
     299    1     11   0.09804667    34.386700    19.012000    31.360000
     300    1     11   0.09804667    34.814400    18.416800    33.066600
     301    1     11   0.11155167    32.360100    18.462100    33.710700
     302    1     11   0.11155167    32.678900    17.384300    32.230700
     303    1     10   0.16739167    33.921000    20.352200    30.068400
     304    1     10   0.17262267    32.117100    21.665800    28.582600
     305    1      8  -0.18770333    31.649300    19.269500    31.792600
     306    1      7  -0.02450133    30.236100    18.660100    31.838500
     307    1     16  -0.31219133    30.225200    17.279700    31.226000
     308    1      3   0.05622167    30.655500    16.228700    32.220300
     309    1      2  -0.15013933    30.926000    16.614300    33.686600
     310    1      2  -0.14512533    31.214800    15.518200    34.729000
     311    1      3   0.07780067    31.237300    14.038000    34.302000
     312    1     16  -0.35497233    31.350200    12.948800    35.339900
     313    1      7   0.01045667    30.350400    11.867600    34.994900
     314    1      8  -0.18808133    28.892000    12.352600    35.142500
     315    1      2  -0.14512533    31.047700    13.661400    32.821500
     316    1      2  -0.15013933    30.757300    14.756400    31.780600
     317    1     11   0.10392067    31.992100    19.305200    30.706100
     318    1     11   0.10392067    31.595500    20.329700    32.205800
     319    1     11   0.10321667    29.550600    19.330900    31.222300
     320    1     11   0.10321667    29.852400    18.613000    32.911100
     321    1     10   0.17262267    30.890700    17.709100    34.002200
     322    1     10   0.16739167    31.386100    15.798500    35.820300
     323    1     11   0.09804667    30.528500    11.542200    33.916800
     324    1     11   0.09804667    30.510300    10.975400    35.686200
     325    1     11   0.11155167    28.688000    12.632500    36.228700
     326    1     11   0.11155167    28.192100    11.507000    34.834800
     327    1     10   0.16739167    31.091600    12.568000    32.502700
     328    1     10   0.17262267    30.591300    14.475800    30.688500
     329    1      8  -0.18770333    28.628700    13.581900    34.252200
     330    1      7  -0.02450133    27.166400    14.059000    34.333300
     331    1     16  -0.31219133    26.218400    13.021300    33.780600
     332    1      3   0.05622167    26.054300    11.843300    34.709500
     333    1      2  -0.15013933    26.333000    12.000900    36.216000
     334    1      2  -0.14512533    26.073700    10.823000    37.173700
     335    1      3   0.07780067    25.548600     9.483700    36.621500
     336    1     16  -0.35497233    25.187900     8.360700    37.562800
     337    1      7   0.01045667    23.941800     7.679100    37.044200
     338    1      8  -0.18808133    22.697300     8.583500    37.166500
     339    1      2  -0.14512533    25.325800     9.310000    35.108100
     340    1      2  -0.15013933    25.581900    10.487900    34.152100
     341    1     11   0.10392067    29.298500    14.434700    34.600700
     342    1     11   0.10392067    28.875200    13.327600    33.168600
     343    1     11   0.10321667    27.069600    15.000400    33.697600
     344    1     11   0.10321667    26.890200    14.304000    35.412000
     345    1     10   0.17262267    26.716500    12.994600    36.622000
     346    1     10   0.16739167    26.256200    10.945300    38.292100
     347    1     11   0.09804667    24.105300     7.407900    35.948900
     348    1     11   0.09804667    23.758900     6.726500    37.643100
     349    1     11   0.11155167    21.799300     8.033000    36.731000
     350    1     11   0.11155167    22.501100     8.814400    38.265400
     351    1     10   0.16739167    24.951000     8.314000    34.699600
     352    1     10   0.17262267    25.403800    10.364000    33.033200
     353    1      8  -0.18770333    22.909300     9.908100    36.409100
     354    1      7  -0.02450133    21.670800    10.820600    36.492300
     355    1     16  -0.31219133    20.484200    10.209300    35.785200
     356    1      3   0.05622167    19.950200     8.989400    36.496100
     357    1      2  -0.15013933    19.655400     9.043200    38.006800
     358    1      2  -0.14512533    19.030900     7.825200    38.712700
     359    1      3   0.07780067    18.709300     6.550900    37.909400
     360    1     16  -0.35497233    18.055000     5.371100    38.587900
     361    1      7   0.01045667    16.624600     5.286400    38.110400
     362    1      8  -0.18808133    15.880900     6.571200    38.520000
     363    1      2  -0.14512533    19.053900     6.479200    36.410500
     364    1      2  -0.15013933    19.676400     7.697700    35.704300
     365    1     11   0.10392067    23.142400     9.691800    35.314400
     366    1     11   0.10392067    23.789800    10.457300    36.879900
     367    1     11   0.10321667    21.921300    11.805000    35.975000
     368    1     11   0.10321667    21.410000    11.025900    37.583000
     369    1     10   0.17262267    19.885900     9.990100    38.598000
     370    1     10   0.16739167    18.797400     7.869300    39.827500
     371    1     11   0.09804667    16.614800     5.186700    36.974800
     372    1     11   0.09804667    16.111500     4.381900    38.577500
     373    1     11   0.11155167    16.419200     7.472500    38.075400
     374    1     11   0.11155167    15.874200     6.658300    39.656600
     375    1     10   0.16739167    18.838000     5.527700    35.821000
     376    1     10   0.17262267    19.920500     7.648200    34.591900
     377    1      8  -0.18770333    14.433400     6.537600    37.993000
     378    1      7  -0.02450133    13.717300     7.832400    38.419900
     379    1     16  -0.31219133    12.316600     7.865500    37.856200
     380    1      3   0.05622167    11.500400     6.690800    38.339700
     381    1      2  -0.15013933    10.744600     6.775200    39.679500
     382    1      2  -0.14512533     9.852500     5.606100    40.136000
     383    1      3   0.07780067     9.712100     4.353000    39.251200
     384    1     16  -0.35497233     8.826500     3.212000    39.690400
     385    1      7   0.01045667     7.481500     3.371100    39.023800
     386    1      8  -0.18808133     6.862800     4.710500    39.463200
     387    1      2  -0.14512533    10.484300     4.260000    37.921900
     388    1      2  -0.15013933    11.376700     5.428700    37.465700
     389    1     11   0.10392067    14.451000     6.469500    36.855200
     390    1     11   0.10392067    13.880300     5.636700    38.419900
     391    1     11   0.10321667    14.296500     8.728800    38.019400
     392    1     11   0.10321667    13.675800     7.886500    39.557800
     393    1     10   0.17262267    10.840000     7.707500    40.328300
     394    1     10   0.16739167     9.290200     5.669500    41.125400
     395    1     11   0.09804667     7.621100     3.370600    37.892300
     396    1     11   0.09804667     6.793700     2.513200    39.324700
     397    1     11   0.11155167     7.569400     5.560100    39.182300
     398    1     11   0.11155167     6.705800     4.705900    40.592300
     399    1     10   0.16739167    10.389600     3.327700    37.273100
     400    1     10   0.17262267    11.939600     5.364500    36.476700
     401    1      8  -0.18770333     5.513300     4.917300    38.750800
     402    1      7  -0.02450133     4.912300     6.263500    39.193700
     403    1     16  -0.31219133     3.616900     6.502200    38.457000
     404    1      3   0.05622167     2.636200     5.393600    38.752600
     405    1      2  -0.15013933     2.044200     5.245400    40.166300
     406    1      2  -0.14512533     0.984300     4.164200    40.446800
     407    1      3   0.07780067     0.513400     3.236800    39.311700
     408    1     16  -0.35497233    -0.578300     2.226900    39.565800
     409    1      7   0.01045667    -1.892100     2.913700    39.279800
     410    1      8  -0.18808133    -3.058900     1.927300    39.460700
     411    1      2  -0.14512533     1.144400     3.349800    37.912000
     412    1      2  -0.15013933     2.204200     4.430600    37.631500
     413    1     11   0.10392067     5.682100     4.930100    37.623500
     414    1     11   0.10392067     4.796000     4.072500    39.018600
     415    1     11   0.10321667     5.642800     7.103200    38.947400
     416    1     11   0.10321667     4.719200     6.244700    40.317100
     417    1     10   0.17262267     2.381800     5.943600    41.001800
     418    1     10   0.16739167     0.536800     4.060900    41.490200
     419    1     11   0.09804667    -2.022500     3.794000    39.992300
     420    1     11   0.09804667    -1.888100     3.295100    38.205500
     421    1     11   0.11155167    -2.925500     1.050400    38.744500
     422    1     11   0.11155167    -3.076400     1.543100    40.533800
     423    1     10   0.16739167     0.815600     2.643900    37.079300
     424    1     10   0.17262267     2.659800     4.526000    36.590900
     425    1      8  -0.18770333    -4.383600     2.646700    39.145800
     426    1      7  -0.02450133    -5.532400     1.634500    39.297100
     427    1     16  -0.31219133    -6.864000     2.270100    38.978100
     428    1      3   0.05622167    -7.884400     1.164100    39.086600
     429    1      2  -0.15013933    -8.201400     0.547100    40.460800
     430    1      2  -0.14512533    -9.139500    -0.669400    40.559000
     431    1      3   0.07780067    -9.757400    -1.268200    39.282000
     432    1     16  -0.35497233   -10.584400    -2.528200    39.363100
     433    1      7   0.01045667   -11.824000    -2.416200    38.509400
     434    1      8  -0.18808133   -12.802200    -1.395700    39.119200
     435    1      2  -0.14512533    -9.507400    -0.598800    37.918200
     436    1      2  -0.15013933    -8.568300     0.617800    37.819900
     437    1     11   0.10392067    -4.533300     3.516600    39.867200
     438    1     11   0.10392067    -4.359400     3.037200    38.075100
     439    1     11   0.10321667    -5.551700     1.238500    40.365900
     440    1     11   0.10321667    -5.356300     0.767200    38.578500
     441    1     10   0.17262267    -7.723300     0.976300    41.402400
     442    1     10   0.16739167    -9.358700    -1.140700    41.573600
     443    1     11   0.09804667   -11.536400    -2.099400    37.452700
     444    1     11   0.09804667   -12.337700    -3.433300    38.473700
     445    1     11   0.11155167   -12.323800    -0.361400    39.153500
     446    1     11   0.11155167   -13.074500    -1.726300    40.175700
     447    1     10   0.16739167    -9.999800    -1.017000    36.978800
     448    1     10   0.17262267    -8.361900     1.099100    36.807200
     449    1      8  -0.18770333   -14.075300    -1.367900    38.253300
     450    1      7  -0.02450133   -15.128600    -0.430300    38.871700
     451    1     16  -0.31219133   -16.371600    -0.476100    38.015200
     452    1      3   0.05622167   -16.787500    -1.921900    37.891500
     453    1      2  -0.15013933   -16.506800    -2.900600    39.046800
     454    1      2  -0.14512533   -16.834800    -4.395400    38.886600
     455    1      3   0.07780067   -17.432200    -4.916400    37.565600
     456    1     16  -0.35497233   -17.654900    -6.397200    37.373000
     457    1      7   0.01045667   -18.646000    -6.687300    36.270400
     458    1      8  -0.18808133   -20.092600    -6.435700    36.736000
     459    1      2  -0.14512533   -17.765600    -3.929500    36.430800
     460    1      2  -0.15013933   -17.436900    -2.433500    36.591000
     461    1     11   0.10392067   -14.509800    -2.420700    38.203500
     462    1     11   0.10392067   -13.815300    -1.017200    37.200200
     463    1     11   0.10321667   -14.726300     0.635100    38.923500
     464    1     11   0.10321667   -15.382300    -0.796500    39.921200
     465    1     10   0.17262267   -16.039500    -2.518000    40.013400
     466    1     10   0.16739167   -16.616700    -5.122000    39.737000
     467    1     11   0.09804667   -18.406900    -6.044500    35.359600
     468    1     11   0.09804667   -18.556200    -7.788100    35.988200
     469    1     11   0.11155167   -20.313300    -7.089700    37.643300
     470    1     11   0.11155167   -20.797300    -6.720100    35.887200
     471    1     10   0.16739167   -18.239400    -4.311200    35.467000
     472    1     10   0.17262267   -17.660700    -1.705800    35.743000
     473    1      8  -0.18770333   -20.320800    -4.958300    37.103600
     474    1      7  -0.02450133   -21.765600    -4.741500    37.599800
     475    1     16  -0.31219133   -22.784700    -5.132900    36.553600
     476    1      3   0.05622167   -22.757800    -6.629200    36.350400
     477    1      2  -0.15013933   -22.670500    -7.565400    37.569100
     478    1      2  -0.14512533   -22.555100    -9.087800    37.363600
     479    1      3   0.07780067   -22.512700    -9.670900    35.939800
     480    1     16  -0.35497233   -22.306700   -11.153400    35.736700
     481    1      7   0.01045667   -22.954300   -11.635500    34.460100
     482    1      8  -0.18808133   -24.480100   -11.768300    34.623900
     483    1      2  -0.14512533   -22.649900    -8.739700    34.722000
     484    1      2  -0.15013933   -22.764900    -7.216600    34.926700
     485    1     11   0.10392067   -20.128600    -4.310500    36.185400
     486    1     11   0.10392067   -19.595200    -4.660900    37.931100
     487    1     11   0.10321667   -21.899900    -3.638300    37.853700
     488    1     11   0.10321667   -21.942100    -5.366400    38.536900
     489    1     10   0.17262267   -22.677300    -7.131500    38.623600
     490    1     10   0.16739167   -22.482000    -9.780000    38.266700
     491    1     11   0.09804667   -22.708400   -10.917000    33.609600
     492    1     11   0.09804667   -22.537800   -12.667600    34.213400
     493    1     11   0.11155167   -24.699400   -12.495100    35.474300
     494    1     11   0.11155167   -24.911300   -12.182500    33.654100
     495    1     10   0.16739167   -22.648600    -9.175400    33.668300
     496    1     10   0.17262267   -22.843100    -6.524700    34.023800
     497    1      8  -0.18770333   -25.144100   -10.413600    34.931700
     498    1      7  -0.02450133   -26.662300   -10.592800    35.145800
     499    1     16  -0.31219133   -27.349400   -11.169300    33.927800
     500    1      3   0.05622167   -26.878600   -12.584400    33.689600
     501    1      2  -0.15013933   -26.672400   -13.534900    34.882800
     502    1      2  -0.14512533   -26.083400   -14.939700    34.655500
     503    1      3   0.07780067   -25.692500   -15.389800    33.235400
     504    1     16  -0.35497233   -25.014900   -16.723500    33.025300
     505    1      7   0.01045667   -25.196200   -17.223000    31.610900
     506    1      8  -0.18808133   -26.598600   -17.828800    31.413200
     507    1      2  -0.14512533   -25.959500   -14.464400    32.034500
     508    1      2  -0.15013933   -26.545400   -13.057800    32.262300
     509    1     11   0.10392067   -24.957900    -9.696100    34.065500
     510    1     11   0.10392067   -24.687000    -9.981700    35.882600
     511    1     11   0.10321667   -27.118800    -9.574200    35.377400
     512    1     11   0.10321667   -26.837300   -11.290200    36.030500
     513    1     10   0.17262267   -26.937100   -13.191300    35.937100
     514    1     10   0.16739167   -25.916600   -15.638100    35.541000
     515    1     11   0.09804667   -25.028000   -16.365600    30.878300
     516    1     11   0.09804667   -24.428900   -18.042900    31.414600
     517    1     11   0.11155167   -26.736800   -18.690600    32.146600
     518    1     11   0.11155167   -26.683700   -18.224600    30.347900
     519    1     10   0.16739167   -25.704500   -14.812400    30.979200
     520    1     10   0.17262267   -26.718100   -12.361800    31.376100
     521    1      8  -0.18770333   -27.700300   -16.781800    31.653900
     522    1      7  -0.02450133   -29.094600   -17.424100    31.499800
     523    1     16  -0.31219133   -29.319800   -17.981200    30.111700
     524    1      3   0.05622167   -28.441800   -19.183100    29.849700
     525    1      2  -0.15013933   -28.073000   -20.132700    31.003900
     526    1      2  -0.14512533   -27.120900   -21.318100    30.752500
     527    1      3   0.07780067   -26.530100   -21.547400    29.348500
     528    1     16  -0.35497233   -25.520500   -22.649700    29.123000
     529    1      7   0.01045667   -25.494200   -23.095600    27.679100
     530    1      8  -0.18808133   -26.681000   -24.027600    27.368900
     531    1      2  -0.14512533   -26.943100   -20.631500    28.182200
     532    1      2  -0.15013933   -27.891300   -19.442700    28.435000
     533    1     11   0.10392067   -27.583000   -15.928200    30.907400
     534    1     11   0.10392067   -27.597100   -16.371200    32.712400
     535    1     11   0.10321667   -29.881400   -16.624500    31.702400
     536    1     11   0.10321667   -29.210900   -18.265200    32.260800
     537    1     10   0.17262267   -28.492300   -19.949600    32.048100
     538    1     10   0.16739167   -26.839000   -22.014100    31.610300
     539    1     11   0.09804667   -25.524400   -22.179500    27.001000
     540    1     11   0.09804667   -24.530300   -23.673700    27.488800
     541    1     11   0.11155167   -26.618700   -24.950500    28.035000
     542    1     11   0.11155167   -26.632900   -24.347200    26.275800
     543    1     10   0.16739167   -26.533600   -20.821400    27.135100
     544    1     10   0.17262267   -28.178300   -18.750900    27.575300
     545    1      8  -0.18770333   -28.011400   -23.303500    27.636300
     546    1      7  -0.02450133   -29.202600   -24.240100    27.355100
     547    1     16  -0.31219133   -29.239900   -24.670900    25.907300
     548    1      3   0.05622167   -28.137900   -25.649000    25.575400
     549    1      2  -0.15013933   -27.626200   -26.630500    26.646700
     550    1      2  -0.14512533   -26.549900   -27.672300    26.285300
     551    1      3   0.07780067   -25.982300   -27.727400    24.854000
     552    1     16  -0.35497233   -24.946000   -28.760200    24.483000
     553    1      7   0.01045667   -23.966300   -28.100900    23.542900
     554    1      8  -0.18808133   -22.908400   -29.111800    23.063500
     555    1      2  -0.14512533   -26.452200   -26.707800    23.800700
     556    1      2  -0.15013933   -27.529700   -25.669400    24.160700
     557    1     11   0.10392067   -28.083200   -22.381100    26.970300
     558    1     11   0.10392067   -28.043200   -22.980900    28.729200
     559    1     11   0.10321667   -30.163700   -23.673500    27.589100
     560    1     11   0.10321667   -29.137400   -25.161900    28.023000
     561    1     10   0.17262267   -28.051900   -26.592100    27.703500
     562    1     10   0.16739167   -26.178700   -28.406700    27.074100
     563    1     11   0.09804667   -24.526300   -27.682800    22.642100
     564    1     11   0.09804667   -23.448100   -27.246900    24.092200
     565    1     11   0.11155167   -22.361300   -29.544800    23.965200
     566    1     11   0.11155167   -22.160700   -28.572600    22.392700
     567    1     10   0.16739167   -26.006700   -26.728400    22.751600
     568    1     10   0.17262267   -27.886700   -24.923100    23.376700
     569    1      8  -0.18770333   -23.557800   -30.252700    22.257000
     570    1      7  -0.02450133   -22.425000   -31.189800    21.798200
     571    1     16  -0.31219133   -22.931400   -32.335400    20.954400
     572    1      3   0.05622167   -21.718400   -33.160100    20.600700
     573    1      2  -0.15013933   -21.111400   -34.117600    21.644100
     574    1      2  -0.14512533   -19.818900   -34.886500    21.323400
     575    1      3   0.07780067   -19.127900   -34.702000    19.958500
     576    1     16  -0.35497233   -17.816300   -35.396800    19.680700
     577    1      7   0.01045667   -17.488600   -35.440300    18.206100
     578    1      8  -0.18808133   -16.061200   -36.004400    18.056600
     579    1      2  -0.14512533   -19.768800   -33.793700    18.890800
     580    1      2  -0.15013933   -21.063200   -33.024100    19.211100
     581    1     11   0.10392067   -24.093300   -29.821500    21.347500
     582    1     11   0.10392067   -24.301300   -30.821700    22.907600
     583    1     11   0.10321667   -21.677200   -30.588800    21.182500
     584    1     11   0.10321667   -21.897500   -31.610800    22.717000
     585    1     10   0.17262267   -21.612900   -34.239600    22.660000
     586    1     10   0.16739167   -19.360700   -35.581900    22.101000
     587    1     11   0.09804667   -17.529500   -34.386800    17.772400
     588    1     11   0.09804667   -18.236200   -36.107700    17.662800
     589    1     11   0.11155167   -16.019000   -37.046000    18.517400
     590    1     11   0.11155167   -15.337700   -35.320000    18.611200
     591    1     10   0.16739167   -19.273100   -33.681800    17.871000
     592    1     10   0.17262267   -21.530000   -32.338500    18.429800
     593    1      8  -0.18948304   -15.632600   -36.091900    16.578600
     594    1      7  -0.02642804   -14.186700   -36.625100    16.512600
     595    1     16  -0.30925704   -13.721400   -36.738100    15.079000
     596    1      3   0.05703596   -12.283400   -37.203700    15.049600
     597    1      2  -0.14953304   -11.471800   -37.276100    16.356400
     598    1      2  -0.14401304   -10.000900   -37.731700    16.326600
     599    1      3   0.07594796    -9.337400   -38.118700    14.990100
     600    1     16  -0.35443404    -7.896500   -38.576500    14.969600
     601    1      7   0.00450796    -7.485600   -39.080800    13.605000
     602    1      8  -0.19251704    -6.097700   -39.744300    13.716200
     603    1      2  -0.14401304   -10.154200   -38.064600    13.685200
     604    1      2  -0.14953304   -11.626300   -37.608300    13.714900
     605    1     11   0.10522896   -15.677700   -35.056300    16.104500
     606    1     11   0.10522896   -16.331400   -36.797700    16.019200
     607    1     11   0.10511896   -13.498700   -35.909600    17.073200
     608    1     11   0.10511896   -14.139100   -37.652700    17.003500
     609    1     10   0.17449096   -11.960400   -36.988400    17.345200
     610    1     10   0.16784196    -9.400500   -37.783300    17.294000
     611    1     11   0.10013196    -7.456000   -38.220400    12.857600
     612    1     11   0.10013196    -8.240000   -39.861000    13.256200
     613    1     11   0.10804696    -6.167000   -40.585500    14.482400
     614    1     11   0.10804696    -5.321700   -38.983200    14.060000
     615    1     10   0.16784196    -9.668800   -38.362700    12.698000
     616    1     10   0.17449096   -12.229600   -37.566400    12.748700
     617    1      8  -0.20673100    -5.674700   -40.348800    12.363000
     618    1      6   0.16487700    -5.462300   -39.251500    11.303300
     619    1     14  -1.11508600    -4.297500   -38.372600    11.697200
     620    1      4   0.57508400    -2.907600   -38.696200    11.195000
     621    1     15  -0.54503800    -2.690600   -39.916300    10.332700
     622    1      5  -0.16220100    -1.743500   -37.720300    11.466600
     623    1      8  -0.16098900    -0.652400   -37.786500    10.376100
     624    1     11   0.10230200    -6.489800   -41.065600    12.014500
     625    1     11   0.10230200    -4.697900   -40.922700    12.489400
     626    1     11   0.12710000    -5.219600   -39.744100    10.304200
     627    1     11   0.12710000    -6.411100   -38.628400    11.199000
     628    1     12   0.53043000    -4.474000   -37.446400    12.282800
     629    1     11   0.12850600    -2.169600   -36.663200    11.487700
     630    1     11   0.12850600    -1.276900   -37.952400    12.480400
     631    1     11   0.10191900    -1.126200   -37.586900     9.358700
     632    1     11   0.10191900     0.129300   -36.984100    10.588700
     633    1      8  -0.20674319     0.059900   -39.153600    10.358900
     634    1      6   0.14821681     1.138100   -39.171700     9.255600
     635    1     14  -1.10802819     2.169600   -38.090900     9.488200
     636    1      4   0.57750081     3.542500   -38.204900     8.860900
     637    1     15  -0.54651619     3.880400   -39.401700     8.004400
     638    1      5  -0.15773219     4.603300   -37.115800     9.125500
     639    1      8  -0.15859219     5.935300   -37.715000     9.622300
     640    1     11   0.10278981    -0.696400   -39.979800    10.151100
     641    1     11   0.10278981     0.550100   -39.335900    11.371800
     642    1     11   0.12971181     1.655500   -40.187500     9.250600
     643    1     11   0.12971181     0.639700   -38.999400     8.245000
     644    1     12   0.52812581     1.937600   -37.240400    10.162500
     645    1     11   0.12740981     4.789400   -36.516400     8.173800
     646    1     11   0.12740981     4.197300   -36.420600     9.932700
     647    1     11   0.10197281     5.728300   -38.346600    10.548400
     648    1     11   0.10197281     6.644800   -36.866200     9.897900
     649    1      8  -0.20674319     6.623600   -38.583000     8.549900
     650    1      6   0.14821681     7.008500   -37.723400     7.329100
     651    1     14  -1.10802819     7.948900   -36.618000     7.754100
     652    1      4   0.57750081     9.232200   -36.367200     6.990700
     653    1     15  -0.54651619     9.614600   -37.266100     5.839300
     654    1      5  -0.15773219    10.176400   -35.231800     7.438500
     655    1      8  -0.15859219    11.623700   -35.369100     6.918600
     656    1     11   0.10278981     5.925200   -39.424300     8.229000
     657    1     11   0.10278981     7.574000   -39.031600     8.991400
     658    1     11   0.12971181     7.524000   -38.378600     6.551500
     659    1     11   0.12971181     6.066700   -37.266700     6.878000
     660    1     12   0.52812581     7.712200   -36.007600     8.649900
     661    1     11   0.12740981     9.752000   -34.238500     7.074500
     662    1     11   0.12740981    10.203000   -35.223400     8.578100
     663    1     11   0.10197281    12.074500   -36.351100     7.281500
     664    1     11   0.10197281    12.232900   -34.501000     7.337100
     665    1      8  -0.20674319    11.696700   -35.304200     5.380400
     666    1      6   0.14821681    13.175700   -35.309400     4.942500
     667    1     14  -1.10802819    13.856800   -34.096900     5.534500
     668    1      4   0.57750081    14.994100   -33.422100     4.799800
     669    1     15  -0.54651619    15.556300   -34.040400     3.542200
     670    1      5  -0.15773219    15.606500   -32.127500     5.371900
     671    1      8  -0.15859219    16.949200   -31.735700     4.721400
     672    1     11   0.10278981    11.150600   -36.197000     4.929300
     673    1     11   0.10278981    11.210500   -34.338400     5.019600
     674    1     11   0.12971181    13.684100   -36.259300     5.315000
     675    1     11   0.12971181    13.239200   -35.262400     3.805200
     676    1     12   0.52812581    13.461900   -33.646500     6.469100
     677    1     11   0.12740981    14.865700   -31.274200     5.221000
     678    1     11   0.12740981    15.774800   -32.275000     6.489700
     679    1     11   0.10197281    17.712500   -32.568600     4.873900
     680    1     11   0.10197281    17.325100   -30.785600     5.227300
     681    1      8  -0.20674319    16.795100   -31.448400     3.215500
     682    1      6   0.14821681    18.143800   -30.933400     2.675200
     683    1     14  -1.10802819    18.486800   -29.663200     3.418000
     684    1      4   0.57750081    19.489100   -28.687700     2.844000
     685    1     15  -0.54651619    20.255900   -29.038500     1.591200
     686    1      5  -0.15773219    19.729700   -27.339800     3.552000
     687    1      8  -0.15859219    20.847400   -26.507600     2.892200
     688    1     11   0.10278981    16.484900   -32.397900     2.666800
     689    1     11   0.10278981    16.003300   -30.642900     3.061000
     690    1     11   0.12971181    18.953200   -31.717100     2.848900
     691    1     11   0.12971181    18.055000   -30.712500     1.560300
     692    1     12   0.52812581    17.945500   -29.410300     4.353400
     693    1     11   0.12740981    18.761900   -26.738000     3.526300
     694    1     11   0.12740981    20.012300   -27.541300     4.637900
     695    1     11   0.10197281    21.833000   -27.078800     2.933100
     696    1     11   0.10197281    20.954500   -25.529400     3.468100
     697    1      8  -0.20674319    20.507300   -26.179600     1.425900
     698    1      6   0.14821681    21.591900   -25.239300     0.865900
     699    1     14  -1.10802819    21.566700   -23.968900     1.683000
     700    1      4   0.57750081    22.035600   -22.664300     1.080400
     701    1     15  -0.54651619    22.679500   -22.650000    -0.285300
     702    1      5  -0.15773219    21.848000   -21.351300     1.867300
     703    1      8  -0.15859219    22.411100   -20.118000     1.131400
     704    1     11   0.10278981    20.464000   -27.140500     0.814600
     705    1     11   0.10278981    19.498500   -25.651100     1.376500
     706    1     11   0.12971181    22.614400   -25.737400     0.944000
     707    1     11   0.12971181    21.364800   -24.994800    -0.224100
     708    1     12   0.52812581    21.116000   -23.976700     2.697300
     709    1     11   0.12740981    22.372600   -21.449800     2.874600
     710    1     11   0.12740981    20.733400   -21.192300     2.045500
     711    1     11   0.10197281    23.532900   -20.243400     0.972200
     712    1     11   0.10197281    22.223300   -19.195400     1.774200
     713    1      8  -0.20674319    21.722300   -19.920900    -0.232600
     714    1      6   0.14821681    22.238800   -18.626300    -0.892100
     715    1     14  -1.10802819    21.847800   -17.436900    -0.045100
     716    1      4   0.57750081    21.742900   -16.063500    -0.670400
     717    1     15  -0.54651619    22.174000   -15.853700    -2.102200
     718    1      5  -0.15773219    21.200400   -14.880600     0.158000
     719    1      8  -0.15859219    21.219300   -13.554600    -0.630900
     720    1     11   0.10278981    21.954100   -20.813300    -0.902200
     721    1     11   0.10278981    20.594700   -19.839400    -0.086900
     722    1     11   0.12971181    23.372600   -18.675800    -0.998900
     723    1     11   0.12971181    21.764800   -18.513900    -1.922700
     724    1     12   0.52812581    21.554700   -17.586000     1.014900
     725    1     11   0.12740981    21.841100   -14.763100     1.093500
     726    1     11   0.12740981    20.127900   -15.109900     0.468800
     727    1     11   0.10197281    22.290400   -13.307700    -0.933200
     728    1     11   0.10197281    20.814100   -12.722700     0.035000
     729    1      8  -0.20674319    20.343300   -13.651500    -1.894900
     730    1      6   0.14821681    20.345600   -12.304500    -2.645100
     731    1     14  -1.10802819    19.713500   -11.222100    -1.800200
     732    1      4   0.57750081    19.166300    -9.976900    -2.461100
     733    1     15  -0.54651619    19.369400    -9.765700    -3.942200
     734    1      5  -0.15773219    18.432000    -8.911800    -1.620900
     735    1      8  -0.15859219    18.082700    -7.673500    -2.472400
     736    1     11   0.10278981    20.762200   -14.461800    -2.577700
     737    1     11   0.10278981    19.273900   -13.918600    -1.604200
     738    1     11   0.12971181    21.417400   -12.015800    -2.904600
     739    1     11   0.12971181    19.742200   -12.412100    -3.606200
     740    1     12   0.52812581    19.584400   -11.374200    -0.708300
     741    1     11   0.12740981    19.107900    -8.592600    -0.760200
     742    1     11   0.12740981    17.472500    -9.358700    -1.197500
     743    1     11   0.10197281    19.041900    -7.234400    -2.904100
     744    1     11   0.10197281    17.572400    -6.893700    -1.815700
     745    1      8  -0.20674319    17.131700    -8.055800    -3.623100
     746    1      6   0.14821681    16.816300    -6.819900    -4.488500
     747    1     14  -1.10802819    16.081200    -5.760200    -3.700500
     748    1      4   0.57750081    15.297200    -4.695800    -4.434500
     749    1     15  -0.54651619    15.339900    -4.648800    -5.943000
     750    1      5  -0.15773219    14.495800    -3.635000    -3.651600
     751    1      8  -0.15859219    13.909300    -2.592500    -4.626300
     752    1     11   0.10278981    17.633500    -8.840700    -4.278500
     753    1     11   0.10278981    16.164000    -8.483300    -3.198500
     754    1     11   0.12971181    17.790000    -6.386200    -4.892300
     755    1     11   0.12971181    16.159100    -7.138800    -5.363600
     756    1     12   0.52812581    16.065000    -5.800500    -2.591600
     757    1     11   0.12740981    15.196500    -3.112100    -2.920100
     758    1     11   0.12740981    13.650300    -4.136100    -3.073900
     759    1     11   0.10197281    14.763200    -2.130100    -5.223400
     760    1     11   0.10197281    13.368500    -1.775600    -4.043400
     761    1      8  -0.20674319    12.912700    -3.265300    -5.590400
     762    1      6   0.14821681    12.410800    -2.268600    -6.654600
     763    1     14  -1.10802819    11.634300    -1.108400    -6.074700
     764    1      4   0.57750081    10.855800    -0.201000    -7.001700
     765    1     15  -0.54651619    10.894400    -0.449800    -8.490400
     766    1      5  -0.15773219    10.033700     0.979600    -6.444300
     767    1      8  -0.15859219     9.290900     1.661000    -7.613100
     768    1     11   0.10278981    13.439900    -4.118600    -6.130100
     769    1     11   0.10278981    12.031200    -3.685000    -5.002000
     770    1     11   0.12971181    13.307600    -1.863000    -7.229700
     771    1     11   0.12971181    11.729100    -2.824300    -7.379900
     772    1     12   0.52812581    11.606500    -0.945500    -4.977100
     773    1     11   0.12740981    10.744500     1.728800    -5.961500
     774    1     11   0.12740981     9.283900     0.610100    -5.669300
     775    1     11   0.10197281    10.058900     1.966300    -8.398300
     776    1     11   0.10197281     8.732400     2.585000    -7.247200
     777    1      8  -0.20674319     8.284300     0.672100    -8.232600
     778    1      6   0.14821681     7.651600     1.227600    -9.525400
     779    1     14  -1.10802819     6.846400     2.497200    -9.358700
     780    1      4   0.57750081     5.645600     2.731200   -10.249500
     781    1     15  -0.54651619     5.216300     1.653600   -11.216100
     782    1      5  -0.15773219     4.888300     4.074700   -10.226300
     783    1      8  -0.15859219     3.749300     3.976100   -11.262600
     784    1     11   0.10278981     8.840400    -0.284500    -8.505300
     785    1     11   0.10278981     7.473000     0.425800    -7.470600
     786    1     11   0.12971181     8.486600     1.430300   -10.274500
     787    1     11   0.12971181     6.962100     0.429200    -9.957600
     788    1     12   0.52812581     7.113600     3.232500    -8.571400
     789    1     11   0.12740981     5.604200     4.909600   -10.526200
     790    1     11   0.12740981     4.461300     4.283400    -9.190100
     791    1     11   0.10197281     3.018300     3.164600   -10.936100
     792    1     11   0.10197281     4.201800     3.684600   -12.267500
     793    1      8  -0.20674319     2.994900     5.308200   -11.452100
     794    1      6   0.14821681     1.903200     5.089600   -12.520100
     795    1     14  -1.10802819     1.198600     6.373800   -12.896500
     796    1      4   0.57750081    -0.014300     6.327300   -13.799200
     797    1     15  -0.54651619    -0.574700     4.992100   -14.226300
     798    1      5  -0.15773219    -0.574700     7.627400   -14.411900
     799    1      8  -0.15859219    -1.414300     7.288300   -15.661000
     800    1     11   0.10278981     2.521900     5.647500   -10.472000
     801    1     11   0.10278981     3.730400     6.099300   -11.816100
     802    1     11   0.12971181     2.397900     4.675800   -13.460000
     803    1     11   0.12971181     1.143800     4.331000   -12.136500
     804    1     12   0.52812581     1.580500     7.347900   -12.526300
     805    1     11   0.12740981     0.308100     8.276800   -14.725900
     806    1     11   0.12740981    -1.211700     8.194300   -13.655200
     807    1     11   0.10197281    -0.788800     6.634400   -16.354200
     808    1     11   0.10197281    -1.704800     8.246600   -16.206100
     809    1      8  -0.20674319    -2.708700     6.553500   -15.261300
     810    1      6   0.14821681    -3.468200     6.089600   -16.520100
     811    1     14  -1.10802819    -3.756000     7.226500   -17.473000
     812    1      4   0.57750081    -4.977000     7.171700   -18.363300
     813    1     15  -0.54651619    -5.954300     6.029700   -18.220700
     814    1      5  -0.15773219    -5.126200     8.173300   -19.526600
     815    1      8  -0.15859219    -6.016400     7.568100   -20.631800
     816    1     11   0.10278981    -2.458100     5.636000   -14.633800
     817    1     11   0.10278981    -3.360200     7.260800   -14.649200
     818    1     11   0.12971181    -2.821600     5.327900   -17.069000
     819    1     11   0.12971181    -4.446200     5.592100   -16.211000
     820    1     12   0.52812581    -3.080500     8.106800   -17.508000
     821    1     11   0.12740981    -4.087400     8.361600   -19.956600
     822    1     11   0.12740981    -5.568900     9.159100   -19.163600
     823    1     11   0.10197281    -5.615300     6.535600   -20.901000
     824    1     11   0.10197281    -5.989400     8.236200   -21.555300
     825    1      8  -0.20674319    -7.481300     7.467200   -20.164400
     826    1      6   0.14821681    -8.324200     6.748900   -21.236800
     827    1     14  -1.10802819    -8.192100     7.401700   -22.593000
     828    1      4   0.57750081    -9.298500     7.253200   -23.613400
     829    1     15  -0.54651619   -10.573700     6.539800   -23.233600
     830    1      5  -0.15773219    -9.050500     7.664400   -25.079000
     831    1      8  -0.15859219    -9.897700     6.794800   -26.030700
     832    1     11   0.10278981    -7.545300     6.874400   -19.193200
     833    1     11   0.10278981    -7.884200     8.519500   -19.992100
     834    1     11   0.12971181    -7.950700     5.675700   -21.328400
     835    1     11   0.12971181    -9.418600     6.735600   -20.917700
     836    1     12   0.52812581    -7.288700     8.000000   -22.835300
     837    1     11   0.12740981    -9.290800     8.767300   -25.238700
     838    1     11   0.12740981    -7.948200     7.482300   -25.305800
     839    1     11   0.10197281    -9.716200     5.696500   -25.785400
     840    1     11   0.10197281    -9.583800     6.995800   -27.108200
     841    1      8  -0.20674319   -11.397600     7.126900   -25.909500
     842    1      6   0.14821681   -12.208300     6.171300   -26.807400
     843    1     14  -1.10802819   -11.696300     6.195700   -28.228700
     844    1      4   0.57750081   -12.579000     5.721800   -29.361100
     845    1     15  -0.54651619   -14.023900     5.371600   -29.097200
     846    1      5  -0.15773219   -12.004500     5.609900   -30.786900
     847    1      8  -0.15859219   -11.802000     4.117100   -31.111000
     848    1     11   0.10278981   -11.561600     8.204900   -26.242300
     849    1     11   0.10278981   -11.747000     7.006100   -24.831800
     850    1     11   0.12971181   -12.089700     5.110100   -26.408300
     851    1     11   0.12971181   -13.310900     6.460200   -26.782300
     852    1     12   0.52812581   -10.675800     6.576900   -28.443100
     853    1     11   0.12740981   -12.711800     6.081400   -31.546700
     854    1     11   0.12740981   -10.996600     6.141700   -30.818200
     855    1     11   0.10197281   -11.285100     4.000400   -32.120500
     856    1     11   0.10197281   -11.155200     3.652400   -30.295400
     857    1      8  -0.20674319   -13.165500     3.403200   -31.169800
     858    1      6   0.14821681   -13.946100     3.944700   -32.382100
     859    1     14  -1.10802819   -13.123900     3.631300   -33.610300
     860    1      4   0.57750081   -13.780500     3.050400   -34.841800
     861    1     15  -0.54651619   -15.282100     2.904300   -34.901700
     862    1      5  -0.15773219   -12.905700     2.579200   -36.020900
     863    1      8  -0.15859219   -13.734200     1.947100   -37.157600
     864    1     11   0.10278981   -13.001500     2.284600   -31.315900
     865    1     11   0.10278981   -13.741400     3.582000   -30.202500
     866    1     11   0.12971181   -14.958700     3.425900   -32.453800
     867    1     11   0.12971181   -14.091700     5.070900   -32.280300
     868    1     12   0.52812581   -12.020000     3.742900   -33.575600
     869    1     11   0.12740981   -12.330300     3.472000   -36.435000
     870    1     11   0.12740981   -12.162300     1.806000   -35.635000
     871    1     11   0.10197281   -14.459600     2.718700   -37.579400
     872    1     11   0.10197281   -13.023100     1.608000   -37.981800
     873    1      8  -0.20674319   -14.528800     0.728400   -36.651600
     874    1      6   0.14821681   -15.265800     0.073700   -37.836400
     875    1     14  -1.10802819   -14.248000    -0.445700   -38.825400
     876    1      4   0.57750081   -14.631100    -1.528100   -39.809400
     877    1     15  -0.54651619   -16.071900    -1.964700   -39.922400
     878    1      5  -0.15773219   -13.553300    -2.159800   -40.714900
     879    1      8  -0.15859219   -14.153000    -3.092900   -41.787500
     880    1     11   0.10278981   -13.816900    -0.032400   -36.189200
     881    1     11   0.10278981   -15.282600     1.068700   -35.867600
     882    1     11   0.12971181   -15.891600    -0.800500   -37.457300
     883    1     11   0.12971181   -15.945200     0.839600   -38.337800
     884    1     12   0.52812581   -13.196800    -0.092700   -38.772900
     885    1     11   0.12740981   -12.977500    -1.323700   -41.233600
     886    1     11   0.12740981   -12.832400    -2.759100   -40.066300
     887    1     11   0.10197281   -14.868000    -2.500100   -42.448500
     888    1     11   0.10197281   -13.307000    -3.510800   -42.427300
     889    1      8  -0.20674319   -14.911500    -4.268000   -41.140200
     890    1      6   0.14821681   -15.474400    -5.202100   -42.230200
     891    1     14  -1.10802819   -14.356800    -5.841000   -43.022500
     892    1      4   0.57750081   -14.633800    -7.075100   -43.851900
     893    1     15  -0.54651619   -16.046400    -7.594700   -43.973100
     894    1      5  -0.15773219   -13.481400    -7.793200   -44.583600
     895    1      8  -0.15859219   -14.007800    -9.000100   -45.387600
     896    1     11   0.10278981   -15.774800    -3.859000   -40.519500
     897    1     11   0.10278981   -14.207300    -4.857400   -40.464800
     898    1     11   0.12971181   -16.082900    -6.028400   -41.733700
     899    1     11   0.12971181   -16.150100    -4.606000   -42.928500
     900    1     12   0.52812581   -13.322900    -5.444900   -42.943100
     901    1     11   0.12740981   -12.984800    -7.057300   -45.298800
     902    1     11   0.12740981   -12.714400    -8.153700   -43.821200
     903    1     11   0.10197281   -14.784200    -8.638400   -46.139700
     904    1     11   0.10197281   -13.142000    -9.490600   -45.944300
     905    1      8  -0.20674319   -14.649800   -10.040500   -44.449300
     906    1      6   0.14821681   -15.198400   -11.226800   -45.266900
     907    1     14  -1.10802819   -14.090400   -11.936900   -46.009100
     908    1      4   0.57750081   -14.292100   -13.360600   -46.476400
     909    1     15  -0.54651619   -15.616200   -14.047400   -46.242600
     910    1      5  -0.15773219   -13.153600   -14.110000   -47.195500
     911    1      8  -0.15859219   -13.581800   -15.556400   -47.516400
     912    1     11   0.10278981   -15.510200    -9.554500   -43.881700
     913    1     11   0.10278981   -13.872700   -10.415900   -43.704800
     914    1     11   0.12971181   -15.968200   -10.842400   -46.014900
     915    1     11   0.12971181   -15.700000   -11.967700   -44.560400
     916    1     12   0.52812581   -13.110500   -11.435500   -46.158400
     917    1     11   0.12740981   -12.912900   -13.567600   -48.169000
     918    1     11   0.12740981   -12.225600   -14.126300   -46.533500
     919    1     11   0.10197281   -14.521100   -15.537900   -48.162000
     920    1     11   0.10197281   -12.743300   -16.078600   -48.085500
     921    1      8  -0.20674319   -13.861100   -16.340400   -46.219400
     922    1      6   0.14821681   -14.278500   -17.783500   -46.566300
     923    1     14  -1.10802819   -13.182000   -18.435800   -47.374300
     924    1      4   0.57750081   -13.390800   -19.805400   -47.979400
     925    1     15  -0.54651619   -14.677400   -20.553400   -47.726100
     926    1      5  -0.15773219   -12.343100   -20.361300   -48.964100
     927    1      8  -0.15859219   -12.815800   -21.577300   -49.787900
     928    1     11   0.10278981   -14.696000   -15.832800   -45.632500
     929    1     11   0.10278981   -12.913100   -16.363500   -45.586900
     930    1     11   0.12971181   -15.237300   -17.763900   -47.182700
     931    1     11   0.12971181   -14.454700   -18.372600   -45.606400
     932    1     12   0.52812581   -12.236200   -17.886400   -47.564300
     933    1     11   0.12740981   -12.127400   -19.517400   -49.699600
     934    1     11   0.12740981   -11.377100   -20.622800   -48.417900
     935    1     11   0.10197281   -13.835600   -21.355400   -50.246500
     936    1     11   0.10197281   -12.060000   -21.719400   -50.629500
     937    1      8  -0.20674319   -12.842600   -22.915800   -49.019700
     938    1      6   0.14821681   -13.826600   -23.008000   -47.839100
     939    1     14  -1.10802819   -13.684400   -24.411300   -47.295700
     940    1      4   0.57750081   -13.966700   -25.592500   -48.195200
     941    1     15  -0.54651619   -14.609400   -25.372100   -49.543600
     942    1      5  -0.15773219   -13.534100   -27.011400   -47.777300
     943    1      8  -0.15859219   -14.686400   -28.030200   -47.873500
     944    1     11   0.10278981   -11.793000   -23.122900   -48.626200
     945    1     11   0.10278981   -13.121200   -23.734700   -49.762400
     946    1     11   0.12971181   -14.893200   -22.832500   -48.201200
     947    1     11   0.12971181   -13.551900   -22.241500   -47.041200
     948    1     12   0.52812581   -13.317900   -24.573500   -46.260600
     949    1     11   0.12740981   -12.713000   -27.340500   -48.496400
     950    1     11   0.12740981   -13.115400   -27.001200   -46.717000
     951    1     11   0.10197281   -15.145200   -27.993200   -48.916400
     952    1     11   0.10197281   -14.259200   -29.070900   -47.688700
     953    1      8  -0.20674319   -15.764700   -27.776000   -46.803800
     954    1      6   0.14821681   -16.832400   -28.880000   -46.931600
     955    1     14  -1.10802819   -17.822600   -28.804800   -45.793600
     956    1      4   0.57750081   -17.808000   -29.874800   -44.727300
     957    1     15  -0.54651619   -16.815300   -31.008900   -44.820400
     958    1      5  -0.15773219   -18.814600   -29.832200   -43.562000
     959    1      8  -0.15859219   -18.721000   -31.162800   -42.791100
     960    1     11   0.10278981   -15.278000   -27.843900   -45.775300
     961    1     11   0.10278981   -16.237100   -26.747000   -46.936700
     962    1     11   0.12971181   -16.315400   -29.894700   -46.879300
     963    1     11   0.12971181   -17.369300   -28.783500   -47.932600
     964    1     12   0.52812581   -18.578100   -27.992300   -45.760900
     965    1     11   0.12740981   -19.873700   -29.691000   -43.959600
     966    1     11   0.12740981   -18.546100   -28.970700   -42.865400
     967    1     11   0.10197281   -17.647900   -31.316400   -42.438300
     968    1     11   0.10197281   -19.420200   -31.142900   -41.890900
     969    1      8  -0.20674319   -19.133600   -32.313900   -43.726400
     970    1      6   0.14821681   -20.607000   -32.109600   -44.120900
     971    1     14  -1.10802819   -21.435100   -32.165700   -42.859500
     972    1      4   0.57750081   -21.496800   -33.446400   -42.061900
     973    1     15  -0.54651619   -20.723600   -34.657400   -42.526300
     974    1      5  -0.15773219   -22.265800   -33.492200   -40.728000
     975    1      8  -0.15859219   -23.777300   -33.630500   -40.987300
     976    1     11   0.10278981   -18.473900   -32.309800   -44.655900
     977    1     11   0.10278981   -19.026500   -33.310600   -43.183500
     978    1     11   0.12971181   -20.933700   -32.941800   -44.828100
     979    1     11   0.12971181   -20.732800   -31.097000   -44.629600
     980    1     12   0.52812581   -21.997800   -31.270600   -42.522100
     981    1     11   0.12740981   -22.069300   -32.534000   -40.142400
     982    1     11   0.12740981   -21.905100   -34.387100   -40.120600
     983    1     11   0.10197281   -24.148100   -32.727600   -41.576200
     984    1     11   0.10197281   -23.977700   -34.582400   -41.581900
     985    1      8  -0.20733306   -24.510200   -33.708500   -39.634900
     986    1      6   0.14231794   -26.026600   -33.843900   -39.865300
     987    1     14  -1.11471106   -26.724000   -33.949700   -38.530100
     988    1      4   0.57092394   -26.958000   -35.306800   -37.911500
     989    1     15  -0.55126506   -26.502800   -36.551300   -38.635100
     990    1      5  -0.16119506   -27.749700   -35.430400   -36.596800
     991    1      8  -0.16904906   -28.424700   -36.813500   -36.560100
     992    1     11   0.11396594   -24.134700   -34.616300   -39.056400
     993    1     11   0.11396594   -24.301500   -32.763100   -39.032800
     994    1     11   0.13503794   -26.234600   -34.785400   -40.473700
     995    1     11   0.13503794   -26.411500   -32.931500   -40.430000
     996    1     12   0.52253794   -27.126200   -33.039000   -38.039400
     997    1     11   0.12322994   -27.040100   -35.327300   -35.710600
     998    1     11   0.12322994   -28.544000   -34.614100   -36.548500
     999    1     11   0.11165294   -27.626700   -37.625700   -36.617700
    1000    1     11   0.11165294   -29.017800   -36.928700   -35.593400

Bonds

       1      2        1        2
       2      1        2        3
       3     19        3        4
       4     21        3        5
       5     21        3        6
       6     20        4        7
       7     20        4        8
       8     18        4       17
       9      2        9       10
      10      1       10       11
      11     19       11       12
      12     21       11       13
      13     21       11       14
      14     20       12       15
      15     20       12       16
      16     18       12      991
      17     15       17       18
      18     20       17       29
      19     20       17       30
      20     17       18       19
      21     16       18       31
      22     16       18       32
      23      6       19       20
      24      4       20       21
      25      3       21       22
      26      5       21       33
      27      4       22       23
      28      5       22       34
      29      6       23       24
      30      4       23       27
      31     17       24       25
      32     15       25       26
      33     16       25       35
      34     16       25       36
      35     20       26       37
      36     20       26       38
      37     18       26       41
      38      3       27       28
      39      5       27       39
      40      4       28       20
      41      5       28       40
      42     15       41       42
      43     20       41       53
      44     20       41       54
      45     17       42       43
      46     16       42       55
      47     16       42       56
      48      6       43       44
      49      4       44       45
      50      3       45       46
      51      5       45       57
      52      4       46       47
      53      5       46       58
      54      6       47       48
      55      4       47       51
      56     17       48       49
      57     15       49       50
      58     16       49       59
      59     16       49       60
      60     20       50       61
      61     20       50       62
      62     18       50       65
      63      3       51       52
      64      5       51       63
      65      4       52       44
      66      5       52       64
      67     15       65       66
      68     20       65       77
      69     20       65       78
      70     17       66       67
      71     16       66       79
      72     16       66       80
      73      6       67       68
      74      4       68       69
      75      3       69       70
      76      5       69       81
      77      4       70       71
      78      5       70       82
      79      6       71       72
      80      4       71       75
      81     17       72       73
      82     15       73       74
      83     16       73       83
      84     16       73       84
      85     20       74       85
      86     20       74       86
      87     18       74       89
      88      3       75       76
      89      5       75       87
      90      4       76       68
      91      5       76       88
      92     15       89       90
      93     20       89      101
      94     20       89      102
      95     17       90       91
      96     16       90      103
      97     16       90      104
      98      6       91       92
      99      4       92       93
     100      3       93       94
     101      5       93      105
     102      4       94       95
     103      5       94      106
     104      6       95       96
     105      4       95       99
     106     17       96       97
     107     15       97       98
     108     16       97      107
     109     16       97      108
     110     20       98      109
     111     20       98      110
     112     18       98      113
     113      3       99      100
     114      5       99      111
     115      4      100       92
     116      5      100      112
     117     15      113      114
     118     20      113      125
     119     20      113      126
     120     17      114      115
     121     16      114      127
     122     16      114      128
     123      6      115      116
     124      4      116      117
     125      3      117      118
     126      5      117      129
     127      4      118      119
     128      5      118      130
     129      6      119      120
     130      4      119      123
     131     17      120      121
     132     15      121      122
     133     16      121      131
     134     16      121      132
     135     20      122      133
     136     20      122      134
     137     18      122      137
     138      3      123      124
     139      5      123      135
     140      4      124      116
     141      5      124      136
     142     15      137      138
     143     20      137      149
     144     20      137      150
     145     17      138      139
     146     16      138      151
     147     16      138      152
     148      6      139      140
     149      4      140      141
     150      3      141      142
     151      5      141      153
     152      4      142      143
     153      5      142      154
     154      6      143      144
     155      4      143      147
     156     17      144      145
     157     15      145      146
     158     16      145      155
     159     16      145      156
     160     20      146      157
     161     20      146      158
     162     18      146      161
     163      3      147      148
     164      5      147      159
     165      4      148      140
     166      5      148      160
     167     15      161      162
     168     20      161      173
     169     20      161      174
     170     17      162      163
     171     16      162      175
     172     16      162      176
     173      6      163      164
     174      4      164      165
     175      3      165      166
     176      5      165      177
     177      4      166      167
     178      5      166      178
     179      6      167      168
     180      4      167      171
     181     17      168      169
     182     15      169      170
     183     16      169      179
     184     16      169      180
     185     20      170      181
     186     20      170      182
     187     18      170      185
     188      3      171      172
     189      5      171      183
     190      4      172      164
     191      5      172      184
     192     15      185      186
     193     20      185      197
     194     20      185      198
     195     17      186      187
     196     16      186      199
     197     16      186      200
     198      6      187      188
     199      4      188      189
     200      3      189      190
     201      5      189      201
     202      4      190      191
     203      5      190      202
     204      6      191      192
     205      4      191      195
     206     17      192      193
     207     15      193      194
     208     16      193      203
     209     16      193      204
     210     20      194      205
     211     20      194      206
     212     18      194      209
     213      3      195      196
     214      5      195      207
     215      4      196      188
     216      5      196      208
     217     15      209      210
     218     20      209      221
     219     20      209      222
     220     17      210      211
     221     16      210      223
     222     16      210      224
     223      6      211      212
     224      4      212      213
     225      3      213      214
     226      5      213      225
     227      4      214      215
     228      5      214      226
     229      6      215      216
     230      4      215      219
     231     17      216      217
     232     15      217      218
     233     16      217      227
     234     16      217      228
     235     20      218      229
     236     20      218      230
     237     18      218      233
     238      3      219      220
     239      5      219      231
     240      4      220      212
     241      5      220      232
     242     15      233      234
     243     20      233      245
     244     20      233      246
     245     17      234      235
     246     16      234      247
     247     16      234      248
     248      6      235      236
     249      4      236      237
     250      3      237      238
     251      5      237      249
     252      4      238      239
     253      5      238      250
     254      6      239      240
     255      4      239      243
     256     17      240      241
     257     15      241      242
     258     16      241      251
     259     16      241      252
     260     20      242      253
     261     20      242      254
     262     18      242      257
     263      3      243      244
     264      5      243      255
     265      4      244      236
     266      5      244      256
     267     15      257      258
     268     20      257      269
     269     20      257      270
     270     17      258      259
     271     16      258      271
     272     16      258      272
     273      6      259      260
     274      4      260      261
     275      3      261      262
     276      5      261      273
     277      4      262      263
     278      5      262      274
     279      6      263      264
     280      4      263      267
     281     17      264      265
     282     15      265      266
     283     16      265      275
     284     16      265      276
     285     20      266      277
     286     20      266      278
     287     18      266      281
     288      3      267      268
     289      5      267      279
     290      4      268      260
     291      5      268      280
     292     15      281      282
     293     20      281      293
     294     20      281      294
     295     17      282      283
     296     16      282      295
     297     16      282      296
     298      6      283      284
     299      4      284      285
     300      3      285      286
     301      5      285      297
     302      4      286      287
     303      5      286      298
     304      6      287      288
     305      4      287      291
     306     17      288      289
     307     15      289      290
     308     16      289      299
     309     16      289      300
     310     20      290      301
     311     20      290      302
     312     18      290      305
     313      3      291      292
     314      5      291      303
     315      4      292      284
     316      5      292      304
     317     15      305      306
     318     20      305      317
     319     20      305      318
     320     17      306      307
     321     16      306      319
     322     16      306      320
     323      6      307      308
     324      4      308      309
     325      3      309      310
     326      5      309      321
     327      4      310      311
     328      5      310      322
     329      6      311      312
     330      4      311      315
     331     17      312      313
     332     15      313      314
     333     16      313      323
     334     16      313      324
     335     20      314      325
     336     20      314      326
     337     18      314      329
     338      3      315      316
     339      5      315      327
     340      4      316      308
     341      5      316      328
     342     15      329      330
     343     20      329      341
     344     20      329      342
     345     17      330      331
     346     16      330      343
     347     16      330      344
     348      6      331      332
     349      4      332      333
     350      3      333      334
     351      5      333      345
     352      4      334      335
     353      5      334      346
     354      6      335      336
     355      4      335      339
     356     17      336      337
     357     15      337      338
     358     16      337      347
     359     16      337      348
     360     20      338      349
     361     20      338      350
     362     18      338      353
     363      3      339      340
     364      5      339      351
     365      4      340      332
     366      5      340      352
     367     15      353      354
     368     20      353      365
     369     20      353      366
     370     17      354      355
     371     16      354      367
     372     16      354      368
     373      6      355      356
     374      4      356      357
     375      3      357      358
     376      5      357      369
     377      4      358      359
     378      5      358      370
     379      6      359      360
     380      4      359      363
     381     17      360      361
     382     15      361      362
     383     16      361      371
     384     16      361      372
     385     20      362      373
     386     20      362      374
     387     18      362      377
     388      3      363      364
     389      5      363      375
     390      4      364      356
     391      5      364      376
     392     15      377      378
     393     20      377      389
     394     20      377      390
     395     17      378      379
     396     16      378      391
     397     16      378      392
     398      6      379      380
     399      4      380      381
     400      3      381      382
     401      5      381      393
     402      4      382      383
     403      5      382      394
     404      6      383      384
     405      4      383      387
     406     17      384      385
     407     15      385      386
     408     16      385      395
     409     16      385      396
     410     20      386      397
     411     20      386      398
     412     18      386      401
     413      3      387      388
     414      5      387      399
     415      4      388      380
     416      5      388      400
     417     15      401      402
     418     20      401      413
     419     20      401      414
     420     17      402      403
     421     16      402      415
     422     16      402      416
     423      6      403      404
     424      4      404      405
     425      3      405      406
     426      5      405      417
     427      4      406      407
     428      5      406      418
     429      6      407      408
     430      4      407      411
     431     17      408      409
     432     15      409      410
     433     16      409      419
     434     16      409      420
     435     20      410      421
     436     20      410      422
     437     18      410      425
     438      3      411      412
     439      5      411      423
     440      4      412      404
     441      5      412      424
     442     15      425      426
     443     20      425      437
     444     20      425      438
     445     17      426      427
     446     16      426      439
     447     16      426      440
     448      6      427      428
     449      4      428      429
     450      3      429      430
     451      5      429      441
     452      4      430      431
     453      5      430      442
     454      6      431      432
     455      4      431      435
     456     17      432      433
     457     15      433      434
     458     16      433      443
     459     16      433      444
     460     20      434      445
     461     20      434      446
     462     18      434      449
     463      3      435      436
     464      5      435      447
     465      4      436      428
     466      5      436      448
     467     15      449      450
     468     20      449      461
     469     20      449      462
     470     17      450      451
     471     16      450      463
     472     16      450      464
     473      6      451      452
     474      4      452      453
     475      3      453      454
     476      5      453      465
     477      4      454      455
     478      5      454      466
     479      6      455      456
     480      4      455      459
     481     17      456      457
     482     15      457      458
     483     16      457      467
     484     16      457      468
     485     20      458      469
     486     20      458      470
     487     18      458      473
     488      3      459      460
     489      5      459      471
     490      4      460      452
     491      5      460      472
     492     15      473      474
     493     20      473      485
     494     20      473      486
     495     17      474      475
     496     16      474      487
     497     16      474      488
     498      6      475      476
     499      4      476      477
     500      3      477      478
     501      5      477      489
     502      4      478      479
     503      5      478      490
     504      6      479      480
     505      4      479      483
     506     17      480      481
     507     15      481      482
     508     16      481      491
     509     16      481      492
     510     20      482      493
     511     20      482      494
     512     18      482      497
     513      3      483      484
     514      5      483      495
     515      4      484      476
     516      5      484      496
     517     15      497      498
     518     20      497      509
     519     20      497      510
     520     17      498      499
     521     16      498      511
     522     16      498      512
     523      6      499      500
     524      4      500      501
     525      3      501      502
     526      5      501      513
     527      4      502      503
     528      5      502      514
     529      6      503      504
     530      4      503      507
     531     17      504      505
     532     15      505      506
     533     16      505      515
     534     16      505      516
     535     20      506      517
     536     20      506      518
     537     18      506      521
     538      3      507      508
     539      5      507      519
     540      4      508      500
     541      5      508      520
     542     15      521      522
     543     20      521      533
     544     20      521      534
     545     17      522      523
     546     16      522      535
     547     16      522      536
     548      6      523      524
     549      4      524      525
     550      3      525      526
     551      5      525      537
     552      4      526      527
     553      5      526      538
     554      6      527      528
     555      4      527      531
     556     17      528      529
     557     15      529      530
     558     16      529      539
     559     16      529      540
     560     20      530      541
     561     20      530      542
     562     18      530      545
     563      3      531      532
     564      5      531      543
     565      4      532      524
     566      5      532      544
     567     15      545      546
     568     20      545      557
     569     20      545      558
     570     17      546      547
     571     16      546      559
     572     16      546      560
     573      6      547      548
     574      4      548      549
     575      3      549      550
     576      5      549      561
     577      4      550      551
     578      5      550      562
     579      6      551      552
     580      4      551      555
     581     17      552      553
     582     15      553      554
     583     16      553      563
     584     16      553      564
     585     20      554      565
     586     20      554      566
     587     18      554      569
     588      3      555      556
     589      5      555      567
     590      4      556      548
     591      5      556      568
     592     15      569      570
     593     20      569      581
     594     20      569      582
     595     17      570      571
     596     16      570      583
     597     16      570      584
     598      6      571      572
     599      4      572      573
     600      3      573      574
     601      5      573      585
     602      4      574      575
     603      5      574      586
     604      6      575      576
     605      4      575      579
     606     17      576      577
     607     15      577      578
     608     16      577      587
     609     16      577      588
     610     20      578      589
     611     20      578      590
     612     18      578      593
     613      3      579      580
     614      5      579      591
     615      4      580      572
     616      5      580      592
     617     15      593      594
     618     20      593      605
     619     20      593      606
     620     17      594      595
     621     16      594      607
     622     16      594      608
     623      6      595      596
     624      4      596      597
     625      3      597      598
     626      5      597      609
     627      4      598      599
     628      5      598      610
     629      6      599      600
     630      4      599      603
     631     17      600      601
     632     15      601      602
     633     16      601      611
     634     16      601      612
     635     20      602      613
     636     20      602      614
     637     18      602      617
     638      3      603      604
     639      5      603      615
     640      4      604      596
     641      5      604      616
     642     12      617      618
     643     20      617      624
     644     20      617      625
     645     14      618      619
     646     13      618      626
     647     13      618      627
     648      8      619      620
     649     22      619      628
     650      9      620      621
     651      7      620      622
     652     10      622      623
     653     11      622      629
     654     11      622      630
     655     20      623      631
     656     20      623      632
     657     18      623      633
     658     12      633      634
     659     20      633      640
     660     20      633      641
     661     14      634      635
     662     13      634      642
     663     13      634      643
     664      8      635      636
     665     22      635      644
     666      9      636      637
     667      7      636      638
     668     10      638      639
     669     11      638      645
     670     11      638      646
     671     20      639      647
     672     20      639      648
     673     18      639      649
     674     12      649      650
     675     20      649      656
     676     20      649      657
     677     14      650      651
     678     13      650      658
     679     13      650      659
     680      8      651      652
     681     22      651      660
     682      9      652      653
     683      7      652      654
     684     10      654      655
     685     11      654      661
     686     11      654      662
     687     20      655      663
     688     20      655      664
     689     18      655      665
     690     12      665      666
     691     20      665      672
     692     20      665      673
     693     14      666      667
     694     13      666      674
     695     13      666      675
     696      8      667      668
     697     22      667      676
     698      9      668      669
     699      7      668      670
     700     10      670      671
     701     11      670      677
     702     11      670      678
     703     20      671      679
     704     20      671      680
     705     18      671      681
     706     12      681      682
     707     20      681      688
     708     20      681      689
     709     14      682      683
     710     13      682      690
     711     13      682      691
     712      8      683      684
     713     22      683      692
     714      9      684      685
     715      7      684      686
     716     10      686      687
     717     11      686      693
     718     11      686      694
     719     20      687      695
     720     20      687      696
     721     18      687      697
     722     12      697      698
     723     20      697      704
     724     20      697      705
     725     14      698      699
     726     13      698      706
     727     13      698      707
     728      8      699      700
     729     22      699      708
     730      9      700      701
     731      7      700      702
     732     10      702      703
     733     11      702      709
     734     11      702      710
     735     20      703      711
     736     20      703      712
     737     18      703      713
     738     12      713      714
     739     20      713      720
     740     20      713      721
     741     14      714      715
     742     13      714      722
     743     13      714      723
     744      8      715      716
     745     22      715      724
     746      9      716      717
     747      7      716      718
     748     10      718      719
     749     11      718      725
     750     11      718      726
     751     20      719      727
     752     20      719      728
     753     18      719      729
     754     12      729      730
     755     20      729      736
     756     20      729      737
     757     14      730      731
     758     13      730      738
     759     13      730      739
     760      8      731      732
     761     22      731      740
     762      9      732      733
     763      7      732      734
     764     10      734      735
     765     11      734      741
     766     11      734      742
     767     20      735      743
     768     20      735      744
     769     18      735      745
     770     12      745      746
     771     20      745      752
     772     20      745      753
     773     14      746      747
     774     13      746      754
     775     13      746      755
     776      8      747      748
     777     22      747      756
     778      9      748      749
     779      7      748      750
     780     10      750      751
     781     11      750      757
     782     11      750      758
     783     20      751      759
     784     20      751      760
     785     18      751      761
     786     12      761      762
     787     20      761      768
     788     20      761      769
     789     14      762      763
     790     13      762      770
     791     13      762      771
     792      8      763      764
     793     22      763      772
     794      9      764      765
     795      7      764      766
     796     10      766      767
     797     11      766      773
     798     11      766      774
     799     20      767      775
     800     20      767      776
     801     18      767      777
     802     12      777      778
     803     20      777      784
     804     20      777      785
     805     14      778      779
     806     13      778      786
     807     13      778      787
     808      8      779      780
     809     22      779      788
     810      9      780      781
     811      7      780      782
     812     10      782      783
     813     11      782      789
     814     11      782      790
     815     20      783      791
     816     20      783      792
     817     18      783      793
     818     12      793      794
     819     20      793      800
     820     20      793      801
     821     14      794      795
     822     13      794      802
     823     13      794      803
     824      8      795      796
     825     22      795      804
     826      9      796      797
     827      7      796      798
     828     10      798      799
     829     11      798      805
     830     11      798      806
     831     20      799      807
     832     20      799      808
     833     18      799      809
     834     12      809      810
     835     20      809      816
     836     20      809      817
     837     14      810      811
     838     13      810      818
     839     13      810      819
     840      8      811      812
     841     22      811      820
     842      9      812      813
     843      7      812      814
     844     10      814      815
     845     11      814      821
     846     11      814      822
     847     20      815      823
     848     20      815      824
     849     18      815      825
     850     12      825      826
     851     20      825      832
     852     20      825      833
     853     14      826      827
     854     13      826      834
     855     13      826      835
     856      8      827      828
     857     22      827      836
     858      9      828      829
     859      7      828      830
     860     10      830      831
     861     11      830      837
     862     11      830      838
     863     20      831      839
     864     20      831      840
     865     18      831      841
     866     12      841      842
     867     20      841      848
     868     20      841      849
     869     14      842      843
     870     13      842      850
     871     13      842      851
     872      8      843      844
     873     22      843      852
     874      9      844      845
     875      7      844      846
     876     10      846      847
     877     11      846      853
     878     11      846      854
     879     20      847      855
     880     20      847      856
     881     18      847      857
     882     12      857      858
     883     20      857      864
     884     20      857      865
     885     14      858      859
     886     13      858      866
     887     13      858      867
     888      8      859      860
     889     22      859      868
     890      9      860      861
     891      7      860      862
     892     10      862      863
     893     11      862      869
     894     11      862      870
     895     20      863      871
     896     20      863      872
     897     18      863      873
     898     12      873      874
     899     20      873      880
     900     20      873      881
     901     14      874      875
     902     13      874      882
     903     13      874      883
     904      8      875      876
     905     22      875      884
     906      9      876      877
     907      7      876      878
     908     10      878      879
     909     11      878      885
     910     11      878      886
     911     20      879      887
     912     20      879      888
     913     18      879      889
     914     12      889      890
     915     20      889      896
     916     20      889      897
     917     14      890      891
     918     13      890      898
     919     13      890      899
     920      8      891      892
     921     22      891      900
     922      9      892      893
     923      7      892      894
     924     10      894      895
     925     11      894      901
     926     11      894      902
     927     20      895      903
     928     20      895      904
     929     18      895      905
     930     12      905      906
     931     20      905      912
     932     20      905      913
     933     14      906      907
     934     13      906      914
     935     13      906      915
     936      8      907      908
     937     22      907      916
     938      9      908      909
     939      7      908      910
     940     10      910      911
     941     11      910      917
     942     11      910      918
     943     20      911      919
     944     20      911      920
     945     18      911      921
     946     12      921      922
     947     20      921      928
     948     20      921      929
     949     14      922      923
     950     13      922      930
     951     13      922      931
     952      8      923      924
     953     22      923      932
     954      9      924      925
     955      7      924      926
     956     10      926      927
     957     11      926      933
     958     11      926      934
     959     20      927      935
     960     20      927      936
     961     18      927      937
     962     12      937      938
     963     20      937      944
     964     20      937      945
     965     14      938      939
     966     13      938      946
     967     13      938      947
     968      8      939      940
     969     22      939      948
     970      9      940      941
     971      7      940      942
     972     10      942      943
     973     11      942      949
     974     11      942      950
     975     20      943      951
     976     20      943      952
     977     18      943      953
     978     12      953      954
     979     20      953      960
     980     20      953      961
     981     14      954      955
     982     13      954      962
     983     13      954      963
     984      8      955      956
     985     22      955      964
     986      9      956      957
     987      7      956      958
     988     10      958      959
     989     11      958      965
     990     11      958      966
     991     20      959      967
     992     20      959      968
     993     18      959      969
     994     12      969      970
     995     20      969      976
     996     20      969      977
     997     14      970      971
     998     13      970      978
     999     13      970      979
    1000      8      971      972
    1001     22      971      980
    1002      9      972      973
    1003      7      972      974
    1004     10      974      975
    1005     11      974      981
    1006     11      974      982
    1007     20      975      983
    1008     20      975      984
    1009     18      975      985
    1010     12      985      986
    1011     20      985      992
    1012     20      985      993
    1013     14      986      987
    1014     13      986      994
    1015     13      986      995
    1016      8      987      988
    1017     22      987      996
    1018      9      988      989
    1019      7      988      990
    1020     10      990      991
    1021     11      990      997
    1022     11      990      998
    1023     20      991      999
    1024     20      991     1000

Angles

       1     30        1        2        3
       2      1        2        3        4
       3      2        2        3        5
       4      2        2        3        6
       5     31        3        4        7
       6     31        3        4        8
       7     27        3        4       17
       8     29        4        3        5
       9     29        4        3        6
      10     20        4       17       18
      11     28        4       17       29
      12     28        4       17       30
      13     38        5        3        6
      14     37        7        4        8
      15     28        7        4       17
      16     28        8        4       17
      17     30        9       10       11
      18      1       10       11       12
      19      2       10       11       13
      20      2       10       11       14
      21     31       11       12       15
      22     31       11       12       16
      23     27       11       12      991
      24     29       12       11       13
      25     29       12       11       14
      26     15       12      991      990
      27     28       12      991      999
      28     28       12      991     1000
      29     38       13       11       14
      30     37       15       12       16
      31     28       15       12      991
      32     28       16       12      991
      33     26       17       18       19
      34     25       17       18       31
      35     25       17       18       32
      36     21       18       17       29
      37     21       18       17       30
      38      8       18       19       20
      39     36       19       18       31
      40     36       19       18       32
      41      6       19       20       21
      42      6       19       20       28
      43      3       20       21       22
      44      7       20       21       33
      45      3       20       28       27
      46      7       20       28       40
      47      5       21       20       28
      48      3       21       22       23
      49      4       21       22       34
      50      4       22       21       33
      51      6       22       23       24
      52      5       22       23       27
      53      7       23       22       34
      54      8       23       24       25
      55      3       23       27       28
      56      7       23       27       39
      57      6       24       23       27
      58     26       24       25       26
      59     36       24       25       35
      60     36       24       25       36
      61     21       25       26       37
      62     21       25       26       38
      63     20       25       26       41
      64     25       26       25       35
      65     25       26       25       36
      66     20       26       41       42
      67     28       26       41       53
      68     28       26       41       54
      69      4       27       28       40
      70      4       28       27       39
      71     37       29       17       30
      72     35       31       18       32
      73     35       35       25       36
      74     37       37       26       38
      75     28       37       26       41
      76     28       38       26       41
      77     26       41       42       43
      78     25       41       42       55
      79     25       41       42       56
      80     21       42       41       53
      81     21       42       41       54
      82      8       42       43       44
      83     36       43       42       55
      84     36       43       42       56
      85      6       43       44       45
      86      6       43       44       52
      87      3       44       45       46
      88      7       44       45       57
      89      3       44       52       51
      90      7       44       52       64
      91      5       45       44       52
      92      3       45       46       47
      93      4       45       46       58
      94      4       46       45       57
      95      6       46       47       48
      96      5       46       47       51
      97      7       47       46       58
      98      8       47       48       49
      99      3       47       51       52
     100      7       47       51       63
     101      6       48       47       51
     102     26       48       49       50
     103     36       48       49       59
     104     36       48       49       60
     105     21       49       50       61
     106     21       49       50       62
     107     20       49       50       65
     108     25       50       49       59
     109     25       50       49       60
     110     20       50       65       66
     111     28       50       65       77
     112     28       50       65       78
     113      4       51       52       64
     114      4       52       51       63
     115     37       53       41       54
     116     35       55       42       56
     117     35       59       49       60
     118     37       61       50       62
     119     28       61       50       65
     120     28       62       50       65
     121     26       65       66       67
     122     25       65       66       79
     123     25       65       66       80
     124     21       66       65       77
     125     21       66       65       78
     126      8       66       67       68
     127     36       67       66       79
     128     36       67       66       80
     129      6       67       68       69
     130      6       67       68       76
     131      3       68       69       70
     132      7       68       69       81
     133      3       68       76       75
     134      7       68       76       88
     135      5       69       68       76
     136      3       69       70       71
     137      4       69       70       82
     138      4       70       69       81
     139      6       70       71       72
     140      5       70       71       75
     141      7       71       70       82
     142      8       71       72       73
     143      3       71       75       76
     144      7       71       75       87
     145      6       72       71       75
     146     26       72       73       74
     147     36       72       73       83
     148     36       72       73       84
     149     21       73       74       85
     150     21       73       74       86
     151     20       73       74       89
     152     25       74       73       83
     153     25       74       73       84
     154     20       74       89       90
     155     28       74       89      101
     156     28       74       89      102
     157      4       75       76       88
     158      4       76       75       87
     159     37       77       65       78
     160     35       79       66       80
     161     35       83       73       84
     162     37       85       74       86
     163     28       85       74       89
     164     28       86       74       89
     165     26       89       90       91
     166     25       89       90      103
     167     25       89       90      104
     168     21       90       89      101
     169     21       90       89      102
     170      8       90       91       92
     171     36       91       90      103
     172     36       91       90      104
     173      6       91       92       93
     174      6       91       92      100
     175      3       92       93       94
     176      7       92       93      105
     177      3       92      100       99
     178      7       92      100      112
     179      5       93       92      100
     180      3       93       94       95
     181      4       93       94      106
     182      4       94       93      105
     183      6       94       95       96
     184      5       94       95       99
     185      7       95       94      106
     186      8       95       96       97
     187      3       95       99      100
     188      7       95       99      111
     189      6       96       95       99
     190     26       96       97       98
     191     36       96       97      107
     192     36       96       97      108
     193     21       97       98      109
     194     21       97       98      110
     195     20       97       98      113
     196     25       98       97      107
     197     25       98       97      108
     198     20       98      113      114
     199     28       98      113      125
     200     28       98      113      126
     201      4       99      100      112
     202      4      100       99      111
     203     37      101       89      102
     204     35      103       90      104
     205     35      107       97      108
     206     37      109       98      110
     207     28      109       98      113
     208     28      110       98      113
     209     26      113      114      115
     210     25      113      114      127
     211     25      113      114      128
     212     21      114      113      125
     213     21      114      113      126
     214      8      114      115      116
     215     36      115      114      127
     216     36      115      114      128
     217      6      115      116      117
     218      6      115      116      124
     219      3      116      117      118
     220      7      116      117      129
     221      3      116      124      123
     222      7      116      124      136
     223      5      117      116      124
     224      3      117      118      119
     225      4      117      118      130
     226      4      118      117      129
     227      6      118      119      120
     228      5      118      119      123
     229      7      119      118      130
     230      8      119      120      121
     231      3      119      123      124
     232      7      119      123      135
     233      6      120      119      123
     234     26      120      121      122
     235     36      120      121      131
     236     36      120      121      132
     237     21      121      122      133
     238     21      121      122      134
     239     20      121      122      137
     240     25      122      121      131
     241     25      122      121      132
     242     20      122      137      138
     243     28      122      137      149
     244     28      122      137      150
     245      4      123      124      136
     246      4      124      123      135
     247     37      125      113      126
     248     35      127      114      128
     249     35      131      121      132
     250     37      133      122      134
     251     28      133      122      137
     252     28      134      122      137
     253     26      137      138      139
     254     25      137      138      151
     255     25      137      138      152
     256     21      138      137      149
     257     21      138      137      150
     258      8      138      139      140
     259     36      139      138      151
     260     36      139      138      152
     261      6      139      140      141
     262      6      139      140      148
     263      3      140      141      142
     264      7      140      141      153
     265      3      140      148      147
     266      7      140      148      160
     267      5      141      140      148
     268      3      141      142      143
     269      4      141      142      154
     270      4      142      141      153
     271      6      142      143      144
     272      5      142      143      147
     273      7      143      142      154
     274      8      143      144      145
     275      3      143      147      148
     276      7      143      147      159
     277      6      144      143      147
     278     26      144      145      146
     279     36      144      145      155
     280     36      144      145      156
     281     21      145      146      157
     282     21      145      146      158
     283     20      145      146      161
     284     25      146      145      155
     285     25      146      145      156
     286     20      146      161      162
     287     28      146      161      173
     288     28      146      161      174
     289      4      147      148      160
     290      4      148      147      159
     291     37      149      137      150
     292     35      151      138      152
     293     35      155      145      156
     294     37      157      146      158
     295     28      157      146      161
     296     28      158      146      161
     297     26      161      162      163
     298     25      161      162      175
     299     25      161      162      176
     300     21      162      161      173
     301     21      162      161      174
     302      8      162      163      164
     303     36      163      162      175
     304     36      163      162      176
     305      6      163      164      165
     306      6      163      164      172
     307      3      164      165      166
     308      7      164      165      177
     309      3      164      172      171
     310      7      164      172      184
     311      5      165      164      172
     312      3      165      166      167
     313      4      165      166      178
     314      4      166      165      177
     315      6      166      167      168
     316      5      166      167      171
     317      7      167      166      178
     318      8      167      168      169
     319      3      167      171      172
     320      7      167      171      183
     321      6      168      167      171
     322     26      168      169      170
     323     36      168      169      179
     324     36      168      169      180
     325     21      169      170      181
     326     21      169      170      182
     327     20      169      170      185
     328     25      170      169      179
     329     25      170      169      180
     330     20      170      185      186
     331     28      170      185      197
     332     28      170      185      198
     333      4      171      172      184
     334      4      172      171      183
     335     37      173      161      174
     336     35      175      162      176
     337     35      179      169      180
     338     37      181      170      182
     339     28      181      170      185
     340     28      182      170      185
     341     26      185      186      187
     342     25      185      186      199
     343     25      185      186      200
     344     21      186      185      197
     345     21      186      185      198
     346      8      186      187      188
     347     36      187      186      199
     348     36      187      186      200
     349      6      187      188      189
     350      6      187      188      196
     351      3      188      189      190
     352      7      188      189      201
     353      3      188      196      195
     354      7      188      196      208
     355      5      189      188      196
     356      3      189      190      191
     357      4      189      190      202
     358      4      190      189      201
     359      6      190      191      192
     360      5      190      191      195
     361      7      191      190      202
     362      8      191      192      193
     363      3      191      195      196
     364      7      191      195      207
     365      6      192      191      195
     366     26      192      193      194
     367     36      192      193      203
     368     36      192      193      204
     369     21      193      194      205
     370     21      193      194      206
     371     20      193      194      209
     372     25      194      193      203
     373     25      194      193      204
     374     20      194      209      210
     375     28      194      209      221
     376     28      194      209      222
     377      4      195      196      208
     378      4      196      195      207
     379     37      197      185      198
     380     35      199      186      200
     381     35      203      193      204
     382     37      205      194      206
     383     28      205      194      209
     384     28      206      194      209
     385     26      209      210      211
     386     25      209      210      223
     387     25      209      210      224
     388     21      210      209      221
     389     21      210      209      222
     390      8      210      211      212
     391     36      211      210      223
     392     36      211      210      224
     393      6      211      212      213
     394      6      211      212      220
     395      3      212      213      214
     396      7      212      213      225
     397      3      212      220      219
     398      7      212      220      232
     399      5      213      212      220
     400      3      213      214      215
     401      4      213      214      226
     402      4      214      213      225
     403      6      214      215      216
     404      5      214      215      219
     405      7      215      214      226
     406      8      215      216      217
     407      3      215      219      220
     408      7      215      219      231
     409      6      216      215      219
     410     26      216      217      218
     411     36      216      217      227
     412     36      216      217      228
     413     21      217      218      229
     414     21      217      218      230
     415     20      217      218      233
     416     25      218      217      227
     417     25      218      217      228
     418     20      218      233      234
     419     28      218      233      245
     420     28      218      233      246
     421      4      219      220      232
     422      4      220      219      231
     423     37      221      209      222
     424     35      223      210      224
     425     35      227      217      228
     426     37      229      218      230
     427     28      229      218      233
     428     28      230      218      233
     429     26      233      234      235
     430     25      233      234      247
     431     25      233      234      248
     432     21      234      233      245
     433     21      234      233      246
     434      8      234      235      236
     435     36      235      234      247
     436     36      235      234      248
     437      6      235      236      237
     438      6      235      236      244
     439      3      236      237      238
     440      7      236      237      249
     441      3      236      244      243
     442      7      236      244      256
     443      5      237      236      244
     444      3      237      238      239
     445      4      237      238      250
     446      4      238      237      249
     447      6      238      239      240
     448      5      238      239      243
     449      7      239      238      250
     450      8      239      240      241
     451      3      239      243      244
     452      7      239      243      255
     453      6      240      239      243
     454     26      240      241      242
     455     36      240      241      251
     456     36      240      241      252
     457     21      241      242      253
     458     21      241      242      254
     459     20      241      242      257
     460     25      242      241      251
     461     25      242      241      252
     462     20      242      257      258
     463     28      242      257      269
     464     28      242      257      270
     465      4      243      244      256
     466      4      244      243      255
     467     37      245      233      246
     468     35      247      234      248
     469     35      251      241      252
     470     37      253      242      254
     471     28      253      242      257
     472     28      254      242      257
     473     26      257      258      259
     474     25      257      258      271
     475     25      257      258      272
     476     21      258      257      269
     477     21      258      257      270
     478      8      258      259      260
     479     36      259      258      271
     480     36      259      258      272
     481      6      259      260      261
     482      6      259      260      268
     483      3      260      261      262
     484      7      260      261      273
     485      3      260      268      267
     486      7      260      268      280
     487      5      261      260      268
     488      3      261      262      263
     489      4      261      262      274
     490      4      262      261      273
     491      6      262      263      264
     492      5      262      263      267
     493      7      263      262      274
     494      8      263      264      265
     495      3      263      267      268
     496      7      263      267      279
     497      6      264      263      267
     498     26      264      265      266
     499     36      264      265      275
     500     36      264      265      276
     501     21      265      266      277
     502     21      265      266      278
     503     20      265      266      281
     504     25      266      265      275
     505     25      266      265      276
     506     20      266      281      282
     507     28      266      281      293
     508     28      266      281      294
     509      4      267      268      280
     510      4      268      267      279
     511     37      269      257      270
     512     35      271      258      272
     513     35      275      265      276
     514     37      277      266      278
     515     28      277      266      281
     516     28      278      266      281
     517     26      281      282      283
     518     25      281      282      295
     519     25      281      282      296
     520     21      282      281      293
     521     21      282      281      294
     522      8      282      283      284
     523     36      283      282      295
     524     36      283      282      296
     525      6      283      284      285
     526      6      283      284      292
     527      3      284      285      286
     528      7      284      285      297
     529      3      284      292      291
     530      7      284      292      304
     531      5      285      284      292
     532      3      285      286      287
     533      4      285      286      298
     534      4      286      285      297
     535      6      286      287      288
     536      5      286      287      291
     537      7      287      286      298
     538      8      287      288      289
     539      3      287      291      292
     540      7      287      291      303
     541      6      288      287      291
     542     26      288      289      290
     543     36      288      289      299
     544     36      288      289      300
     545     21      289      290      301
     546     21      289      290      302
     547     20      289      290      305
     548     25      290      289      299
     549     25      290      289      300
     550     20      290      305      306
     551     28      290      305      317
     552     28      290      305      318
     553      4      291      292      304
     554      4      292      291      303
     555     37      293      281      294
     556     35      295      282      296
     557     35      299      289      300
     558     37      301      290      302
     559     28      301      290      305
     560     28      302      290      305
     561     26      305      306      307
     562     25      305      306      319
     563     25      305      306      320
     564     21      306      305      317
     565     21      306      305      318
     566      8      306      307      308
     567     36      307      306      319
     568     36      307      306      320
     569      6      307      308      309
     570      6      307      308      316
     571      3      308      309      310
     572      7      308      309      321
     573      3      308      316      315
     574      7      308      316      328
     575      5      309      308      316
     576      3      309      310      311
     577      4      309      310      322
     578      4      310      309      321
     579      6      310      311      312
     580      5      310      311      315
     581      7      311      310      322
     582      8      311      312      313
     583      3      311      315      316
     584      7      311      315      327
     585      6      312      311      315
     586     26      312      313      314
     587     36      312      313      323
     588     36      312      313      324
     589     21      313      314      325
     590     21      313      314      326
     591     20      313      314      329
     592     25      314      313      323
     593     25      314      313      324
     594     20      314      329      330
     595     28      314      329      341
     596     28      314      329      342
     597      4      315      316      328
     598      4      316      315      327
     599     37      317      305      318
     600     35      319      306      320
     601     35      323      313      324
     602     37      325      314      326
     603     28      325      314      329
     604     28      326      314      329
     605     26      329      330      331
     606     25      329      330      343
     607     25      329      330      344
     608     21      330      329      341
     609     21      330      329      342
     610      8      330      331      332
     611     36      331      330      343
     612     36      331      330      344
     613      6      331      332      333
     614      6      331      332      340
     615      3      332      333      334
     616      7      332      333      345
     617      3      332      340      339
     618      7      332      340      352
     619      5      333      332      340
     620      3      333      334      335
     621      4      333      334      346
     622      4      334      333      345
     623      6      334      335      336
     624      5      334      335      339
     625      7      335      334      346
     626      8      335      336      337
     627      3      335      339      340
     628      7      335      339      351
     629      6      336      335      339
     630     26      336      337      338
     631     36      336      337      347
     632     36      336      337      348
     633     21      337      338      349
     634     21      337      338      350
     635     20      337      338      353
     636     25      338      337      347
     637     25      338      337      348
     638     20      338      353      354
     639     28      338      353      365
     640     28      338      353      366
     641      4      339      340      352
     642      4      340      339      351
     643     37      341      329      342
     644     35      343      330      344
     645     35      347      337      348
     646     37      349      338      350
     647     28      349      338      353
     648     28      350      338      353
     649     26      353      354      355
     650     25      353      354      367
     651     25      353      354      368
     652     21      354      353      365
     653     21      354      353      366
     654      8      354      355      356
     655     36      355      354      367
     656     36      355      354      368
     657      6      355      356      357
     658      6      355      356      364
     659      3      356      357      358
     660      7      356      357      369
     661      3      356      364      363
     662      7      356      364      376
     663      5      357      356      364
     664      3      357      358      359
     665      4      357      358      370
     666      4      358      357      369
     667      6      358      359      360
     668      5      358      359      363
     669      7      359      358      370
     670      8      359      360      361
     671      3      359      363      364
     672      7      359      363      375
     673      6      360      359      363
     674     26      360      361      362
     675     36      360      361      371
     676     36      360      361      372
     677     21      361      362      373
     678     21      361      362      374
     679     20      361      362      377
     680     25      362      361      371
     681     25      362      361      372
     682     20      362      377      378
     683     28      362      377      389
     684     28      362      377      390
     685      4      363      364      376
     686      4      364      363      375
     687     37      365      353      366
     688     35      367      354      368
     689     35      371      361      372
     690     37      373      362      374
     691     28      373      362      377
     692     28      374      362      377
     693     26      377      378      379
     694     25      377      378      391
     695     25      377      378      392
     696     21      378      377      389
     697     21      378      377      390
     698      8      378      379      380
     699     36      379      378      391
     700     36      379      378      392
     701      6      379      380      381
     702      6      379      380      388
     703      3      380      381      382
     704      7      380      381      393
     705      3      380      388      387
     706      7      380      388      400
     707      5      381      380      388
     708      3      381      382      383
     709      4      381      382      394
     710      4      382      381      393
     711      6      382      383      384
     712      5      382      383      387
     713      7      383      382      394
     714      8      383      384      385
     715      3      383      387      388
     716      7      383      387      399
     717      6      384      383      387
     718     26      384      385      386
     719     36      384      385      395
     720     36      384      385      396
     721     21      385      386      397
     722     21      385      386      398
     723     20      385      386      401
     724     25      386      385      395
     725     25      386      385      396
     726     20      386      401      402
     727     28      386      401      413
     728     28      386      401      414
     729      4      387      388      400
     730      4      388      387      399
     731     37      389      377      390
     732     35      391      378      392
     733     35      395      385      396
     734     37      397      386      398
     735     28      397      386      401
     736     28      398      386      401
     737     26      401      402      403
     738     25      401      402      415
     739     25      401      402      416
     740     21      402      401      413
     741     21      402      401      414
     742      8      402      403      404
     743     36      403      402      415
     744     36      403      402      416
     745      6      403      404      405
     746      6      403      404      412
     747      3      404      405      406
     748      7      404      405      417
     749      3      404      412      411
     750      7      404      412      424
     751      5      405      404      412
     752      3      405      406      407
     753      4      405      406      418
     754      4      406      405      417
     755      6      406      407      408
     756      5      406      407      411
     757      7      407      406      418
     758      8      407      408      409
     759      3      407      411      412
     760      7      407      411      423
     761      6      408      407      411
     762     26      408      409      410
     763     36      408      409      419
     764     36      408      409      420
     765     21      409      410      421
     766     21      409      410      422
     767     20      409      410      425
     768     25      410      409      419
     769     25      410      409      420
     770     20      410      425      426
     771     28      410      425      437
     772     28      410      425      438
     773      4      411      412      424
     774      4      412      411      423
     775     37      413      401      414
     776     35      415      402      416
     777     35      419      409      420
     778     37      421      410      422
     779     28      421      410      425
     780     28      422      410      425
     781     26      425      426      427
     782     25      425      426      439
     783     25      425      426      440
     784     21      426      425      437
     785     21      426      425      438
     786      8      426      427      428
     787     36      427      426      439
     788     36      427      426      440
     789      6      427      428      429
     790      6      427      428      436
     791      3      428      429      430
     792      7      428      429      441
     793      3      428      436      435
     794      7      428      436      448
     795      5      429      428      436
     796      3      429      430      431
     797      4      429      430      442
     798      4      430      429      441
     799      6      430      431      432
     800      5      430      431      435
     801      7      431      430      442
     802      8      431      432      433
     803      3      431      435      436
     804      7      431      435      447
     805      6      432      431      435
     806     26      432      433      434
     807     36      432      433      443
     808     36      432      433      444
     809     21      433      434      445
     810     21      433      434      446
     811     20      433      434      449
     812     25      434      433      443
     813     25      434      433      444
     814     20      434      449      450
     815     28      434      449      461
     816     28      434      449      462
     817      4      435      436      448
     818      4      436      435      447
     819     37      437      425      438
     820     35      439      426      440
     821     35      443      433      444
     822     37      445      434      446
     823     28      445      434      449
     824     28      446      434      449
     825     26      449      450      451
     826     25      449      450      463
     827     25      449      450      464
     828     21      450      449      461
     829     21      450      449      462
     830      8      450      451      452
     831     36      451      450      463
     832     36      451      450      464
     833      6      451      452      453
     834      6      451      452      460
     835      3      452      453      454
     836      7      452      453      465
     837      3      452      460      459
     838      7      452      460      472
     839      5      453      452      460
     840      3      453      454      455
     841      4      453      454      466
     842      4      454      453      465
     843      6      454      455      456
     844      5      454      455      459
     845      7      455      454      466
     846      8      455      456      457
     847      3      455      459      460
     848      7      455      459      471
     849      6      456      455      459
     850     26      456      457      458
     851     36      456      457      467
     852     36      456      457      468
     853     21      457      458      469
     854     21      457      458      470
     855     20      457      458      473
     856     25      458      457      467
     857     25      458      457      468
     858     20      458      473      474
     859     28      458      473      485
     860     28      458      473      486
     861      4      459      460      472
     862      4      460      459      471
     863     37      461      449      462
     864     35      463      450      464
     865     35      467      457      468
     866     37      469      458      470
     867     28      469      458      473
     868     28      470      458      473
     869     26      473      474      475
     870     25      473      474      487
     871     25      473      474      488
     872     21      474      473      485
     873     21      474      473      486
     874      8      474      475      476
     875     36      475      474      487
     876     36      475      474      488
     877      6      475      476      477
     878      6      475      476      484
     879      3      476      477      478
     880      7      476      477      489
     881      3      476      484      483
     882      7      476      484      496
     883      5      477      476      484
     884      3      477      478      479
     885      4      477      478      490
     886      4      478      477      489
     887      6      478      479      480
     888      5      478      479      483
     889      7      479      478      490
     890      8      479      480      481
     891      3      479      483      484
     892      7      479      483      495
     893      6      480      479      483
     894     26      480      481      482
     895     36      480      481      491
     896     36      480      481      492
     897     21      481      482      493
     898     21      481      482      494
     899     20      481      482      497
     900     25      482      481      491
     901     25      482      481      492
     902     20      482      497      498
     903     28      482      497      509
     904     28      482      497      510
     905      4      483      484      496
     906      4      484      483      495
     907     37      485      473      486
     908     35      487      474      488
     909     35      491      481      492
     910     37      493      482      494
     911     28      493      482      497
     912     28      494      482      497
     913     26      497      498      499
     914     25      497      498      511
     915     25      497      498      512
     916     21      498      497      509
     917     21      498      497      510
     918      8      498      499      500
     919     36      499      498      511
     920     36      499      498      512
     921      6      499      500      501
     922      6      499      500      508
     923      3      500      501      502
     924      7      500      501      513
     925      3      500      508      507
     926      7      500      508      520
     927      5      501      500      508
     928      3      501      502      503
     929      4      501      502      514
     930      4      502      501      513
     931      6      502      503      504
     932      5      502      503      507
     933      7      503      502      514
     934      8      503      504      505
     935      3      503      507      508
     936      7      503      507      519
     937      6      504      503      507
     938     26      504      505      506
     939     36      504      505      515
     940     36      504      505      516
     941     21      505      506      517
     942     21      505      506      518
     943     20      505      506      521
     944     25      506      505      515
     945     25      506      505      516
     946     20      506      521      522
     947     28      506      521      533
     948     28      506      521      534
     949      4      507      508      520
     950      4      508      507      519
     951     37      509      497      510
     952     35      511      498      512
     953     35      515      505      516
     954     37      517      506      518
     955     28      517      506      521
     956     28      518      506      521
     957     26      521      522      523
     958     25      521      522      535
     959     25      521      522      536
     960     21      522      521      533
     961     21      522      521      534
     962      8      522      523      524
     963     36      523      522      535
     964     36      523      522      536
     965      6      523      524      525
     966      6      523      524      532
     967      3      524      525      526
     968      7      524      525      537
     969      3      524      532      531
     970      7      524      532      544
     971      5      525      524      532
     972      3      525      526      527
     973      4      525      526      538
     974      4      526      525      537
     975      6      526      527      528
     976      5      526      527      531
     977      7      527      526      538
     978      8      527      528      529
     979      3      527      531      532
     980      7      527      531      543
     981      6      528      527      531
     982     26      528      529      530
     983     36      528      529      539
     984     36      528      529      540
     985     21      529      530      541
     986     21      529      530      542
     987     20      529      530      545
     988     25      530      529      539
     989     25      530      529      540
     990     20      530      545      546
     991     28      530      545      557
     992     28      530      545      558
     993      4      531      532      544
     994      4      532      531      543
     995     37      533      521      534
     996     35      535      522      536
     997     35      539      529      540
     998     37      541      530      542
     999     28      541      530      545
    1000     28      542      530      545
    1001     26      545      546      547
    1002     25      545      546      559
    1003     25      545      546      560
    1004     21      546      545      557
    1005     21      546      545      558
    1006      8      546      547      548
    1007     36      547      546      559
    1008     36      547      546      560
    1009      6      547      548      549
    1010      6      547      548      556
    1011      3      548      549      550
    1012      7      548      549      561
    1013      3      548      556      555
    1014      7      548      556      568
    1015      5      549      548      556
    1016      3      549      550      551
    1017      4      549      550      562
    1018      4      550      549      561
    1019      6      550      551      552
    1020      5      550      551      555
    1021      7      551      550      562
    1022      8      551      552      553
    1023      3      551      555      556
    1024      7      551      555      567
    1025      6      552      551      555
    1026     26      552      553      554
    1027     36      552      553      563
    1028     36      552      553      564
    1029     21      553      554      565
    1030     21      553      554      566
    1031     20      553      554      569
    1032     25      554      553      563
    1033     25      554      553      564
    1034     20      554      569      570
    1035     28      554      569      581
    1036     28      554      569      582
    1037      4      555      556      568
    1038      4      556      555      567
    1039     37      557      545      558
    1040     35      559      546      560
    1041     35      563      553      564
    1042     37      565      554      566
    1043     28      565      554      569
    1044     28      566      554      569
    1045     26      569      570      571
    1046     25      569      570      583
    1047     25      569      570      584
    1048     21      570      569      581
    1049     21      570      569      582
    1050      8      570      571      572
    1051     36      571      570      583
    1052     36      571      570      584
    1053      6      571      572      573
    1054      6      571      572      580
    1055      3      572      573      574
    1056      7      572      573      585
    1057      3      572      580      579
    1058      7      572      580      592
    1059      5      573      572      580
    1060      3      573      574      575
    1061      4      573      574      586
    1062      4      574      573      585
    1063      6      574      575      576
    1064      5      574      575      579
    1065      7      575      574      586
    1066      8      575      576      577
    1067      3      575      579      580
    1068      7      575      579      591
    1069      6      576      575      579
    1070     26      576      577      578
    1071     36      576      577      587
    1072     36      576      577      588
    1073     21      577      578      589
    1074     21      577      578      590
    1075     20      577      578      593
    1076     25      578      577      587
    1077     25      578      577      588
    1078     20      578      593      594
    1079     28      578      593      605
    1080     28      578      593      606
    1081      4      579      580      592
    1082      4      580      579      591
    1083     37      581      569      582
    1084     35      583      570      584
    1085     35      587      577      588
    1086     37      589      578      590
    1087     28      589      578      593
    1088     28      590      578      593
    1089     26      593      594      595
    1090     25      593      594      607
    1091     25      593      594      608
    1092     21      594      593      605
    1093     21      594      593      606
    1094      8      594      595      596
    1095     36      595      594      607
    1096     36      595      594      608
    1097      6      595      596      597
    1098      6      595      596      604
    1099      3      596      597      598
    1100      7      596      597      609
    1101      3      596      604      603
    1102      7      596      604      616
    1103      5      597      596      604
    1104      3      597      598      599
    1105      4      597      598      610
    1106      4      598      597      609
    1107      6      598      599      600
    1108      5      598      599      603
    1109      7      599      598      610
    1110      8      599      600      601
    1111      3      599      603      604
    1112      7      599      603      615
    1113      6      600      599      603
    1114     26      600      601      602
    1115     36      600      601      611
    1116     36      600      601      612
    1117     21      601      602      613
    1118     21      601      602      614
    1119     20      601      602      617
    1120     25      602      601      611
    1121     25      602      601      612
    1122     17      602      617      618
    1123     28      602      617      624
    1124     28      602      617      625
    1125      4      603      604      616
    1126      4      604      603      615
    1127     37      605      593      606
    1128     35      607      594      608
    1129     35      611      601      612
    1130     37      613      602      614
    1131     28      613      602      617
    1132     28      614      602      617
    1133     24      617      618      619
    1134     23      617      618      626
    1135     23      617      618      627
    1136     18      618      617      624
    1137     18      618      617      625
    1138     11      618      619      620
    1139     19      618      619      628
    1140     34      619      618      626
    1141     34      619      618      627
    1142     39      619      620      621
    1143     13      619      620      622
    1144     12      620      619      628
    1145      9      620      622      623
    1146     10      620      622      629
    1147     10      620      622      630
    1148     14      621      620      622
    1149     16      622      623      631
    1150     16      622      623      632
    1151     15      622      623      633
    1152     22      623      622      629
    1153     22      623      622      630
    1154     17      623      633      634
    1155     28      623      633      640
    1156     28      623      633      641
    1157     37      624      617      625
    1158     33      626      618      627
    1159     32      629      622      630
    1160     37      631      623      632
    1161     28      631      623      633
    1162     28      632      623      633
    1163     24      633      634      635
    1164     23      633      634      642
    1165     23      633      634      643
    1166     18      634      633      640
    1167     18      634      633      641
    1168     11      634      635      636
    1169     19      634      635      644
    1170     34      635      634      642
    1171     34      635      634      643
    1172     39      635      636      637
    1173     13      635      636      638
    1174     12      636      635      644
    1175      9      636      638      639
    1176     10      636      638      645
    1177     10      636      638      646
    1178     14      637      636      638
    1179     16      638      639      647
    1180     16      638      639      648
    1181     15      638      639      649
    1182     22      639      638      645
    1183     22      639      638      646
    1184     17      639      649      650
    1185     28      639      649      656
    1186     28      639      649      657
    1187     37      640      633      641
    1188     33      642      634      643
    1189     32      645      638      646
    1190     37      647      639      648
    1191     28      647      639      649
    1192     28      648      639      649
    1193     24      649      650      651
    1194     23      649      650      658
    1195     23      649      650      659
    1196     18      650      649      656
    1197     18      650      649      657
    1198     11      650      651      652
    1199     19      650      651      660
    1200     34      651      650      658
    1201     34      651      650      659
    1202     39      651      652      653
    1203     13      651      652      654
    1204     12      652      651      660
    1205      9      652      654      655
    1206     10      652      654      661
    1207     10      652      654      662
    1208     14      653      652      654
    1209     16      654      655      663
    1210     16      654      655      664
    1211     15      654      655      665
    1212     22      655      654      661
    1213     22      655      654      662
    1214     17      655      665      666
    1215     28      655      665      672
    1216     28      655      665      673
    1217     37      656      649      657
    1218     33      658      650      659
    1219     32      661      654      662
    1220     37      663      655      664
    1221     28      663      655      665
    1222     28      664      655      665
    1223     24      665      666      667
    1224     23      665      666      674
    1225     23      665      666      675
    1226     18      666      665      672
    1227     18      666      665      673
    1228     11      666      667      668
    1229     19      666      667      676
    1230     34      667      666      674
    1231     34      667      666      675
    1232     39      667      668      669
    1233     13      667      668      670
    1234     12      668      667      676
    1235      9      668      670      671
    1236     10      668      670      677
    1237     10      668      670      678
    1238     14      669      668      670
    1239     16      670      671      679
    1240     16      670      671      680
    1241     15      670      671      681
    1242     22      671      670      677
    1243     22      671      670      678
    1244     17      671      681      682
    1245     28      671      681      688
    1246     28      671      681      689
    1247     37      672      665      673
    1248     33      674      666      675
    1249     32      677      670      678
    1250     37      679      671      680
    1251     28      679      671      681
    1252     28      680      671      681
    1253     24      681      682      683
    1254     23      681      682      690
    1255     23      681      682      691
    1256     18      682      681      688
    1257     18      682      681      689
    1258     11      682      683      684
    1259     19      682      683      692
    1260     34      683      682      690
    1261     34      683      682      691
    1262     39      683      684      685
    1263     13      683      684      686
    1264     12      684      683      692
    1265      9      684      686      687
    1266     10      684      686      693
    1267     10      684      686      694
    1268     14      685      684      686
    1269     16      686      687      695
    1270     16      686      687      696
    1271     15      686      687      697
    1272     22      687      686      693
    1273     22      687      686      694
    1274     17      687      697      698
    1275     28      687      697      704
    1276     28      687      697      705
    1277     37      688      681      689
    1278     33      690      682      691
    1279     32      693      686      694
    1280     37      695      687      696
    1281     28      695      687      697
    1282     28      696      687      697
    1283     24      697      698      699
    1284     23      697      698      706
    1285     23      697      698      707
    1286     18      698      697      704
    1287     18      698      697      705
    1288     11      698      699      700
    1289     19      698      699      708
    1290     34      699      698      706
    1291     34      699      698      707
    1292     39      699      700      701
    1293     13      699      700      702
    1294     12      700      699      708
    1295      9      700      702      703
    1296     10      700      702      709
    1297     10      700      702      710
    1298     14      701      700      702
    1299     16      702      703      711
    1300     16      702      703      712
    1301     15      702      703      713
    1302     22      703      702      709
    1303     22      703      702      710
    1304     17      703      713      714
    1305     28      703      713      720
    1306     28      703      713      721
    1307     37      704      697      705
    1308     33      706      698      707
    1309     32      709      702      710
    1310     37      711      703      712
    1311     28      711      703      713
    1312     28      712      703      713
    1313     24      713      714      715
    1314     23      713      714      722
    1315     23      713      714      723
    1316     18      714      713      720
    1317     18      714      713      721
    1318     11      714      715      716
    1319     19      714      715      724
    1320     34      715      714      722
    1321     34      715      714      723
    1322     39      715      716      717
    1323     13      715      716      718
    1324     12      716      715      724
    1325      9      716      718      719
    1326     10      716      718      725
    1327     10      716      718      726
    1328     14      717      716      718
    1329     16      718      719      727
    1330     16      718      719      728
    1331     15      718      719      729
    1332     22      719      718      725
    1333     22      719      718      726
    1334     17      719      729      730
    1335     28      719      729      736
    1336     28      719      729      737
    1337     37      720      713      721
    1338     33      722      714      723
    1339     32      725      718      726
    1340     37      727      719      728
    1341     28      727      719      729
    1342     28      728      719      729
    1343     24      729      730      731
    1344     23      729      730      738
    1345     23      729      730      739
    1346     18      730      729      736
    1347     18      730      729      737
    1348     11      730      731      732
    1349     19      730      731      740
    1350     34      731      730      738
    1351     34      731      730      739
    1352     39      731      732      733
    1353     13      731      732      734
    1354     12      732      731      740
    1355      9      732      734      735
    1356     10      732      734      741
    1357     10      732      734      742
    1358     14      733      732      734
    1359     16      734      735      743
    1360     16      734      735      744
    1361     15      734      735      745
    1362     22      735      734      741
    1363     22      735      734      742
    1364     17      735      745      746
    1365     28      735      745      752
    1366     28      735      745      753
    1367     37      736      729      737
    1368     33      738      730      739
    1369     32      741      734      742
    1370     37      743      735      744
    1371     28      743      735      745
    1372     28      744      735      745
    1373     24      745      746      747
    1374     23      745      746      754
    1375     23      745      746      755
    1376     18      746      745      752
    1377     18      746      745      753
    1378     11      746      747      748
    1379     19      746      747      756
    1380     34      747      746      754
    1381     34      747      746      755
    1382     39      747      748      749
    1383     13      747      748      750
    1384     12      748      747      756
    1385      9      748      750      751
    1386     10      748      750      757
    1387     10      748      750      758
    1388     14      749      748      750
    1389     16      750      751      759
    1390     16      750      751      760
    1391     15      750      751      761
    1392     22      751      750      757
    1393     22      751      750      758
    1394     17      751      761      762
    1395     28      751      761      768
    1396     28      751      761      769
    1397     37      752      745      753
    1398     33      754      746      755
    1399     32      757      750      758
    1400     37      759      751      760
    1401     28      759      751      761
    1402     28      760      751      761
    1403     24      761      762      763
    1404     23      761      762      770
    1405     23      761      762      771
    1406     18      762      761      768
    1407     18      762      761      769
    1408     11      762      763      764
    1409     19      762      763      772
    1410     34      763      762      770
    1411     34      763      762      771
    1412     39      763      764      765
    1413     13      763      764      766
    1414     12      764      763      772
    1415      9      764      766      767
    1416     10      764      766      773
    1417     10      764      766      774
    1418     14      765      764      766
    1419     16      766      767      775
    1420     16      766      767      776
    1421     15      766      767      777
    1422     22      767      766      773
    1423     22      767      766      774
    1424     17      767      777      778
    1425     28      767      777      784
    1426     28      767      777      785
    1427     37      768      761      769
    1428     33      770      762      771
    1429     32      773      766      774
    1430     37      775      767      776
    1431     28      775      767      777
    1432     28      776      767      777
    1433     24      777      778      779
    1434     23      777      778      786
    1435     23      777      778      787
    1436     18      778      777      784
    1437     18      778      777      785
    1438     11      778      779      780
    1439     19      778      779      788
    1440     34      779      778      786
    1441     34      779      778      787
    1442     39      779      780      781
    1443     13      779      780      782
    1444     12      780      779      788
    1445      9      780      782      783
    1446     10      780      782      789
    1447     10      780      782      790
    1448     14      781      780      782
    1449     16      782      783      791
    1450     16      782      783      792
    1451     15      782      783      793
    1452     22      783      782      789
    1453     22      783      782      790
    1454     17      783      793      794
    1455     28      783      793      800
    1456     28      783      793      801
    1457     37      784      777      785
    1458     33      786      778      787
    1459     32      789      782      790
    1460     37      791      783      792
    1461     28      791      783      793
    1462     28      792      783      793
    1463     24      793      794      795
    1464     23      793      794      802
    1465     23      793      794      803
    1466     18      794      793      800
    1467     18      794      793      801
    1468     11      794      795      796
    1469     19      794      795      804
    1470     34      795      794      802
    1471     34      795      794      803
    1472     39      795      796      797
    1473     13      795      796      798
    1474     12      796      795      804
    1475      9      796      798      799
    1476     10      796      798      805
    1477     10      796      798      806
    1478     14      797      796      798
    1479     16      798      799      807
    1480     16      798      799      808
    1481     15      798      799      809
    1482     22      799      798      805
    1483     22      799      798      806
    1484     17      799      809      810
    1485     28      799      809      816
    1486     28      799      809      817
    1487     37      800      793      801
    1488     33      802      794      803
    1489     32      805      798      806
    1490     37      807      799      808
    1491     28      807      799      809
    1492     28      808      799      809
    1493     24      809      810      811
    1494     23      809      810      818
    1495     23      809      810      819
    1496     18      810      809      816
    1497     18      810      809      817
    1498     11      810      811      812
    1499     19      810      811      820
    1500     34      811      810      818
    1501     34      811      810      819
    1502     39      811      812      813
    1503     13      811      812      814
    1504     12      812      811      820
    1505      9      812      814      815
    1506     10      812      814      821
    1507     10      812      814      822
    1508     14      813      812      814
    1509     16      814      815      823
    1510     16      814      815      824
    1511     15      814      815      825
    1512     22      815      814      821
    1513     22      815      814      822
    1514     17      815      825      826
    1515     28      815      825      832
    1516     28      815      825      833
    1517     37      816      809      817
    1518     33      818      810      819
    1519     32      821      814      822
    1520     37      823      815      824
    1521     28      823      815      825
    1522     28      824      815      825
    1523     24      825      826      827
    1524     23      825      826      834
    1525     23      825      826      835
    1526     18      826      825      832
    1527     18      826      825      833
    1528     11      826      827      828
    1529     19      826      827      836
    1530     34      827      826      834
    1531     34      827      826      835
    1532     39      827      828      829
    1533     13      827      828      830
    1534     12      828      827      836
    1535      9      828      830      831
    1536     10      828      830      837
    1537     10      828      830      838
    1538     14      829      828      830
    1539     16      830      831      839
    1540     16      830      831      840
    1541     15      830      831      841
    1542     22      831      830      837
    1543     22      831      830      838
    1544     17      831      841      842
    1545     28      831      841      848
    1546     28      831      841      849
    1547     37      832      825      833
    1548     33      834      826      835
    1549     32      837      830      838
    1550     37      839      831      840
    1551     28      839      831      841
    1552     28      840      831      841
    1553     24      841      842      843
    1554     23      841      842      850
    1555     23      841      842      851
    1556     18      842      841      848
    1557     18      842      841      849
    1558     11      842      843      844
    1559     19      842      843      852
    1560     34      843      842      850
    1561     34      843      842      851
    1562     39      843      844      845
    1563     13      843      844      846
    1564     12      844      843      852
    1565      9      844      846      847
    1566     10      844      846      853
    1567     10      844      846      854
    1568     14      845      844      846
    1569     16      846      847      855
    1570     16      846      847      856
    1571     15      846      847      857
    1572     22      847      846      853
    1573     22      847      846      854
    1574     17      847      857      858
    1575     28      847      857      864
    1576     28      847      857      865
    1577     37      848      841      849
    1578     33      850      842      851
    1579     32      853      846      854
    1580     37      855      847      856
    1581     28      855      847      857
    1582     28      856      847      857
    1583     24      857      858      859
    1584     23      857      858      866
    1585     23      857      858      867
    1586     18      858      857      864
    1587     18      858      857      865
    1588     11      858      859      860
    1589     19      858      859      868
    1590     34      859      858      866
    1591     34      859      858      867
    1592     39      859      860      861
    1593     13      859      860      862
    1594     12      860      859      868
    1595      9      860      862      863
    1596     10      860      862      869
    1597     10      860      862      870
    1598     14      861      860      862
    1599     16      862      863      871
    1600     16      862      863      872
    1601     15      862      863      873
    1602     22      863      862      869
    1603     22      863      862      870
    1604     17      863      873      874
    1605     28      863      873      880
    1606     28      863      873      881
    1607     37      864      857      865
    1608     33      866      858      867
    1609     32      869      862      870
    1610     37      871      863      872
    1611     28      871      863      873
    1612     28      872      863      873
    1613     24      873      874      875
    1614     23      873      874      882
    1615     23      873      874      883
    1616     18      874      873      880
    1617     18      874      873      881
    1618     11      874      875      876
    1619     19      874      875      884
    1620     34      875      874      882
    1621     34      875      874      883
    1622     39      875      876      877
    1623     13      875      876      878
    1624     12      876      875      884
    1625      9      876      878      879
    1626     10      876      878      885
    1627     10      876      878      886
    1628     14      877      876      878
    1629     16      878      879      887
    1630     16      878      879      888
    1631     15      878      879      889
    1632     22      879      878      885
    1633     22      879      878      886
    1634     17      879      889      890
    1635     28      879      889      896
    1636     28      879      889      897
    1637     37      880      873      881
    1638     33      882      874      883
    1639     32      885      878      886
    1640     37      887      879      888
    1641     28      887      879      889
    1642     28      888      879      889
    1643     24      889      890      891
    1644     23      889      890      898
    1645     23      889      890      899
    1646     18      890      889      896
    1647     18      890      889      897
    1648     11      890      891      892
    1649     19      890      891      900
    1650     34      891      890      898
    1651     34      891      890      899
    1652     39      891      892      893
    1653     13      891      892      894
    1654     12      892      891      900
    1655      9      892      894      895
    1656     10      892      894      901
    1657     10      892      894      902
    1658     14      893      892      894
    1659     16      894      895      903
    1660     16      894      895      904
    1661     15      894      895      905
    1662     22      895      894      901
    1663     22      895      894      902
    1664     17      895      905      906
    1665     28      895      905      912
    1666     28      895      905      913
    1667     37      896      889      897
    1668     33      898      890      899
    1669     32      901      894      902
    1670     37      903      895      904
    1671     28      903      895      905
    1672     28      904      895      905
    1673     24      905      906      907
    1674     23      905      906      914
    1675     23      905      906      915
    1676     18      906      905      912
    1677     18      906      905      913
    1678     11      906      907      908
    1679     19      906      907      916
    1680     34      907      906      914
    1681     34      907      906      915
    1682     39      907      908      909
    1683     13      907      908      910
    1684     12      908      907      916
    1685      9      908      910      911
    1686     10      908      910      917
    1687     10      908      910      918
    1688     14      909      908      910
    1689     16      910      911      919
    1690     16      910      911      920
    1691     15      910      911      921
    1692     22      911      910      917
    1693     22      911      910      918
    1694     17      911      921      922
    1695     28      911      921      928
    1696     28      911      921      929
    1697     37      912      905      913
    1698     33      914      906      915
    1699     32      917      910      918
    1700     37      919      911      920
    1701     28      919      911      921
    1702     28      920      911      921
    1703     24      921      922      923
    1704     23      921      922      930
    1705     23      921      922      931
    1706     18      922      921      928
    1707     18      922      921      929
    1708     11      922      923      924
    1709     19      922      923      932
    1710     34      923      922      930
    1711     34      923      922      931
    1712     39      923      924      925
    1713     13      923      924      926
    1714     12      924      923      932
    1715      9      924      926      927
    1716     10      924      926      933
    1717     10      924      926      934
    1718     14      925      924      926
    1719     16      926      927      935
    1720     16      926      927      936
    1721     15      926      927      937
    1722     22      927      926      933
    1723     22      927      926      934
    1724     17      927      937      938
    1725     28      927      937      944
    1726     28      927      937      945
    1727     37      928      921      929
    1728     33      930      922      931
    1729     32      933      926      934
    1730     37      935      927      936
    1731     28      935      927      937
    1732     28      936      927      937
    1733     24      937      938      939
    1734     23      937      938      946
    1735     23      937      938      947
    1736     18      938      937      944
    1737     18      938      937      945
    1738     11      938      939      940
    1739     19      938      939      948
    1740     34      939      938      946
    1741     34      939      938      947
    1742     39      939      940      941
    1743     13      939      940      942
    1744     12      940      939      948
    1745      9      940      942      943
    1746     10      940      942      949
    1747     10      940      942      950
    1748     14      941      940      942
    1749     16      942      943      951
    1750     16      942      943      952
    1751     15      942      943      953
    1752     22      943      942      949
    1753     22      943      942      950
    1754     17      943      953      954
    1755     28      943      953      960
    1756     28      943      953      961
    1757     37      944      937      945
    1758     33      946      938      947
    1759     32      949      942      950
    1760     37      951      943      952
    1761     28      951      943      953
    1762     28      952      943      953
    1763     24      953      954      955
    1764     23      953      954      962
    1765     23      953      954      963
    1766     18      954      953      960
    1767     18      954      953      961
    1768     11      954      955      956
    1769     19      954      955      964
    1770     34      955      954      962
    1771     34      955      954      963
    1772     39      955      956      957
    1773     13      955      956      958
    1774     12      956      955      964
    1775      9      956      958      959
    1776     10      956      958      965
    1777     10      956      958      966
    1778     14      957      956      958
    1779     16      958      959      967
    1780     16      958      959      968
    1781     15      958      959      969
    1782     22      959      958      965
    1783     22      959      958      966
    1784     17      959      969      970
    1785     28      959      969      976
    1786     28      959      969      977
    1787     37      960      953      961
    1788     33      962      954      963
    1789     32      965      958      966
    1790     37      967      959      968
    1791     28      967      959      969
    1792     28      968      959      969
    1793     24      969      970      971
    1794     23      969      970      978
    1795     23      969      970      979
    1796     18      970      969      976
    1797     18      970      969      977
    1798     11      970      971      972
    1799     19      970      971      980
    1800     34      971      970      978
    1801     34      971      970      979
    1802     39      971      972      973
    1803     13      971      972      974
    1804     12      972      971      980
    1805      9      972      974      975
    1806     10      972      974      981
    1807     10      972      974      982
    1808     14      973      972      974
    1809     16      974      975      983
    1810     16      974      975      984
    1811     15      974      975      985
    1812     22      975      974      981
    1813     22      975      974      982
    1814     17      975      985      986
    1815     28      975      985      992
    1816     28      975      985      993
    1817     37      976      969      977
    1818     33      978      970      979
    1819     32      981      974      982
    1820     37      983      975      984
    1821     28      983      975      985
    1822     28      984      975      985
    1823     24      985      986      987
    1824     23      985      986      994
    1825     23      985      986      995
    1826     18      986      985      992
    1827     18      986      985      993
    1828     11      986      987      988
    1829     19      986      987      996
    1830     34      987      986      994
    1831     34      987      986      995
    1832     39      987      988      989
    1833     13      987      988      990
    1834     12      988      987      996
    1835      9      988      990      991
    1836     10      988      990      997
    1837     10      988      990      998
    1838     14      989      988      990
    1839     16      990      991      999
    1840     16      990      991     1000
    1841     22      991      990      997
    1842     22      991      990      998
    1843     37      992      985      993
    1844     33      994      986      995
    1845     32      997      990      998
    1846     37      999      991     1000

Dihedrals

       1     35        1        2        3        4
       2     49        1        2        3        5
       3     49        1        2        3        6
       4      2        2        3        4        7
       5      2        2        3        4        8
       6      1        2        3        4       17
       7     24        3        4       17       18
       8     36        3        4       17       29
       9     36        3        4       17       30
      10     33        4       17       18       19
      11     32        4       17       18       31
      12     32        4       17       18       32
      13     48        5        3        4        7
      14     48        5        3        4        8
      15     34        5        3        4       17
      16     48        6        3        4        7
      17     48        6        3        4        8
      18     34        6        3        4       17
      19     25        7        4       17       18
      20     47        7        4       17       29
      21     47        7        4       17       30
      22     25        8        4       17       18
      23     47        8        4       17       29
      24     47        8        4       17       30
      25     35        9       10       11       12
      26     49        9       10       11       13
      27     49        9       10       11       14
      28      2       10       11       12       15
      29      2       10       11       12       16
      30      1       10       11       12      991
      31     18       11       12      991      990
      32     36       11       12      991      999
      33     36       11       12      991     1000
      34     11       12      991      990      988
      35     29       12      991      990      997
      36     29       12      991      990      998
      37     48       13       11       12       15
      38     48       13       11       12       16
      39     34       13       11       12      991
      40     48       14       11       12       15
      41     48       14       11       12       16
      42     34       14       11       12      991
      43     19       15       12      991      990
      44     47       15       12      991      999
      45     47       15       12      991     1000
      46     19       16       12      991      990
      47     47       16       12      991      999
      48     47       16       12      991     1000
      49      9       17       18       19       20
      50      6       18       19       20       21
      51      6       18       19       20       28
      52     46       19       18       17       29
      53     46       19       18       17       30
      54      4       19       20       21       22
      55     38       19       20       21       33
      56      4       19       20       28       27
      57     38       19       20       28       40
      58     10       20       19       18       31
      59     10       20       19       18       32
      60      7       20       21       22       23
      61      8       20       21       22       34
      62      7       20       28       27       23
      63      8       20       28       27       39
      64      3       21       20       28       27
      65      5       21       20       28       40
      66      4       21       22       23       24
      67      3       21       22       23       27
      68      3       22       21       20       28
      69      6       22       23       24       25
      70      3       22       23       27       28
      71      5       22       23       27       39
      72      8       23       22       21       33
      73      9       23       24       25       26
      74     10       23       24       25       35
      75     10       23       24       25       36
      76      8       23       27       28       40
      77     38       24       23       22       34
      78      4       24       23       27       28
      79     38       24       23       27       39
      80     46       24       25       26       37
      81     46       24       25       26       38
      82     33       24       25       26       41
      83      6       25       24       23       27
      84     23       25       26       41       42
      85     25       25       26       41       53
      86     25       25       26       41       54
      87     33       26       41       42       43
      88     32       26       41       42       55
      89     32       26       41       42       56
      90      5       27       23       22       34
      91      5       28       20       21       33
      92     44       29       17       18       31
      93     44       29       17       18       32
      94     44       30       17       18       31
      95     44       30       17       18       32
      96     37       33       21       22       34
      97     44       35       25       26       37
      98     44       35       25       26       38
      99     32       35       25       26       41
     100     44       36       25       26       37
     101     44       36       25       26       38
     102     32       36       25       26       41
     103     25       37       26       41       42
     104     47       37       26       41       53
     105     47       37       26       41       54
     106     25       38       26       41       42
     107     47       38       26       41       53
     108     47       38       26       41       54
     109     37       39       27       28       40
     110      9       41       42       43       44
     111      6       42       43       44       45
     112      6       42       43       44       52
     113     46       43       42       41       53
     114     46       43       42       41       54
     115      4       43       44       45       46
     116     38       43       44       45       57
     117      4       43       44       52       51
     118     38       43       44       52       64
     119     10       44       43       42       55
     120     10       44       43       42       56
     121      7       44       45       46       47
     122      8       44       45       46       58
     123      7       44       52       51       47
     124      8       44       52       51       63
     125      3       45       44       52       51
     126      5       45       44       52       64
     127      4       45       46       47       48
     128      3       45       46       47       51
     129      3       46       45       44       52
     130      6       46       47       48       49
     131      3       46       47       51       52
     132      5       46       47       51       63
     133      8       47       46       45       57
     134      9       47       48       49       50
     135     10       47       48       49       59
     136     10       47       48       49       60
     137      8       47       51       52       64
     138     38       48       47       46       58
     139      4       48       47       51       52
     140     38       48       47       51       63
     141     46       48       49       50       61
     142     46       48       49       50       62
     143     33       48       49       50       65
     144      6       49       48       47       51
     145     23       49       50       65       66
     146     25       49       50       65       77
     147     25       49       50       65       78
     148     33       50       65       66       67
     149     32       50       65       66       79
     150     32       50       65       66       80
     151      5       51       47       46       58
     152      5       52       44       45       57
     153     44       53       41       42       55
     154     44       53       41       42       56
     155     44       54       41       42       55
     156     44       54       41       42       56
     157     37       57       45       46       58
     158     44       59       49       50       61
     159     44       59       49       50       62
     160     32       59       49       50       65
     161     44       60       49       50       61
     162     44       60       49       50       62
     163     32       60       49       50       65
     164     25       61       50       65       66
     165     47       61       50       65       77
     166     47       61       50       65       78
     167     25       62       50       65       66
     168     47       62       50       65       77
     169     47       62       50       65       78
     170     37       63       51       52       64
     171      9       65       66       67       68
     172      6       66       67       68       69
     173      6       66       67       68       76
     174     46       67       66       65       77
     175     46       67       66       65       78
     176      4       67       68       69       70
     177     38       67       68       69       81
     178      4       67       68       76       75
     179     38       67       68       76       88
     180     10       68       67       66       79
     181     10       68       67       66       80
     182      7       68       69       70       71
     183      8       68       69       70       82
     184      7       68       76       75       71
     185      8       68       76       75       87
     186      3       69       68       76       75
     187      5       69       68       76       88
     188      4       69       70       71       72
     189      3       69       70       71       75
     190      3       70       69       68       76
     191      6       70       71       72       73
     192      3       70       71       75       76
     193      5       70       71       75       87
     194      8       71       70       69       81
     195      9       71       72       73       74
     196     10       71       72       73       83
     197     10       71       72       73       84
     198      8       71       75       76       88
     199     38       72       71       70       82
     200      4       72       71       75       76
     201     38       72       71       75       87
     202     46       72       73       74       85
     203     46       72       73       74       86
     204     33       72       73       74       89
     205      6       73       72       71       75
     206     23       73       74       89       90
     207     25       73       74       89      101
     208     25       73       74       89      102
     209     33       74       89       90       91
     210     32       74       89       90      103
     211     32       74       89       90      104
     212      5       75       71       70       82
     213      5       76       68       69       81
     214     44       77       65       66       79
     215     44       77       65       66       80
     216     44       78       65       66       79
     217     44       78       65       66       80
     218     37       81       69       70       82
     219     44       83       73       74       85
     220     44       83       73       74       86
     221     32       83       73       74       89
     222     44       84       73       74       85
     223     44       84       73       74       86
     224     32       84       73       74       89
     225     25       85       74       89       90
     226     47       85       74       89      101
     227     47       85       74       89      102
     228     25       86       74       89       90
     229     47       86       74       89      101
     230     47       86       74       89      102
     231     37       87       75       76       88
     232      9       89       90       91       92
     233      6       90       91       92       93
     234      6       90       91       92      100
     235     46       91       90       89      101
     236     46       91       90       89      102
     237      4       91       92       93       94
     238     38       91       92       93      105
     239      4       91       92      100       99
     240     38       91       92      100      112
     241     10       92       91       90      103
     242     10       92       91       90      104
     243      7       92       93       94       95
     244      8       92       93       94      106
     245      7       92      100       99       95
     246      8       92      100       99      111
     247      3       93       92      100       99
     248      5       93       92      100      112
     249      4       93       94       95       96
     250      3       93       94       95       99
     251      3       94       93       92      100
     252      6       94       95       96       97
     253      3       94       95       99      100
     254      5       94       95       99      111
     255      8       95       94       93      105
     256      9       95       96       97       98
     257     10       95       96       97      107
     258     10       95       96       97      108
     259      8       95       99      100      112
     260     38       96       95       94      106
     261      4       96       95       99      100
     262     38       96       95       99      111
     263     46       96       97       98      109
     264     46       96       97       98      110
     265     33       96       97       98      113
     266      6       97       96       95       99
     267     23       97       98      113      114
     268     25       97       98      113      125
     269     25       97       98      113      126
     270     33       98      113      114      115
     271     32       98      113      114      127
     272     32       98      113      114      128
     273      5       99       95       94      106
     274      5      100       92       93      105
     275     44      101       89       90      103
     276     44      101       89       90      104
     277     44      102       89       90      103
     278     44      102       89       90      104
     279     37      105       93       94      106
     280     44      107       97       98      109
     281     44      107       97       98      110
     282     32      107       97       98      113
     283     44      108       97       98      109
     284     44      108       97       98      110
     285     32      108       97       98      113
     286     25      109       98      113      114
     287     47      109       98      113      125
     288     47      109       98      113      126
     289     25      110       98      113      114
     290     47      110       98      113      125
     291     47      110       98      113      126
     292     37      111       99      100      112
     293      9      113      114      115      116
     294      6      114      115      116      117
     295      6      114      115      116      124
     296     46      115      114      113      125
     297     46      115      114      113      126
     298      4      115      116      117      118
     299     38      115      116      117      129
     300      4      115      116      124      123
     301     38      115      116      124      136
     302     10      116      115      114      127
     303     10      116      115      114      128
     304      7      116      117      118      119
     305      8      116      117      118      130
     306      7      116      124      123      119
     307      8      116      124      123      135
     308      3      117      116      124      123
     309      5      117      116      124      136
     310      4      117      118      119      120
     311      3      117      118      119      123
     312      3      118      117      116      124
     313      6      118      119      120      121
     314      3      118      119      123      124
     315      5      118      119      123      135
     316      8      119      118      117      129
     317      9      119      120      121      122
     318     10      119      120      121      131
     319     10      119      120      121      132
     320      8      119      123      124      136
     321     38      120      119      118      130
     322      4      120      119      123      124
     323     38      120      119      123      135
     324     46      120      121      122      133
     325     46      120      121      122      134
     326     33      120      121      122      137
     327      6      121      120      119      123
     328     23      121      122      137      138
     329     25      121      122      137      149
     330     25      121      122      137      150
     331     33      122      137      138      139
     332     32      122      137      138      151
     333     32      122      137      138      152
     334      5      123      119      118      130
     335      5      124      116      117      129
     336     44      125      113      114      127
     337     44      125      113      114      128
     338     44      126      113      114      127
     339     44      126      113      114      128
     340     37      129      117      118      130
     341     44      131      121      122      133
     342     44      131      121      122      134
     343     32      131      121      122      137
     344     44      132      121      122      133
     345     44      132      121      122      134
     346     32      132      121      122      137
     347     25      133      122      137      138
     348     47      133      122      137      149
     349     47      133      122      137      150
     350     25      134      122      137      138
     351     47      134      122      137      149
     352     47      134      122      137      150
     353     37      135      123      124      136
     354      9      137      138      139      140
     355      6      138      139      140      141
     356      6      138      139      140      148
     357     46      139      138      137      149
     358     46      139      138      137      150
     359      4      139      140      141      142
     360     38      139      140      141      153
     361      4      139      140      148      147
     362     38      139      140      148      160
     363     10      140      139      138      151
     364     10      140      139      138      152
     365      7      140      141      142      143
     366      8      140      141      142      154
     367      7      140      148      147      143
     368      8      140      148      147      159
     369      3      141      140      148      147
     370      5      141      140      148      160
     371      4      141      142      143      144
     372      3      141      142      143      147
     373      3      142      141      140      148
     374      6      142      143      144      145
     375      3      142      143      147      148
     376      5      142      143      147      159
     377      8      143      142      141      153
     378      9      143      144      145      146
     379     10      143      144      145      155
     380     10      143      144      145      156
     381      8      143      147      148      160
     382     38      144      143      142      154
     383      4      144      143      147      148
     384     38      144      143      147      159
     385     46      144      145      146      157
     386     46      144      145      146      158
     387     33      144      145      146      161
     388      6      145      144      143      147
     389     23      145      146      161      162
     390     25      145      146      161      173
     391     25      145      146      161      174
     392     33      146      161      162      163
     393     32      146      161      162      175
     394     32      146      161      162      176
     395      5      147      143      142      154
     396      5      148      140      141      153
     397     44      149      137      138      151
     398     44      149      137      138      152
     399     44      150      137      138      151
     400     44      150      137      138      152
     401     37      153      141      142      154
     402     44      155      145      146      157
     403     44      155      145      146      158
     404     32      155      145      146      161
     405     44      156      145      146      157
     406     44      156      145      146      158
     407     32      156      145      146      161
     408     25      157      146      161      162
     409     47      157      146      161      173
     410     47      157      146      161      174
     411     25      158      146      161      162
     412     47      158      146      161      173
     413     47      158      146      161      174
     414     37      159      147      148      160
     415      9      161      162      163      164
     416      6      162      163      164      165
     417      6      162      163      164      172
     418     46      163      162      161      173
     419     46      163      162      161      174
     420      4      163      164      165      166
     421     38      163      164      165      177
     422      4      163      164      172      171
     423     38      163      164      172      184
     424     10      164      163      162      175
     425     10      164      163      162      176
     426      7      164      165      166      167
     427      8      164      165      166      178
     428      7      164      172      171      167
     429      8      164      172      171      183
     430      3      165      164      172      171
     431      5      165      164      172      184
     432      4      165      166      167      168
     433      3      165      166      167      171
     434      3      166      165      164      172
     435      6      166      167      168      169
     436      3      166      167      171      172
     437      5      166      167      171      183
     438      8      167      166      165      177
     439      9      167      168      169      170
     440     10      167      168      169      179
     441     10      167      168      169      180
     442      8      167      171      172      184
     443     38      168      167      166      178
     444      4      168      167      171      172
     445     38      168      167      171      183
     446     46      168      169      170      181
     447     46      168      169      170      182
     448     33      168      169      170      185
     449      6      169      168      167      171
     450     23      169      170      185      186
     451     25      169      170      185      197
     452     25      169      170      185      198
     453     33      170      185      186      187
     454     32      170      185      186      199
     455     32      170      185      186      200
     456      5      171      167      166      178
     457      5      172      164      165      177
     458     44      173      161      162      175
     459     44      173      161      162      176
     460     44      174      161      162      175
     461     44      174      161      162      176
     462     37      177      165      166      178
     463     44      179      169      170      181
     464     44      179      169      170      182
     465     32      179      169      170      185
     466     44      180      169      170      181
     467     44      180      169      170      182
     468     32      180      169      170      185
     469     25      181      170      185      186
     470     47      181      170      185      197
     471     47      181      170      185      198
     472     25      182      170      185      186
     473     47      182      170      185      197
     474     47      182      170      185      198
     475     37      183      171      172      184
     476      9      185      186      187      188
     477      6      186      187      188      189
     478      6      186      187      188      196
     479     46      187      186      185      197
     480     46      187      186      185      198
     481      4      187      188      189      190
     482     38      187      188      189      201
     483      4      187      188      196      195
     484     38      187      188      196      208
     485     10      188      187      186      199
     486     10      188      187      186      200
     487      7      188      189      190      191
     488      8      188      189      190      202
     489      7      188      196      195      191
     490      8      188      196      195      207
     491      3      189      188      196      195
     492      5      189      188      196      208
     493      4      189      190      191      192
     494      3      189      190      191      195
     495      3      190      189      188      196
     496      6      190      191      192      193
     497      3      190      191      195      196
     498      5      190      191      195      207
     499      8      191      190      189      201
     500      9      191      192      193      194
     501     10      191      192      193      203
     502     10      191      192      193      204
     503      8      191      195      196      208
     504     38      192      191      190      202
     505      4      192      191      195      196
     506     38      192      191      195      207
     507     46      192      193      194      205
     508     46      192      193      194      206
     509     33      192      193      194      209
     510      6      193      192      191      195
     511     23      193      194      209      210
     512     25      193      194      209      221
     513     25      193      194      209      222
     514     33      194      209      210      211
     515     32      194      209      210      223
     516     32      194      209      210      224
     517      5      195      191      190      202
     518      5      196      188      189      201
     519     44      197      185      186      199
     520     44      197      185      186      200
     521     44      198      185      186      199
     522     44      198      185      186      200
     523     37      201      189      190      202
     524     44      203      193      194      205
     525     44      203      193      194      206
     526     32      203      193      194      209
     527     44      204      193      194      205
     528     44      204      193      194      206
     529     32      204      193      194      209
     530     25      205      194      209      210
     531     47      205      194      209      221
     532     47      205      194      209      222
     533     25      206      194      209      210
     534     47      206      194      209      221
     535     47      206      194      209      222
     536     37      207      195      196      208
     537      9      209      210      211      212
     538      6      210      211      212      213
     539      6      210      211      212      220
     540     46      211      210      209      221
     541     46      211      210      209      222
     542      4      211      212      213      214
     543     38      211      212      213      225
     544      4      211      212      220      219
     545     38      211      212      220      232
     546     10      212      211      210      223
     547     10      212      211      210      224
     548      7      212      213      214      215
     549      8      212      213      214      226
     550      7      212      220      219      215
     551      8      212      220      219      231
     552      3      213      212      220      219
     553      5      213      212      220      232
     554      4      213      214      215      216
     555      3      213      214      215      219
     556      3      214      213      212      220
     557      6      214      215      216      217
     558      3      214      215      219      220
     559      5      214      215      219      231
     560      8      215      214      213      225
     561      9      215      216      217      218
     562     10      215      216      217      227
     563     10      215      216      217      228
     564      8      215      219      220      232
     565     38      216      215      214      226
     566      4      216      215      219      220
     567     38      216      215      219      231
     568     46      216      217      218      229
     569     46      216      217      218      230
     570     33      216      217      218      233
     571      6      217      216      215      219
     572     23      217      218      233      234
     573     25      217      218      233      245
     574     25      217      218      233      246
     575     33      218      233      234      235
     576     32      218      233      234      247
     577     32      218      233      234      248
     578      5      219      215      214      226
     579      5      220      212      213      225
     580     44      221      209      210      223
     581     44      221      209      210      224
     582     44      222      209      210      223
     583     44      222      209      210      224
     584     37      225      213      214      226
     585     44      227      217      218      229
     586     44      227      217      218      230
     587     32      227      217      218      233
     588     44      228      217      218      229
     589     44      228      217      218      230
     590     32      228      217      218      233
     591     25      229      218      233      234
     592     47      229      218      233      245
     593     47      229      218      233      246
     594     25      230      218      233      234
     595     47      230      218      233      245
     596     47      230      218      233      246
     597     37      231      219      220      232
     598      9      233      234      235      236
     599      6      234      235      236      237
     600      6      234      235      236      244
     601     46      235      234      233      245
     602     46      235      234      233      246
     603      4      235      236      237      238
     604     38      235      236      237      249
     605      4      235      236      244      243
     606     38      235      236      244      256
     607     10      236      235      234      247
     608     10      236      235      234      248
     609      7      236      237      238      239
     610      8      236      237      238      250
     611      7      236      244      243      239
     612      8      236      244      243      255
     613      3      237      236      244      243
     614      5      237      236      244      256
     615      4      237      238      239      240
     616      3      237      238      239      243
     617      3      238      237      236      244
     618      6      238      239      240      241
     619      3      238      239      243      244
     620      5      238      239      243      255
     621      8      239      238      237      249
     622      9      239      240      241      242
     623     10      239      240      241      251
     624     10      239      240      241      252
     625      8      239      243      244      256
     626     38      240      239      238      250
     627      4      240      239      243      244
     628     38      240      239      243      255
     629     46      240      241      242      253
     630     46      240      241      242      254
     631     33      240      241      242      257
     632      6      241      240      239      243
     633     23      241      242      257      258
     634     25      241      242      257      269
     635     25      241      242      257      270
     636     33      242      257      258      259
     637     32      242      257      258      271
     638     32      242      257      258      272
     639      5      243      239      238      250
     640      5      244      236      237      249
     641     44      245      233      234      247
     642     44      245      233      234      248
     643     44      246      233      234      247
     644     44      246      233      234      248
     645     37      249      237      238      250
     646     44      251      241      242      253
     647     44      251      241      242      254
     648     32      251      241      242      257
     649     44      252      241      242      253
     650     44      252      241      242      254
     651     32      252      241      242      257
     652     25      253      242      257      258
     653     47      253      242      257      269
     654     47      253      242      257      270
     655     25      254      242      257      258
     656     47      254      242      257      269
     657     47      254      242      257      270
     658     37      255      243      244      256
     659      9      257      258      259      260
     660      6      258      259      260      261
     661      6      258      259      260      268
     662     46      259      258      257      269
     663     46      259      258      257      270
     664      4      259      260      261      262
     665     38      259      260      261      273
     666      4      259      260      268      267
     667     38      259      260      268      280
     668     10      260      259      258      271
     669     10      260      259      258      272
     670      7      260      261      262      263
     671      8      260      261      262      274
     672      7      260      268      267      263
     673      8      260      268      267      279
     674      3      261      260      268      267
     675      5      261      260      268      280
     676      4      261      262      263      264
     677      3      261      262      263      267
     678      3      262      261      260      268
     679      6      262      263      264      265
     680      3      262      263      267      268
     681      5      262      263      267      279
     682      8      263      262      261      273
     683      9      263      264      265      266
     684     10      263      264      265      275
     685     10      263      264      265      276
     686      8      263      267      268      280
     687     38      264      263      262      274
     688      4      264      263      267      268
     689     38      264      263      267      279
     690     46      264      265      266      277
     691     46      264      265      266      278
     692     33      264      265      266      281
     693      6      265      264      263      267
     694     23      265      266      281      282
     695     25      265      266      281      293
     696     25      265      266      281      294
     697     33      266      281      282      283
     698     32      266      281      282      295
     699     32      266      281      282      296
     700      5      267      263      262      274
     701      5      268      260      261      273
     702     44      269      257      258      271
     703     44      269      257      258      272
     704     44      270      257      258      271
     705     44      270      257      258      272
     706     37      273      261      262      274
     707     44      275      265      266      277
     708     44      275      265      266      278
     709     32      275      265      266      281
     710     44      276      265      266      277
     711     44      276      265      266      278
     712     32      276      265      266      281
     713     25      277      266      281      282
     714     47      277      266      281      293
     715     47      277      266      281      294
     716     25      278      266      281      282
     717     47      278      266      281      293
     718     47      278      266      281      294
     719     37      279      267      268      280
     720      9      281      282      283      284
     721      6      282      283      284      285
     722      6      282      283      284      292
     723     46      283      282      281      293
     724     46      283      282      281      294
     725      4      283      284      285      286
     726     38      283      284      285      297
     727      4      283      284      292      291
     728     38      283      284      292      304
     729     10      284      283      282      295
     730     10      284      283      282      296
     731      7      284      285      286      287
     732      8      284      285      286      298
     733      7      284      292      291      287
     734      8      284      292      291      303
     735      3      285      284      292      291
     736      5      285      284      292      304
     737      4      285      286      287      288
     738      3      285      286      287      291
     739      3      286      285      284      292
     740      6      286      287      288      289
     741      3      286      287      291      292
     742      5      286      287      291      303
     743      8      287      286      285      297
     744      9      287      288      289      290
     745     10      287      288      289      299
     746     10      287      288      289      300
     747      8      287      291      292      304
     748     38      288      287      286      298
     749      4      288      287      291      292
     750     38      288      287      291      303
     751     46      288      289      290      301
     752     46      288      289      290      302
     753     33      288      289      290      305
     754      6      289      288      287      291
     755     23      289      290      305      306
     756     25      289      290      305      317
     757     25      289      290      305      318
     758     33      290      305      306      307
     759     32      290      305      306      319
     760     32      290      305      306      320
     761      5      291      287      286      298
     762      5      292      284      285      297
     763     44      293      281      282      295
     764     44      293      281      282      296
     765     44      294      281      282      295
     766     44      294      281      282      296
     767     37      297      285      286      298
     768     44      299      289      290      301
     769     44      299      289      290      302
     770     32      299      289      290      305
     771     44      300      289      290      301
     772     44      300      289      290      302
     773     32      300      289      290      305
     774     25      301      290      305      306
     775     47      301      290      305      317
     776     47      301      290      305      318
     777     25      302      290      305      306
     778     47      302      290      305      317
     779     47      302      290      305      318
     780     37      303      291      292      304
     781      9      305      306      307      308
     782      6      306      307      308      309
     783      6      306      307      308      316
     784     46      307      306      305      317
     785     46      307      306      305      318
     786      4      307      308      309      310
     787     38      307      308      309      321
     788      4      307      308      316      315
     789     38      307      308      316      328
     790     10      308      307      306      319
     791     10      308      307      306      320
     792      7      308      309      310      311
     793      8      308      309      310      322
     794      7      308      316      315      311
     795      8      308      316      315      327
     796      3      309      308      316      315
     797      5      309      308      316      328
     798      4      309      310      311      312
     799      3      309      310      311      315
     800      3      310      309      308      316
     801      6      310      311      312      313
     802      3      310      311      315      316
     803      5      310      311      315      327
     804      8      311      310      309      321
     805      9      311      312      313      314
     806     10      311      312      313      323
     807     10      311      312      313      324
     808      8      311      315      316      328
     809     38      312      311      310      322
     810      4      312      311      315      316
     811     38      312      311      315      327
     812     46      312      313      314      325
     813     46      312      313      314      326
     814     33      312      313      314      329
     815      6      313      312      311      315
     816     23      313      314      329      330
     817     25      313      314      329      341
     818     25      313      314      329      342
     819     33      314      329      330      331
     820     32      314      329      330      343
     821     32      314      329      330      344
     822      5      315      311      310      322
     823      5      316      308      309      321
     824     44      317      305      306      319
     825     44      317      305      306      320
     826     44      318      305      306      319
     827     44      318      305      306      320
     828     37      321      309      310      322
     829     44      323      313      314      325
     830     44      323      313      314      326
     831     32      323      313      314      329
     832     44      324      313      314      325
     833     44      324      313      314      326
     834     32      324      313      314      329
     835     25      325      314      329      330
     836     47      325      314      329      341
     837     47      325      314      329      342
     838     25      326      314      329      330
     839     47      326      314      329      341
     840     47      326      314      329      342
     841     37      327      315      316      328
     842      9      329      330      331      332
     843      6      330      331      332      333
     844      6      330      331      332      340
     845     46      331      330      329      341
     846     46      331      330      329      342
     847      4      331      332      333      334
     848     38      331      332      333      345
     849      4      331      332      340      339
     850     38      331      332      340      352
     851     10      332      331      330      343
     852     10      332      331      330      344
     853      7      332      333      334      335
     854      8      332      333      334      346
     855      7      332      340      339      335
     856      8      332      340      339      351
     857      3      333      332      340      339
     858      5      333      332      340      352
     859      4      333      334      335      336
     860      3      333      334      335      339
     861      3      334      333      332      340
     862      6      334      335      336      337
     863      3      334      335      339      340
     864      5      334      335      339      351
     865      8      335      334      333      345
     866      9      335      336      337      338
     867     10      335      336      337      347
     868     10      335      336      337      348
     869      8      335      339      340      352
     870     38      336      335      334      346
     871      4      336      335      339      340
     872     38      336      335      339      351
     873     46      336      337      338      349
     874     46      336      337      338      350
     875     33      336      337      338      353
     876      6      337      336      335      339
     877     23      337      338      353      354
     878     25      337      338      353      365
     879     25      337      338      353      366
     880     33      338      353      354      355
     881     32      338      353      354      367
     882     32      338      353      354      368
     883      5      339      335      334      346
     884      5      340      332      333      345
     885     44      341      329      330      343
     886     44      341      329      330      344
     887     44      342      329      330      343
     888     44      342      329      330      344
     889     37      345      333      334      346
     890     44      347      337      338      349
     891     44      347      337      338      350
     892     32      347      337      338      353
     893     44      348      337      338      349
     894     44      348      337      338      350
     895     32      348      337      338      353
     896     25      349      338      353      354
     897     47      349      338      353      365
     898     47      349      338      353      366
     899     25      350      338      353      354
     900     47      350      338      353      365
     901     47      350      338      353      366
     902     37      351      339      340      352
     903      9      353      354      355      356
     904      6      354      355      356      357
     905      6      354      355      356      364
     906     46      355      354      353      365
     907     46      355      354      353      366
     908      4      355      356      357      358
     909     38      355      356      357      369
     910      4      355      356      364      363
     911     38      355      356      364      376
     912     10      356      355      354      367
     913     10      356      355      354      368
     914      7      356      357      358      359
     915      8      356      357      358      370
     916      7      356      364      363      359
     917      8      356      364      363      375
     918      3      357      356      364      363
     919      5      357      356      364      376
     920      4      357      358      359      360
     921      3      357      358      359      363
     922      3      358      357      356      364
     923      6      358      359      360      361
     924      3      358      359      363      364
     925      5      358      359      363      375
     926      8      359      358      357      369
     927      9      359      360      361      362
     928     10      359      360      361      371
     929     10      359      360      361      372
     930      8      359      363      364      376
     931     38      360      359      358      370
     932      4      360      359      363      364
     933     38      360      359      363      375
     934     46      360      361      362      373
     935     46      360      361      362      374
     936     33      360      361      362      377
     937      6      361      360      359      363
     938     23      361      362      377      378
     939     25      361      362      377      389
     940     25      361      362      377      390
     941     33      362      377      378      379
     942     32      362      377      378      391
     943     32      362      377      378      392
     944      5      363      359      358      370
     945      5      364      356      357      369
     946     44      365      353      354      367
     947     44      365      353      354      368
     948     44      366      353      354      367
     949     44      366      353      354      368
     950     37      369      357      358      370
     951     44      371      361      362      373
     952     44      371      361      362      374
     953     32      371      361      362      377
     954     44      372      361      362      373
     955     44      372      361      362      374
     956     32      372      361      362      377
     957     25      373      362      377      378
     958     47      373      362      377      389
     959     47      373      362      377      390
     960     25      374      362      377      378
     961     47      374      362      377      389
     962     47      374      362      377      390
     963     37      375      363      364      376
     964      9      377      378      379      380
     965      6      378      379      380      381
     966      6      378      379      380      388
     967     46      379      378      377      389
     968     46      379      378      377      390
     969      4      379      380      381      382
     970     38      379      380      381      393
     971      4      379      380      388      387
     972     38      379      380      388      400
     973     10      380      379      378      391
     974     10      380      379      378      392
     975      7      380      381      382      383
     976      8      380      381      382      394
     977      7      380      388      387      383
     978      8      380      388      387      399
     979      3      381      380      388      387
     980      5      381      380      388      400
     981      4      381      382      383      384
     982      3      381      382      383      387
     983      3      382      381      380      388
     984      6      382      383      384      385
     985      3      382      383      387      388
     986      5      382      383      387      399
     987      8      383      382      381      393
     988      9      383      384      385      386
     989     10      383      384      385      395
     990     10      383      384      385      396
     991      8      383      387      388      400
     992     38      384      383      382      394
     993      4      384      383      387      388
     994     38      384      383      387      399
     995     46      384      385      386      397
     996     46      384      385      386      398
     997     33      384      385      386      401
     998      6      385      384      383      387
     999     23      385      386      401      402
    1000     25      385      386      401      413
    1001     25      385      386      401      414
    1002     33      386      401      402      403
    1003     32      386      401      402      415
    1004     32      386      401      402      416
    1005      5      387      383      382      394
    1006      5      388      380      381      393
    1007     44      389      377      378      391
    1008     44      389      377      378      392
    1009     44      390      377      378      391
    1010     44      390      377      378      392
    1011     37      393      381      382      394
    1012     44      395      385      386      397
    1013     44      395      385      386      398
    1014     32      395      385      386      401
    1015     44      396      385      386      397
    1016     44      396      385      386      398
    1017     32      396      385      386      401
    1018     25      397      386      401      402
    1019     47      397      386      401      413
    1020     47      397      386      401      414
    1021     25      398      386      401      402
    1022     47      398      386      401      413
    1023     47      398      386      401      414
    1024     37      399      387      388      400
    1025      9      401      402      403      404
    1026      6      402      403      404      405
    1027      6      402      403      404      412
    1028     46      403      402      401      413
    1029     46      403      402      401      414
    1030      4      403      404      405      406
    1031     38      403      404      405      417
    1032      4      403      404      412      411
    1033     38      403      404      412      424
    1034     10      404      403      402      415
    1035     10      404      403      402      416
    1036      7      404      405      406      407
    1037      8      404      405      406      418
    1038      7      404      412      411      407
    1039      8      404      412      411      423
    1040      3      405      404      412      411
    1041      5      405      404      412      424
    1042      4      405      406      407      408
    1043      3      405      406      407      411
    1044      3      406      405      404      412
    1045      6      406      407      408      409
    1046      3      406      407      411      412
    1047      5      406      407      411      423
    1048      8      407      406      405      417
    1049      9      407      408      409      410
    1050     10      407      408      409      419
    1051     10      407      408      409      420
    1052      8      407      411      412      424
    1053     38      408      407      406      418
    1054      4      408      407      411      412
    1055     38      408      407      411      423
    1056     46      408      409      410      421
    1057     46      408      409      410      422
    1058     33      408      409      410      425
    1059      6      409      408      407      411
    1060     23      409      410      425      426
    1061     25      409      410      425      437
    1062     25      409      410      425      438
    1063     33      410      425      426      427
    1064     32      410      425      426      439
    1065     32      410      425      426      440
    1066      5      411      407      406      418
    1067      5      412      404      405      417
    1068     44      413      401      402      415
    1069     44      413      401      402      416
    1070     44      414      401      402      415
    1071     44      414      401      402      416
    1072     37      417      405      406      418
    1073     44      419      409      410      421
    1074     44      419      409      410      422
    1075     32      419      409      410      425
    1076     44      420      409      410      421
    1077     44      420      409      410      422
    1078     32      420      409      410      425
    1079     25      421      410      425      426
    1080     47      421      410      425      437
    1081     47      421      410      425      438
    1082     25      422      410      425      426
    1083     47      422      410      425      437
    1084     47      422      410      425      438
    1085     37      423      411      412      424
    1086      9      425      426      427      428
    1087      6      426      427      428      429
    1088      6      426      427      428      436
    1089     46      427      426      425      437
    1090     46      427      426      425      438
    1091      4      427      428      429      430
    1092     38      427      428      429      441
    1093      4      427      428      436      435
    1094     38      427      428      436      448
    1095     10      428      427      426      439
    1096     10      428      427      426      440
    1097      7      428      429      430      431
    1098      8      428      429      430      442
    1099      7      428      436      435      431
    1100      8      428      436      435      447
    1101      3      429      428      436      435
    1102      5      429      428      436      448
    1103      4      429      430      431      432
    1104      3      429      430      431      435
    1105      3      430      429      428      436
    1106      6      430      431      432      433
    1107      3      430      431      435      436
    1108      5      430      431      435      447
    1109      8      431      430      429      441
    1110      9      431      432      433      434
    1111     10      431      432      433      443
    1112     10      431      432      433      444
    1113      8      431      435      436      448
    1114     38      432      431      430      442
    1115      4      432      431      435      436
    1116     38      432      431      435      447
    1117     46      432      433      434      445
    1118     46      432      433      434      446
    1119     33      432      433      434      449
    1120      6      433      432      431      435
    1121     23      433      434      449      450
    1122     25      433      434      449      461
    1123     25      433      434      449      462
    1124     33      434      449      450      451
    1125     32      434      449      450      463
    1126     32      434      449      450      464
    1127      5      435      431      430      442
    1128      5      436      428      429      441
    1129     44      437      425      426      439
    1130     44      437      425      426      440
    1131     44      438      425      426      439
    1132     44      438      425      426      440
    1133     37      441      429      430      442
    1134     44      443      433      434      445
    1135     44      443      433      434      446
    1136     32      443      433      434      449
    1137     44      444      433      434      445
    1138     44      444      433      434      446
    1139     32      444      433      434      449
    1140     25      445      434      449      450
    1141     47      445      434      449      461
    1142     47      445      434      449      462
    1143     25      446      434      449      450
    1144     47      446      434      449      461
    1145     47      446      434      449      462
    1146     37      447      435      436      448
    1147      9      449      450      451      452
    1148      6      450      451      452      453
    1149      6      450      451      452      460
    1150     46      451      450      449      461
    1151     46      451      450      449      462
    1152      4      451      452      453      454
    1153     38      451      452      453      465
    1154      4      451      452      460      459
    1155     38      451      452      460      472
    1156     10      452      451      450      463
    1157     10      452      451      450      464
    1158      7      452      453      454      455
    1159      8      452      453      454      466
    1160      7      452      460      459      455
    1161      8      452      460      459      471
    1162      3      453      452      460      459
    1163      5      453      452      460      472
    1164      4      453      454      455      456
    1165      3      453      454      455      459
    1166      3      454      453      452      460
    1167      6      454      455      456      457
    1168      3      454      455      459      460
    1169      5      454      455      459      471
    1170      8      455      454      453      465
    1171      9      455      456      457      458
    1172     10      455      456      457      467
    1173     10      455      456      457      468
    1174      8      455      459      460      472
    1175     38      456      455      454      466
    1176      4      456      455      459      460
    1177     38      456      455      459      471
    1178     46      456      457      458      469
    1179     46      456      457      458      470
    1180     33      456      457      458      473
    1181      6      457      456      455      459
    1182     23      457      458      473      474
    1183     25      457      458      473      485
    1184     25      457      458      473      486
    1185     33      458      473      474      475
    1186     32      458      473      474      487
    1187     32      458      473      474      488
    1188      5      459      455      454      466
    1189      5      460      452      453      465
    1190     44      461      449      450      463
    1191     44      461      449      450      464
    1192     44      462      449      450      463
    1193     44      462      449      450      464
    1194     37      465      453      454      466
    1195     44      467      457      458      469
    1196     44      467      457      458      470
    1197     32      467      457      458      473
    1198     44      468      457      458      469
    1199     44      468      457      458      470
    1200     32      468      457      458      473
    1201     25      469      458      473      474
    1202     47      469      458      473      485
    1203     47      469      458      473      486
    1204     25      470      458      473      474
    1205     47      470      458      473      485
    1206     47      470      458      473      486
    1207     37      471      459      460      472
    1208      9      473      474      475      476
    1209      6      474      475      476      477
    1210      6      474      475      476      484
    1211     46      475      474      473      485
    1212     46      475      474      473      486
    1213      4      475      476      477      478
    1214     38      475      476      477      489
    1215      4      475      476      484      483
    1216     38      475      476      484      496
    1217     10      476      475      474      487
    1218     10      476      475      474      488
    1219      7      476      477      478      479
    1220      8      476      477      478      490
    1221      7      476      484      483      479
    1222      8      476      484      483      495
    1223      3      477      476      484      483
    1224      5      477      476      484      496
    1225      4      477      478      479      480
    1226      3      477      478      479      483
    1227      3      478      477      476      484
    1228      6      478      479      480      481
    1229      3      478      479      483      484
    1230      5      478      479      483      495
    1231      8      479      478      477      489
    1232      9      479      480      481      482
    1233     10      479      480      481      491
    1234     10      479      480      481      492
    1235      8      479      483      484      496
    1236     38      480      479      478      490
    1237      4      480      479      483      484
    1238     38      480      479      483      495
    1239     46      480      481      482      493
    1240     46      480      481      482      494
    1241     33      480      481      482      497
    1242      6      481      480      479      483
    1243     23      481      482      497      498
    1244     25      481      482      497      509
    1245     25      481      482      497      510
    1246     33      482      497      498      499
    1247     32      482      497      498      511
    1248     32      482      497      498      512
    1249      5      483      479      478      490
    1250      5      484      476      477      489
    1251     44      485      473      474      487
    1252     44      485      473      474      488
    1253     44      486      473      474      487
    1254     44      486      473      474      488
    1255     37      489      477      478      490
    1256     44      491      481      482      493
    1257     44      491      481      482      494
    1258     32      491      481      482      497
    1259     44      492      481      482      493
    1260     44      492      481      482      494
    1261     32      492      481      482      497
    1262     25      493      482      497      498
    1263     47      493      482      497      509
    1264     47      493      482      497      510
    1265     25      494      482      497      498
    1266     47      494      482      497      509
    1267     47      494      482      497      510
    1268     37      495      483      484      496
    1269      9      497      498      499      500
    1270      6      498      499      500      501
    1271      6      498      499      500      508
    1272     46      499      498      497      509
    1273     46      499      498      497      510
    1274      4      499      500      501      502
    1275     38      499      500      501      513
    1276      4      499      500      508      507
    1277     38      499      500      508      520
    1278     10      500      499      498      511
    1279     10      500      499      498      512
    1280      7      500      501      502      503
    1281      8      500      501      502      514
    1282      7      500      508      507      503
    1283      8      500      508      507      519
    1284      3      501      500      508      507
    1285      5      501      500      508      520
    1286      4      501      502      503      504
    1287      3      501      502      503      507
    1288      3      502      501      500      508
    1289      6      502      503      504      505
    1290      3      502      503      507      508
    1291      5      502      503      507      519
    1292      8      503      502      501      513
    1293      9      503      504      505      506
    1294     10      503      504      505      515
    1295     10      503      504      505      516
    1296      8      503      507      508      520
    1297     38      504      503      502      514
    1298      4      504      503      507      508
    1299     38      504      503      507      519
    1300     46      504      505      506      517
    1301     46      504      505      506      518
    1302     33      504      505      506      521
    1303      6      505      504      503      507
    1304     23      505      506      521      522
    1305     25      505      506      521      533
    1306     25      505      506      521      534
    1307     33      506      521      522      523
    1308     32      506      521      522      535
    1309     32      506      521      522      536
    1310      5      507      503      502      514
    1311      5      508      500      501      513
    1312     44      509      497      498      511
    1313     44      509      497      498      512
    1314     44      510      497      498      511
    1315     44      510      497      498      512
    1316     37      513      501      502      514
    1317     44      515      505      506      517
    1318     44      515      505      506      518
    1319     32      515      505      506      521
    1320     44      516      505      506      517
    1321     44      516      505      506      518
    1322     32      516      505      506      521
    1323     25      517      506      521      522
    1324     47      517      506      521      533
    1325     47      517      506      521      534
    1326     25      518      506      521      522
    1327     47      518      506      521      533
    1328     47      518      506      521      534
    1329     37      519      507      508      520
    1330      9      521      522      523      524
    1331      6      522      523      524      525
    1332      6      522      523      524      532
    1333     46      523      522      521      533
    1334     46      523      522      521      534
    1335      4      523      524      525      526
    1336     38      523      524      525      537
    1337      4      523      524      532      531
    1338     38      523      524      532      544
    1339     10      524      523      522      535
    1340     10      524      523      522      536
    1341      7      524      525      526      527
    1342      8      524      525      526      538
    1343      7      524      532      531      527
    1344      8      524      532      531      543
    1345      3      525      524      532      531
    1346      5      525      524      532      544
    1347      4      525      526      527      528
    1348      3      525      526      527      531
    1349      3      526      525      524      532
    1350      6      526      527      528      529
    1351      3      526      527      531      532
    1352      5      526      527      531      543
    1353      8      527      526      525      537
    1354      9      527      528      529      530
    1355     10      527      528      529      539
    1356     10      527      528      529      540
    1357      8      527      531      532      544
    1358     38      528      527      526      538
    1359      4      528      527      531      532
    1360     38      528      527      531      543
    1361     46      528      529      530      541
    1362     46      528      529      530      542
    1363     33      528      529      530      545
    1364      6      529      528      527      531
    1365     23      529      530      545      546
    1366     25      529      530      545      557
    1367     25      529      530      545      558
    1368     33      530      545      546      547
    1369     32      530      545      546      559
    1370     32      530      545      546      560
    1371      5      531      527      526      538
    1372      5      532      524      525      537
    1373     44      533      521      522      535
    1374     44      533      521      522      536
    1375     44      534      521      522      535
    1376     44      534      521      522      536
    1377     37      537      525      526      538
    1378     44      539      529      530      541
    1379     44      539      529      530      542
    1380     32      539      529      530      545
    1381     44      540      529      530      541
    1382     44      540      529      530      542
    1383     32      540      529      530      545
    1384     25      541      530      545      546
    1385     47      541      530      545      557
    1386     47      541      530      545      558
    1387     25      542      530      545      546
    1388     47      542      530      545      557
    1389     47      542      530      545      558
    1390     37      543      531      532      544
    1391      9      545      546      547      548
    1392      6      546      547      548      549
    1393      6      546      547      548      556
    1394     46      547      546      545      557
    1395     46      547      546      545      558
    1396      4      547      548      549      550
    1397     38      547      548      549      561
    1398      4      547      548      556      555
    1399     38      547      548      556      568
    1400     10      548      547      546      559
    1401     10      548      547      546      560
    1402      7      548      549      550      551
    1403      8      548      549      550      562
    1404      7      548      556      555      551
    1405      8      548      556      555      567
    1406      3      549      548      556      555
    1407      5      549      548      556      568
    1408      4      549      550      551      552
    1409      3      549      550      551      555
    1410      3      550      549      548      556
    1411      6      550      551      552      553
    1412      3      550      551      555      556
    1413      5      550      551      555      567
    1414      8      551      550      549      561
    1415      9      551      552      553      554
    1416     10      551      552      553      563
    1417     10      551      552      553      564
    1418      8      551      555      556      568
    1419     38      552      551      550      562
    1420      4      552      551      555      556
    1421     38      552      551      555      567
    1422     46      552      553      554      565
    1423     46      552      553      554      566
    1424     33      552      553      554      569
    1425      6      553      552      551      555
    1426     23      553      554      569      570
    1427     25      553      554      569      581
    1428     25      553      554      569      582
    1429     33      554      569      570      571
    1430     32      554      569      570      583
    1431     32      554      569      570      584
    1432      5      555      551      550      562
    1433      5      556      548      549      561
    1434     44      557      545      546      559
    1435     44      557      545      546      560
    1436     44      558      545      546      559
    1437     44      558      545      546      560
    1438     37      561      549      550      562
    1439     44      563      553      554      565
    1440     44      563      553      554      566
    1441     32      563      553      554      569
    1442     44      564      553      554      565
    1443     44      564      553      554      566
    1444     32      564      553      554      569
    1445     25      565      554      569      570
    1446     47      565      554      569      581
    1447     47      565      554      569      582
    1448     25      566      554      569      570
    1449     47      566      554      569      581
    1450     47      566      554      569      582
    1451     37      567      555      556      568
    1452      9      569      570      571      572
    1453      6      570      571      572      573
    1454      6      570      571      572      580
    1455     46      571      570      569      581
    1456     46      571      570      569      582
    1457      4      571      572      573      574
    1458     38      571      572      573      585
    1459      4      571      572      580      579
    1460     38      571      572      580      592
    1461     10      572      571      570      583
    1462     10      572      571      570      584
    1463      7      572      573      574      575
    1464      8      572      573      574      586
    1465      7      572      580      579      575
    1466      8      572      580      579      591
    1467      3      573      572      580      579
    1468      5      573      572      580      592
    1469      4      573      574      575      576
    1470      3      573      574      575      579
    1471      3      574      573      572      580
    1472      6      574      575      576      577
    1473      3      574      575      579      580
    1474      5      574      575      579      591
    1475      8      575      574      573      585
    1476      9      575      576      577      578
    1477     10      575      576      577      587
    1478     10      575      576      577      588
    1479      8      575      579      580      592
    1480     38      576      575      574      586
    1481      4      576      575      579      580
    1482     38      576      575      579      591
    1483     46      576      577      578      589
    1484     46      576      577      578      590
    1485     33      576      577      578      593
    1486      6      577      576      575      579
    1487     23      577      578      593      594
    1488     25      577      578      593      605
    1489     25      577      578      593      606
    1490     33      578      593      594      595
    1491     32      578      593      594      607
    1492     32      578      593      594      608
    1493      5      579      575      574      586
    1494      5      580      572      573      585
    1495     44      581      569      570      583
    1496     44      581      569      570      584
    1497     44      582      569      570      583
    1498     44      582      569      570      584
    1499     37      585      573      574      586
    1500     44      587      577      578      589
    1501     44      587      577      578      590
    1502     32      587      577      578      593
    1503     44      588      577      578      589
    1504     44      588      577      578      590
    1505     32      588      577      578      593
    1506     25      589      578      593      594
    1507     47      589      578      593      605
    1508     47      589      578      593      606
    1509     25      590      578      593      594
    1510     47      590      578      593      605
    1511     47      590      578      593      606
    1512     37      591      579      580      592
    1513      9      593      594      595      596
    1514      6      594      595      596      597
    1515      6      594      595      596      604
    1516     46      595      594      593      605
    1517     46      595      594      593      606
    1518      4      595      596      597      598
    1519     38      595      596      597      609
    1520      4      595      596      604      603
    1521     38      595      596      604      616
    1522     10      596      595      594      607
    1523     10      596      595      594      608
    1524      7      596      597      598      599
    1525      8      596      597      598      610
    1526      7      596      604      603      599
    1527      8      596      604      603      615
    1528      3      597      596      604      603
    1529      5      597      596      604      616
    1530      4      597      598      599      600
    1531      3      597      598      599      603
    1532      3      598      597      596      604
    1533      6      598      599      600      601
    1534      3      598      599      603      604
    1535      5      598      599      603      615
    1536      8      599      598      597      609
    1537      9      599      600      601      602
    1538     10      599      600      601      611
    1539     10      599      600      601      612
    1540      8      599      603      604      616
    1541     38      600      599      598      610
    1542      4      600      599      603      604
    1543     38      600      599      603      615
    1544     46      600      601      602      613
    1545     46      600      601      602      614
    1546     33      600      601      602      617
    1547      6      601      600      599      603
    1548     20      601      602      617      618
    1549     25      601      602      617      624
    1550     25      601      602      617      625
    1551     31      602      617      618      619
    1552     30      602      617      618      626
    1553     30      602      617      618      627
    1554      5      603      599      598      610
    1555      5      604      596      597      609
    1556     44      605      593      594      607
    1557     44      605      593      594      608
    1558     44      606      593      594      607
    1559     44      606      593      594      608
    1560     37      609      597      598      610
    1561     44      611      601      602      613
    1562     44      611      601      602      614
    1563     32      611      601      602      617
    1564     44      612      601      602      613
    1565     44      612      601      602      614
    1566     32      612      601      602      617
    1567     21      613      602      617      618
    1568     47      613      602      617      624
    1569     47      613      602      617      625
    1570     21      614      602      617      618
    1571     47      614      602      617      624
    1572     47      614      602      617      625
    1573     37      615      603      604      616
    1574     13      617      618      619      620
    1575     28      617      618      619      628
    1576     22      618      619      620      621
    1577     15      618      619      620      622
    1578     45      619      618      617      624
    1579     45      619      618      617      625
    1580     26      619      620      622      623
    1581     39      619      620      622      629
    1582     39      619      620      622      630
    1583     14      620      619      618      626
    1584     14      620      619      618      627
    1585     12      620      622      623      631
    1586     12      620      622      623      632
    1587     11      620      622      623      633
    1588     50      621      620      619      628
    1589     27      621      620      622      623
    1590     40      621      620      622      629
    1591     40      621      620      622      630
    1592     16      622      620      619      628
    1593     17      622      623      633      634
    1594     19      622      623      633      640
    1595     19      622      623      633      641
    1596     31      623      633      634      635
    1597     30      623      633      634      642
    1598     30      623      633      634      643
    1599     42      624      617      618      626
    1600     42      624      617      618      627
    1601     42      625      617      618      626
    1602     42      625      617      618      627
    1603     43      626      618      619      628
    1604     43      627      618      619      628
    1605     41      629      622      623      631
    1606     41      629      622      623      632
    1607     29      629      622      623      633
    1608     41      630      622      623      631
    1609     41      630      622      623      632
    1610     29      630      622      623      633
    1611     21      631      623      633      634
    1612     47      631      623      633      640
    1613     47      631      623      633      641
    1614     21      632      623      633      634
    1615     47      632      623      633      640
    1616     47      632      623      633      641
    1617     13      633      634      635      636
    1618     28      633      634      635      644
    1619     22      634      635      636      637
    1620     15      634      635      636      638
    1621     45      635      634      633      640
    1622     45      635      634      633      641
    1623     26      635      636      638      639
    1624     39      635      636      638      645
    1625     39      635      636      638      646
    1626     14      636      635      634      642
    1627     14      636      635      634      643
    1628     12      636      638      639      647
    1629     12      636      638      639      648
    1630     11      636      638      639      649
    1631     50      637      636      635      644
    1632     27      637      636      638      639
    1633     40      637      636      638      645
    1634     40      637      636      638      646
    1635     16      638      636      635      644
    1636     17      638      639      649      650
    1637     19      638      639      649      656
    1638     19      638      639      649      657
    1639     31      639      649      650      651
    1640     30      639      649      650      658
    1641     30      639      649      650      659
    1642     42      640      633      634      642
    1643     42      640      633      634      643
    1644     42      641      633      634      642
    1645     42      641      633      634      643
    1646     43      642      634      635      644
    1647     43      643      634      635      644
    1648     41      645      638      639      647
    1649     41      645      638      639      648
    1650     29      645      638      639      649
    1651     41      646      638      639      647
    1652     41      646      638      639      648
    1653     29      646      638      639      649
    1654     21      647      639      649      650
    1655     47      647      639      649      656
    1656     47      647      639      649      657
    1657     21      648      639      649      650
    1658     47      648      639      649      656
    1659     47      648      639      649      657
    1660     13      649      650      651      652
    1661     28      649      650      651      660
    1662     22      650      651      652      653
    1663     15      650      651      652      654
    1664     45      651      650      649      656
    1665     45      651      650      649      657
    1666     26      651      652      654      655
    1667     39      651      652      654      661
    1668     39      651      652      654      662
    1669     14      652      651      650      658
    1670     14      652      651      650      659
    1671     12      652      654      655      663
    1672     12      652      654      655      664
    1673     11      652      654      655      665
    1674     50      653      652      651      660
    1675     27      653      652      654      655
    1676     40      653      652      654      661
    1677     40      653      652      654      662
    1678     16      654      652      651      660
    1679     17      654      655      665      666
    1680     19      654      655      665      672
    1681     19      654      655      665      673
    1682     31      655      665      666      667
    1683     30      655      665      666      674
    1684     30      655      665      666      675
    1685     42      656      649      650      658
    1686     42      656      649      650      659
    1687     42      657      649      650      658
    1688     42      657      649      650      659
    1689     43      658      650      651      660
    1690     43      659      650      651      660
    1691     41      661      654      655      663
    1692     41      661      654      655      664
    1693     29      661      654      655      665
    1694     41      662      654      655      663
    1695     41      662      654      655      664
    1696     29      662      654      655      665
    1697     21      663      655      665      666
    1698     47      663      655      665      672
    1699     47      663      655      665      673
    1700     21      664      655      665      666
    1701     47      664      655      665      672
    1702     47      664      655      665      673
    1703     13      665      666      667      668
    1704     28      665      666      667      676
    1705     22      666      667      668      669
    1706     15      666      667      668      670
    1707     45      667      666      665      672
    1708     45      667      666      665      673
    1709     26      667      668      670      671
    1710     39      667      668      670      677
    1711     39      667      668      670      678
    1712     14      668      667      666      674
    1713     14      668      667      666      675
    1714     12      668      670      671      679
    1715     12      668      670      671      680
    1716     11      668      670      671      681
    1717     50      669      668      667      676
    1718     27      669      668      670      671
    1719     40      669      668      670      677
    1720     40      669      668      670      678
    1721     16      670      668      667      676
    1722     17      670      671      681      682
    1723     19      670      671      681      688
    1724     19      670      671      681      689
    1725     31      671      681      682      683
    1726     30      671      681      682      690
    1727     30      671      681      682      691
    1728     42      672      665      666      674
    1729     42      672      665      666      675
    1730     42      673      665      666      674
    1731     42      673      665      666      675
    1732     43      674      666      667      676
    1733     43      675      666      667      676
    1734     41      677      670      671      679
    1735     41      677      670      671      680
    1736     29      677      670      671      681
    1737     41      678      670      671      679
    1738     41      678      670      671      680
    1739     29      678      670      671      681
    1740     21      679      671      681      682
    1741     47      679      671      681      688
    1742     47      679      671      681      689
    1743     21      680      671      681      682
    1744     47      680      671      681      688
    1745     47      680      671      681      689
    1746     13      681      682      683      684
    1747     28      681      682      683      692
    1748     22      682      683      684      685
    1749     15      682      683      684      686
    1750     45      683      682      681      688
    1751     45      683      682      681      689
    1752     26      683      684      686      687
    1753     39      683      684      686      693
    1754     39      683      684      686      694
    1755     14      684      683      682      690
    1756     14      684      683      682      691
    1757     12      684      686      687      695
    1758     12      684      686      687      696
    1759     11      684      686      687      697
    1760     50      685      684      683      692
    1761     27      685      684      686      687
    1762     40      685      684      686      693
    1763     40      685      684      686      694
    1764     16      686      684      683      692
    1765     17      686      687      697      698
    1766     19      686      687      697      704
    1767     19      686      687      697      705
    1768     31      687      697      698      699
    1769     30      687      697      698      706
    1770     30      687      697      698      707
    1771     42      688      681      682      690
    1772     42      688      681      682      691
    1773     42      689      681      682      690
    1774     42      689      681      682      691
    1775     43      690      682      683      692
    1776     43      691      682      683      692
    1777     41      693      686      687      695
    1778     41      693      686      687      696
    1779     29      693      686      687      697
    1780     41      694      686      687      695
    1781     41      694      686      687      696
    1782     29      694      686      687      697
    1783     21      695      687      697      698
    1784     47      695      687      697      704
    1785     47      695      687      697      705
    1786     21      696      687      697      698
    1787     47      696      687      697      704
    1788     47      696      687      697      705
    1789     13      697      698      699      700
    1790     28      697      698      699      708
    1791     22      698      699      700      701
    1792     15      698      699      700      702
    1793     45      699      698      697      704
    1794     45      699      698      697      705
    1795     26      699      700      702      703
    1796     39      699      700      702      709
    1797     39      699      700      702      710
    1798     14      700      699      698      706
    1799     14      700      699      698      707
    1800     12      700      702      703      711
    1801     12      700      702      703      712
    1802     11      700      702      703      713
    1803     50      701      700      699      708
    1804     27      701      700      702      703
    1805     40      701      700      702      709
    1806     40      701      700      702      710
    1807     16      702      700      699      708
    1808     17      702      703      713      714
    1809     19      702      703      713      720
    1810     19      702      703      713      721
    1811     31      703      713      714      715
    1812     30      703      713      714      722
    1813     30      703      713      714      723
    1814     42      704      697      698      706
    1815     42      704      697      698      707
    1816     42      705      697      698      706
    1817     42      705      697      698      707
    1818     43      706      698      699      708
    1819     43      707      698      699      708
    1820     41      709      702      703      711
    1821     41      709      702      703      712
    1822     29      709      702      703      713
    1823     41      710      702      703      711
    1824     41      710      702      703      712
    1825     29      710      702      703      713
    1826     21      711      703      713      714
    1827     47      711      703      713      720
    1828     47      711      703      713      721
    1829     21      712      703      713      714
    1830     47      712      703      713      720
    1831     47      712      703      713      721
    1832     13      713      714      715      716
    1833     28      713      714      715      724
    1834     22      714      715      716      717
    1835     15      714      715      716      718
    1836     45      715      714      713      720
    1837     45      715      714      713      721
    1838     26      715      716      718      719
    1839     39      715      716      718      725
    1840     39      715      716      718      726
    1841     14      716      715      714      722
    1842     14      716      715      714      723
    1843     12      716      718      719      727
    1844     12      716      718      719      728
    1845     11      716      718      719      729
    1846     50      717      716      715      724
    1847     27      717      716      718      719
    1848     40      717      716      718      725
    1849     40      717      716      718      726
    1850     16      718      716      715      724
    1851     17      718      719      729      730
    1852     19      718      719      729      736
    1853     19      718      719      729      737
    1854     31      719      729      730      731
    1855     30      719      729      730      738
    1856     30      719      729      730      739
    1857     42      720      713      714      722
    1858     42      720      713      714      723
    1859     42      721      713      714      722
    1860     42      721      713      714      723
    1861     43      722      714      715      724
    1862     43      723      714      715      724
    1863     41      725      718      719      727
    1864     41      725      718      719      728
    1865     29      725      718      719      729
    1866     41      726      718      719      727
    1867     41      726      718      719      728
    1868     29      726      718      719      729
    1869     21      727      719      729      730
    1870     47      727      719      729      736
    1871     47      727      719      729      737
    1872     21      728      719      729      730
    1873     47      728      719      729      736
    1874     47      728      719      729      737
    1875     13      729      730      731      732
    1876     28      729      730      731      740
    1877     22      730      731      732      733
    1878     15      730      731      732      734
    1879     45      731      730      729      736
    1880     45      731      730      729      737
    1881     26      731      732      734      735
    1882     39      731      732      734      741
    1883     39      731      732      734      742
    1884     14      732      731      730      738
    1885     14      732      731      730      739
    1886     12      732      734      735      743
    1887     12      732      734      735      744
    1888     11      732      734      735      745
    1889     50      733      732      731      740
    1890     27      733      732      734      735
    1891     40      733      732      734      741
    1892     40      733      732      734      742
    1893     16      734      732      731      740
    1894     17      734      735      745      746
    1895     19      734      735      745      752
    1896     19      734      735      745      753
    1897     31      735      745      746      747
    1898     30      735      745      746      754
    1899     30      735      745      746      755
    1900     42      736      729      730      738
    1901     42      736      729      730      739
    1902     42      737      729      730      738
    1903     42      737      729      730      739
    1904     43      738      730      731      740
    1905     43      739      730      731      740
    1906     41      741      734      735      743
    1907     41      741      734      735      744
    1908     29      741      734      735      745
    1909     41      742      734      735      743
    1910     41      742      734      735      744
    1911     29      742      734      735      745
    1912     21      743      735      745      746
    1913     47      743      735      745      752
    1914     47      743      735      745      753
    1915     21      744      735      745      746
    1916     47      744      735      745      752
    1917     47      744      735      745      753
    1918     13      745      746      747      748
    1919     28      745      746      747      756
    1920     22      746      747      748      749
    1921     15      746      747      748      750
    1922     45      747      746      745      752
    1923     45      747      746      745      753
    1924     26      747      748      750      751
    1925     39      747      748      750      757
    1926     39      747      748      750      758
    1927     14      748      747      746      754
    1928     14      748      747      746      755
    1929     12      748      750      751      759
    1930     12      748      750      751      760
    1931     11      748      750      751      761
    1932     50      749      748      747      756
    1933     27      749      748      750      751
    1934     40      749      748      750      757
    1935     40      749      748      750      758
    1936     16      750      748      747      756
    1937     17      750      751      761      762
    1938     19      750      751      761      768
    1939     19      750      751      761      769
    1940     31      751      761      762      763
    1941     30      751      761      762      770
    1942     30      751      761      762      771
    1943     42      752      745      746      754
    1944     42      752      745      746      755
    1945     42      753      745      746      754
    1946     42      753      745      746      755
    1947     43      754      746      747      756
    1948     43      755      746      747      756
    1949     41      757      750      751      759
    1950     41      757      750      751      760
    1951     29      757      750      751      761
    1952     41      758      750      751      759
    1953     41      758      750      751      760
    1954     29      758      750      751      761
    1955     21      759      751      761      762
    1956     47      759      751      761      768
    1957     47      759      751      761      769
    1958     21      760      751      761      762
    1959     47      760      751      761      768
    1960     47      760      751      761      769
    1961     13      761      762      763      764
    1962     28      761      762      763      772
    1963     22      762      763      764      765
    1964     15      762      763      764      766
    1965     45      763      762      761      768
    1966     45      763      762      761      769
    1967     26      763      764      766      767
    1968     39      763      764      766      773
    1969     39      763      764      766      774
    1970     14      764      763      762      770
    1971     14      764      763      762      771
    1972     12      764      766      767      775
    1973     12      764      766      767      776
    1974     11      764      766      767      777
    1975     50      765      764      763      772
    1976     27      765      764      766      767
    1977     40      765      764      766      773
    1978     40      765      764      766      774
    1979     16      766      764      763      772
    1980     17      766      767      777      778
    1981     19      766      767      777      784
    1982     19      766      767      777      785
    1983     31      767      777      778      779
    1984     30      767      777      778      786
    1985     30      767      777      778      787
    1986     42      768      761      762      770
    1987     42      768      761      762      771
    1988     42      769      761      762      770
    1989     42      769      761      762      771
    1990     43      770      762      763      772
    1991     43      771      762      763      772
    1992     41      773      766      767      775
    1993     41      773      766      767      776
    1994     29      773      766      767      777
    1995     41      774      766      767      775
    1996     41      774      766      767      776
    1997     29      774      766      767      777
    1998     21      775      767      777      778
    1999     47      775      767      777      784
    2000     47      775      767      777      785
    2001     21      776      767      777      778
    2002     47      776      767      777      784
    2003     47      776      767      777      785
    2004     13      777      778      779      780
    2005     28      777      778      779      788
    2006     22      778      779      780      781
    2007     15      778      779      780      782
    2008     45      779      778      777      784
    2009     45      779      778      777      785
    2010     26      779      780      782      783
    2011     39      779      780      782      789
    2012     39      779      780      782      790
    2013     14      780      779      778      786
    2014     14      780      779      778      787
    2015     12      780      782      783      791
    2016     12      780      782      783      792
    2017     11      780      782      783      793
    2018     50      781      780      779      788
    2019     27      781      780      782      783
    2020     40      781      780      782      789
    2021     40      781      780      782      790
    2022     16      782      780      779      788
    2023     17      782      783      793      794
    2024     19      782      783      793      800
    2025     19      782      783      793      801
    2026     31      783      793      794      795
    2027     30      783      793      794      802
    2028     30      783      793      794      803
    2029     42      784      777      778      786
    2030     42      784      777      778      787
    2031     42      785      777      778      786
    2032     42      785      777      778      787
    2033     43      786      778      779      788
    2034     43      787      778      779      788
    2035     41      789      782      783      791
    2036     41      789      782      783      792
    2037     29      789      782      783      793
    2038     41      790      782      783      791
    2039     41      790      782      783      792
    2040     29      790      782      783      793
    2041     21      791      783      793      794
    2042     47      791      783      793      800
    2043     47      791      783      793      801
    2044     21      792      783      793      794
    2045     47      792      783      793      800
    2046     47      792      783      793      801
    2047     13      793      794      795      796
    2048     28      793      794      795      804
    2049     22      794      795      796      797
    2050     15      794      795      796      798
    2051     45      795      794      793      800
    2052     45      795      794      793      801
    2053     26      795      796      798      799
    2054     39      795      796      798      805
    2055     39      795      796      798      806
    2056     14      796      795      794      802
    2057     14      796      795      794      803
    2058     12      796      798      799      807
    2059     12      796      798      799      808
    2060     11      796      798      799      809
    2061     50      797      796      795      804
    2062     27      797      796      798      799
    2063     40      797      796      798      805
    2064     40      797      796      798      806
    2065     16      798      796      795      804
    2066     17      798      799      809      810
    2067     19      798      799      809      816
    2068     19      798      799      809      817
    2069     31      799      809      810      811
    2070     30      799      809      810      818
    2071     30      799      809      810      819
    2072     42      800      793      794      802
    2073     42      800      793      794      803
    2074     42      801      793      794      802
    2075     42      801      793      794      803
    2076     43      802      794      795      804
    2077     43      803      794      795      804
    2078     41      805      798      799      807
    2079     41      805      798      799      808
    2080     29      805      798      799      809
    2081     41      806      798      799      807
    2082     41      806      798      799      808
    2083     29      806      798      799      809
    2084     21      807      799      809      810
    2085     47      807      799      809      816
    2086     47      807      799      809      817
    2087     21      808      799      809      810
    2088     47      808      799      809      816
    2089     47      808      799      809      817
    2090     13      809      810      811      812
    2091     28      809      810      811      820
    2092     22      810      811      812      813
    2093     15      810      811      812      814
    2094     45      811      810      809      816
    2095     45      811      810      809      817
    2096     26      811      812      814      815
    2097     39      811      812      814      821
    2098     39      811      812      814      822
    2099     14      812      811      810      818
    2100     14      812      811      810      819
    2101     12      812      814      815      823
    2102     12      812      814      815      824
    2103     11      812      814      815      825
    2104     50      813      812      811      820
    2105     27      813      812      814      815
    2106     40      813      812      814      821
    2107     40      813      812      814      822
    2108     16      814      812      811      820
    2109     17      814      815      825      826
    2110     19      814      815      825      832
    2111     19      814      815      825      833
    2112     31      815      825      826      827
    2113     30      815      825      826      834
    2114     30      815      825      826      835
    2115     42      816      809      810      818
    2116     42      816      809      810      819
    2117     42      817      809      810      818
    2118     42      817      809      810      819
    2119     43      818      810      811      820
    2120     43      819      810      811      820
    2121     41      821      814      815      823
    2122     41      821      814      815      824
    2123     29      821      814      815      825
    2124     41      822      814      815      823
    2125     41      822      814      815      824
    2126     29      822      814      815      825
    2127     21      823      815      825      826
    2128     47      823      815      825      832
    2129     47      823      815      825      833
    2130     21      824      815      825      826
    2131     47      824      815      825      832
    2132     47      824      815      825      833
    2133     13      825      826      827      828
    2134     28      825      826      827      836
    2135     22      826      827      828      829
    2136     15      826      827      828      830
    2137     45      827      826      825      832
    2138     45      827      826      825      833
    2139     26      827      828      830      831
    2140     39      827      828      830      837
    2141     39      827      828      830      838
    2142     14      828      827      826      834
    2143     14      828      827      826      835
    2144     12      828      830      831      839
    2145     12      828      830      831      840
    2146     11      828      830      831      841
    2147     50      829      828      827      836
    2148     27      829      828      830      831
    2149     40      829      828      830      837
    2150     40      829      828      830      838
    2151     16      830      828      827      836
    2152     17      830      831      841      842
    2153     19      830      831      841      848
    2154     19      830      831      841      849
    2155     31      831      841      842      843
    2156     30      831      841      842      850
    2157     30      831      841      842      851
    2158     42      832      825      826      834
    2159     42      832      825      826      835
    2160     42      833      825      826      834
    2161     42      833      825      826      835
    2162     43      834      826      827      836
    2163     43      835      826      827      836
    2164     41      837      830      831      839
    2165     41      837      830      831      840
    2166     29      837      830      831      841
    2167     41      838      830      831      839
    2168     41      838      830      831      840
    2169     29      838      830      831      841
    2170     21      839      831      841      842
    2171     47      839      831      841      848
    2172     47      839      831      841      849
    2173     21      840      831      841      842
    2174     47      840      831      841      848
    2175     47      840      831      841      849
    2176     13      841      842      843      844
    2177     28      841      842      843      852
    2178     22      842      843      844      845
    2179     15      842      843      844      846
    2180     45      843      842      841      848
    2181     45      843      842      841      849
    2182     26      843      844      846      847
    2183     39      843      844      846      853
    2184     39      843      844      846      854
    2185     14      844      843      842      850
    2186     14      844      843      842      851
    2187     12      844      846      847      855
    2188     12      844      846      847      856
    2189     11      844      846      847      857
    2190     50      845      844      843      852
    2191     27      845      844      846      847
    2192     40      845      844      846      853
    2193     40      845      844      846      854
    2194     16      846      844      843      852
    2195     17      846      847      857      858
    2196     19      846      847      857      864
    2197     19      846      847      857      865
    2198     31      847      857      858      859
    2199     30      847      857      858      866
    2200     30      847      857      858      867
    2201     42      848      841      842      850
    2202     42      848      841      842      851
    2203     42      849      841      842      850
    2204     42      849      841      842      851
    2205     43      850      842      843      852
    2206     43      851      842      843      852
    2207     41      853      846      847      855
    2208     41      853      846      847      856
    2209     29      853      846      847      857
    2210     41      854      846      847      855
    2211     41      854      846      847      856
    2212     29      854      846      847      857
    2213     21      855      847      857      858
    2214     47      855      847      857      864
    2215     47      855      847      857      865
    2216     21      856      847      857      858
    2217     47      856      847      857      864
    2218     47      856      847      857      865
    2219     13      857      858      859      860
    2220     28      857      858      859      868
    2221     22      858      859      860      861
    2222     15      858      859      860      862
    2223     45      859      858      857      864
    2224     45      859      858      857      865
    2225     26      859      860      862      863
    2226     39      859      860      862      869
    2227     39      859      860      862      870
    2228     14      860      859      858      866
    2229     14      860      859      858      867
    2230     12      860      862      863      871
    2231     12      860      862      863      872
    2232     11      860      862      863      873
    2233     50      861      860      859      868
    2234     27      861      860      862      863
    2235     40      861      860      862      869
    2236     40      861      860      862      870
    2237     16      862      860      859      868
    2238     17      862      863      873      874
    2239     19      862      863      873      880
    2240     19      862      863      873      881
    2241     31      863      873      874      875
    2242     30      863      873      874      882
    2243     30      863      873      874      883
    2244     42      864      857      858      866
    2245     42      864      857      858      867
    2246     42      865      857      858      866
    2247     42      865      857      858      867
    2248     43      866      858      859      868
    2249     43      867      858      859      868
    2250     41      869      862      863      871
    2251     41      869      862      863      872
    2252     29      869      862      863      873
    2253     41      870      862      863      871
    2254     41      870      862      863      872
    2255     29      870      862      863      873
    2256     21      871      863      873      874
    2257     47      871      863      873      880
    2258     47      871      863      873      881
    2259     21      872      863      873      874
    2260     47      872      863      873      880
    2261     47      872      863      873      881
    2262     13      873      874      875      876
    2263     28      873      874      875      884
    2264     22      874      875      876      877
    2265     15      874      875      876      878
    2266     45      875      874      873      880
    2267     45      875      874      873      881
    2268     26      875      876      878      879
    2269     39      875      876      878      885
    2270     39      875      876      878      886
    2271     14      876      875      874      882
    2272     14      876      875      874      883
    2273     12      876      878      879      887
    2274     12      876      878      879      888
    2275     11      876      878      879      889
    2276     50      877      876      875      884
    2277     27      877      876      878      879
    2278     40      877      876      878      885
    2279     40      877      876      878      886
    2280     16      878      876      875      884
    2281     17      878      879      889      890
    2282     19      878      879      889      896
    2283     19      878      879      889      897
    2284     31      879      889      890      891
    2285     30      879      889      890      898
    2286     30      879      889      890      899
    2287     42      880      873      874      882
    2288     42      880      873      874      883
    2289     42      881      873      874      882
    2290     42      881      873      874      883
    2291     43      882      874      875      884
    2292     43      883      874      875      884
    2293     41      885      878      879      887
    2294     41      885      878      879      888
    2295     29      885      878      879      889
    2296     41      886      878      879      887
    2297     41      886      878      879      888
    2298     29      886      878      879      889
    2299     21      887      879      889      890
    2300     47      887      879      889      896
    2301     47      887      879      889      897
    2302     21      888      879      889      890
    2303     47      888      879      889      896
    2304     47      888      879      889      897
    2305     13      889      890      891      892
    2306     28      889      890      891      900
    2307     22      890      891      892      893
    2308     15      890      891      892      894
    2309     45      891      890      889      896
    2310     45      891      890      889      897
    2311     26      891      892      894      895
    2312     39      891      892      894      901
    2313     39      891      892      894      902
    2314     14      892      891      890      898
    2315     14      892      891      890      899
    2316     12      892      894      895      903
    2317     12      892      894      895      904
    2318     11      892      894      895      905
    2319     50      893      892      891      900
    2320     27      893      892      894      895
    2321     40      893      892      894      901
    2322     40      893      892      894      902
    2323     16      894      892      891      900
    2324     17      894      895      905      906
    2325     19      894      895      905      912
    2326     19      894      895      905      913
    2327     31      895      905      906      907
    2328     30      895      905      906      914
    2329     30      895      905      906      915
    2330     42      896      889      890      898
    2331     42      896      889      890      899
    2332     42      897      889      890      898
    2333     42      897      889      890      899
    2334     43      898      890      891      900
    2335     43      899      890      891      900
    2336     41      901      894      895      903
    2337     41      901      894      895      904
    2338     29      901      894      895      905
    2339     41      902      894      895      903
    2340     41      902      894      895      904
    2341     29      902      894      895      905
    2342     21      903      895      905      906
    2343     47      903      895      905      912
    2344     47      903      895      905      913
    2345     21      904      895      905      906
    2346     47      904      895      905      912
    2347     47      904      895      905      913
    2348     13      905      906      907      908
    2349     28      905      906      907      916
    2350     22      906      907      908      909
    2351     15      906      907      908      910
    2352     45      907      906      905      912
    2353     45      907      906      905      913
    2354     26      907      908      910      911
    2355     39      907      908      910      917
    2356     39      907      908      910      918
    2357     14      908      907      906      914
    2358     14      908      907      906      915
    2359     12      908      910      911      919
    2360     12      908      910      911      920
    2361     11      908      910      911      921
    2362     50      909      908      907      916
    2363     27      909      908      910      911
    2364     40      909      908      910      917
    2365     40      909      908      910      918
    2366     16      910      908      907      916
    2367     17      910      911      921      922
    2368     19      910      911      921      928
    2369     19      910      911      921      929
    2370     31      911      921      922      923
    2371     30      911      921      922      930
    2372     30      911      921      922      931
    2373     42      912      905      906      914
    2374     42      912      905      906      915
    2375     42      913      905      906      914
    2376     42      913      905      906      915
    2377     43      914      906      907      916
    2378     43      915      906      907      916
    2379     41      917      910      911      919
    2380     41      917      910      911      920
    2381     29      917      910      911      921
    2382     41      918      910      911      919
    2383     41      918      910      911      920
    2384     29      918      910      911      921
    2385     21      919      911      921      922
    2386     47      919      911      921      928
    2387     47      919      911      921      929
    2388     21      920      911      921      922
    2389     47      920      911      921      928
    2390     47      920      911      921      929
    2391     13      921      922      923      924
    2392     28      921      922      923      932
    2393     22      922      923      924      925
    2394     15      922      923      924      926
    2395     45      923      922      921      928
    2396     45      923      922      921      929
    2397     26      923      924      926      927
    2398     39      923      924      926      933
    2399     39      923      924      926      934
    2400     14      924      923      922      930
    2401     14      924      923      922      931
    2402     12      924      926      927      935
    2403     12      924      926      927      936
    2404     11      924      926      927      937
    2405     50      925      924      923      932
    2406     27      925      924      926      927
    2407     40      925      924      926      933
    2408     40      925      924      926      934
    2409     16      926      924      923      932
    2410     17      926      927      937      938
    2411     19      926      927      937      944
    2412     19      926      927      937      945
    2413     31      927      937      938      939
    2414     30      927      937      938      946
    2415     30      927      937      938      947
    2416     42      928      921      922      930
    2417     42      928      921      922      931
    2418     42      929      921      922      930
    2419     42      929      921      922      931
    2420     43      930      922      923      932
    2421     43      931      922      923      932
    2422     41      933      926      927      935
    2423     41      933      926      927      936
    2424     29      933      926      927      937
    2425     41      934      926      927      935
    2426     41      934      926      927      936
    2427     29      934      926      927      937
    2428     21      935      927      937      938
    2429     47      935      927      937      944
    2430     47      935      927      937      945
    2431     21      936      927      937      938
    2432     47      936      927      937      944
    2433     47      936      927      937      945
    2434     13      937      938      939      940
    2435     28      937      938      939      948
    2436     22      938      939      940      941
    2437     15      938      939      940      942
    2438     45      939      938      937      944
    2439     45      939      938      937      945
    2440     26      939      940      942      943
    2441     39      939      940      942      949
    2442     39      939      940      942      950
    2443     14      940      939      938      946
    2444     14      940      939      938      947
    2445     12      940      942      943      951
    2446     12      940      942      943      952
    2447     11      940      942      943      953
    2448     50      941      940      939      948
    2449     27      941      940      942      943
    2450     40      941      940      942      949
    2451     40      941      940      942      950
    2452     16      942      940      939      948
    2453     17      942      943      953      954
    2454     19      942      943      953      960
    2455     19      942      943      953      961
    2456     31      943      953      954      955
    2457     30      943      953      954      962
    2458     30      943      953      954      963
    2459     42      944      937      938      946
    2460     42      944      937      938      947
    2461     42      945      937      938      946
    2462     42      945      937      938      947
    2463     43      946      938      939      948
    2464     43      947      938      939      948
    2465     41      949      942      943      951
    2466     41      949      942      943      952
    2467     29      949      942      943      953
    2468     41      950      942      943      951
    2469     41      950      942      943      952
    2470     29      950      942      943      953
    2471     21      951      943      953      954
    2472     47      951      943      953      960
    2473     47      951      943      953      961
    2474     21      952      943      953      954
    2475     47      952      943      953      960
    2476     47      952      943      953      961
    2477     13      953      954      955      956
    2478     28      953      954      955      964
    2479     22      954      955      956      957
    2480     15      954      955      956      958
    2481     45      955      954      953      960
    2482     45      955      954      953      961
    2483     26      955      956      958      959
    2484     39      955      956      958      965
    2485     39      955      956      958      966
    2486     14      956      955      954      962
    2487     14      956      955      954      963
    2488     12      956      958      959      967
    2489     12      956      958      959      968
    2490     11      956      958      959      969
    2491     50      957      956      955      964
    2492     27      957      956      958      959
    2493     40      957      956      958      965
    2494     40      957      956      958      966
    2495     16      958      956      955      964
    2496     17      958      959      969      970
    2497     19      958      959      969      976
    2498     19      958      959      969      977
    2499     31      959      969      970      971
    2500     30      959      969      970      978
    2501     30      959      969      970      979
    2502     42      960      953      954      962
    2503     42      960      953      954      963
    2504     42      961      953      954      962
    2505     42      961      953      954      963
    2506     43      962      954      955      964
    2507     43      963      954      955      964
    2508     41      965      958      959      967
    2509     41      965      958      959      968
    2510     29      965      958      959      969
    2511     41      966      958      959      967
    2512     41      966      958      959      968
    2513     29      966      958      959      969
    2514     21      967      959      969      970
    2515     47      967      959      969      976
    2516     47      967      959      969      977
    2517     21      968      959      969      970
    2518     47      968      959      969      976
    2519     47      968      959      969      977
    2520     13      969      970      971      972
    2521     28      969      970      971      980
    2522     22      970      971      972      973
    2523     15      970      971      972      974
    2524     45      971      970      969      976
    2525     45      971      970      969      977
    2526     26      971      972      974      975
    2527     39      971      972      974      981
    2528     39      971      972      974      982
    2529     14      972      971      970      978
    2530     14      972      971      970      979
    2531     12      972      974      975      983
    2532     12      972      974      975      984
    2533     11      972      974      975      985
    2534     50      973      972      971      980
    2535     27      973      972      974      975
    2536     40      973      972      974      981
    2537     40      973      972      974      982
    2538     16      974      972      971      980
    2539     17      974      975      985      986
    2540     19      974      975      985      992
    2541     19      974      975      985      993
    2542     31      975      985      986      987
    2543     30      975      985      986      994
    2544     30      975      985      986      995
    2545     42      976      969      970      978
    2546     42      976      969      970      979
    2547     42      977      969      970      978
    2548     42      977      969      970      979
    2549     43      978      970      971      980
    2550     43      979      970      971      980
    2551     41      981      974      975      983
    2552     41      981      974      975      984
    2553     29      981      974      975      985
    2554     41      982      974      975      983
    2555     41      982      974      975      984
    2556     29      982      974      975      985
    2557     21      983      975      985      986
    2558     47      983      975      985      992
    2559     47      983      975      985      993
    2560     21      984      975      985      986
    2561     47      984      975      985      992
    2562     47      984      975      985      993
    2563     13      985      986      987      988
    2564     28      985      986      987      996
    2565     22      986      987      988      989
    2566     15      986      987      988      990
    2567     45      987      986      985      992
    2568     45      987      986      985      993
    2569     26      987      988      990      991
    2570     39      987      988      990      997
    2571     39      987      988      990      998
    2572     14      988      987      986      994
    2573     14      988      987      986      995
    2574     12      988      990      991      999
    2575     12      988      990      991     1000
    2576     50      989      988      987      996
    2577     27      989      988      990      991
    2578     40      989      988      990      997
    2579     40      989      988      990      998
    2580     16      990      988      987      996
    2581     42      992      985      986      994
    2582     42      992      985      986      995
    2583     42      993      985      986      994
    2584     42      993      985      986      995
    2585     43      994      986      987      996
    2586     43      995      986      987      996
    2587     41      997      990      991      999
    2588     41      997      990      991     1000
    2589     41      998      990      991      999
    2590     41      998      990      991     1000

Impropers

       1      2       19       20       21       28
       2      1       20       21       22       33
       3      1       21       22       23       34
       4      2       22       23       24       27
       5      1       23       27       28       39
       6      1       20       28       27       40
       7      2       43       44       45       52
       8      1       44       45       46       57
       9      1       45       46       47       58
      10      2       46       47       48       51
      11      1       47       51       52       63
      12      1       44       52       51       64
      13      2       67       68       69       76
      14      1       68       69       70       81
      15      1       69       70       71       82
      16      2       70       71       72       75
      17      1       71       75       76       87
      18      1       68       76       75       88
      19      2       91       92       93      100
      20      1       92       93       94      105
      21      1       93       94       95      106
      22      2       94       95       96       99
      23      1       95       99      100      111
      24      1       92      100       99      112
      25      2      115      116      117      124
      26      1      116      117      118      129
      27      1      117      118      119      130
      28      2      118      119      120      123
      29      1      119      123      124      135
      30      1      116      124      123      136
      31      2      139      140      141      148
      32      1      140      141      142      153
      33      1      141      142      143      154
      34      2      142      143      144      147
      35      1      143      147      148      159
      36      1      140      148      147      160
      37      2      163      164      165      172
      38      1      164      165      166      177
      39      1      165      166      167      178
      40      2      166      167      168      171
      41      1      167      171      172      183
      42      1      164      172      171      184
      43      2      187      188      189      196
      44      1      188      189      190      201
      45      1      189      190      191      202
      46      2      190      191      192      195
      47      1      191      195      196      207
      48      1      188      196      195      208
      49      2      211      212      213      220
      50      1      212      213      214      225
      51      1      213      214      215      226
      52      2      214      215      216      219
      53      1      215      219      220      231
      54      1      212      220      219      232
      55      2      235      236      237      244
      56      1      236      237      238      249
      57      1      237      238      239      250
      58      2      238      239      240      243
      59      1      239      243      244      255
      60      1      236      244      243      256
      61      2      259      260      261      268
      62      1      260      261      262      273
      63      1      261      262      263      274
      64      2      262      263      264      267
      65      1      263      267      268      279
      66      1      260      268      267      280
      67      2      283      284      285      292
      68      1      284      285      286      297
      69      1      285      286      287      298
      70      2      286      287      288      291
      71      1      287      291      292      303
      72      1      284      292      291      304
      73      2      307      308      309      316
      74      1      308      309      310      321
      75      1      309      310      311      322
      76      2      310      311      312      315
      77      1      311      315      316      327
      78      1      308      316      315      328
      79      2      331      332      333      340
      80      1      332      333      334      345
      81      1      333      334      335      346
      82      2      334      335      336      339
      83      1      335      339      340      351
      84      1      332      340      339      352
      85      2      355      356      357      364
      86      1      356      357      358      369
      87      1      357      358      359      370
      88      2      358      359      360      363
      89      1      359      363      364      375
      90      1      356      364      363      376
      91      2      379      380      381      388
      92      1      380      381      382      393
      93      1      381      382      383      394
      94      2      382      383      384      387
      95      1      383      387      388      399
      96      1      380      388      387      400
      97      2      403      404      405      412
      98      1      404      405      406      417
      99      1      405      406      407      418
     100      2      406      407      408      411
     101      1      407      411      412      423
     102      1      404      412      411      424
     103      2      427      428      429      436
     104      1      428      429      430      441
     105      1      429      430      431      442
     106      2      430      431      432      435
     107      1      431      435      436      447
     108      1      428      436      435      448
     109      2      451      452      453      460
     110      1      452      453      454      465
     111      1      453      454      455      466
     112      2      454      455      456      459
     113      1      455      459      460      471
     114      1      452      460      459      472
     115      2      475      476      477      484
     116      1      476      477      478      489
     117      1      477      478      479      490
     118      2      478      479      480      483
     119      1      479      483      484      495
     120      1      476      484      483      496
     121      2      499      500      501      508
     122      1      500      501      502      513
     123      1      501      502      503      514
     124      2      502      503      504      507
     125      1      503      507      508      519
     126      1      500      508      507      520
     127      2      523      524      525      532
     128      1      524      525      526      537
     129      1      525      526      527      538
     130      2      526      527      528      531
     131      1      527      531      532      543
     132      1      524      532      531      544
     133      2      547      548      549      556
     134      1      548      549      550      561
     135      1      549      550      551      562
     136      2      550      551      552      555
     137      1      551      555      556      567
     138      1      548      556      555      568
     139      2      571      572      573      580
     140      1      572      573      574      585
     141      1      573      574      575      586
     142      2      574      575      576      579
     143      1      575      579      580      591
     144      1      572      580      579      592
     145      2      595      596      597      604
     146      1      596      597      598      609
     147      1      597      598      599      610
     148      2      598      599      600      603
     149      1      599      603      604      615
     150      1      596      604      603      616
     151      4      618      619      620      628
     152      3      619      620      621      622
     153      4      634      635      636      644
     154      3      635      636      637      638
     155      4      650      651      652      660
     156      3      651      652      653      654
     157      4      666      667      668      676
     158      3      667      668      669      670
     159      4      682      683      684      692
     160      3      683      684      685      686
     161      4      698      699      700      708
     162      3      699      700      701      702
     163      4      714      715      716      724
     164      3      715      716      717      718
     165      4      730      731      732      740
     166      3      731      732      733      734
     167      4      746      747      748      756
     168      3      747      748      749      750
     169      4      762      763      764      772
     170      3      763      764      765      766
     171      4      778      779      780      788
     172      3      779      780      781      782
     173      4      794      795      796      804
     174      3      795      796      797      798
     175      4      810      811      812      820
     176      3      811      812      813      814
     177      4      826      827      828      836
     178      3      827      828      829      830
     179      4      842      843      844      852
     180      3      843      844      845      846
     181      4      858      859      860      868
     182      3      859      860      861      862
     183      4      874      875      876      884
     184      3      875      876      877      878
     185      4      890      891      892      900
     186      3      891      892      893      894
     187      4      906      907      908      916
     188      3      907      908      909      910
     189      4      922      923      924      932
     190      3      923      924      925      926
     191      4      938      939      940      948
     192      3      939      940      941      942
     193      4      954      955      956      964
     194      3      955      956      957      958
     195      4      970      971      972      980
     196      3      971      972      973      974
     197      4      986      987      988      996
     198      3      987      988      989      990

