LAMMPS data file generated by GM 1-hop + monomer-charge pipeline

    1095 atoms
    1129 bonds
    2027 angles
    2801 dihedrals
     210 impropers

      13 atom types
      18 bond types
      32 angle types
      41 dihedral types
       2 improper types

  -58.286100    69.197100 xlo xhi
  -54.457800    45.100200 ylo yhi
  -55.676100    50.021600 zlo zhi

Masses

       1    12.011000
       2    12.011000
       3    12.011000
       4    12.011000
       5    12.011000
       6    12.011000
       7    12.011000
       8    12.011000
       9     1.008000
      10     1.008000
      11    14.007000
      12    15.999000
      13    15.999000

Pair Coeffs

       1     0.066000     3.300000
       2     0.070000     3.550000
       3     0.070000     3.550000
       4     0.066000     3.500000
       5     0.066000     3.500000
       6     0.066000     3.500000
       7     0.066000     3.500000
       8     0.066000     3.500000
       9     0.030000     2.420000
      10     0.030000     2.500000
      11     0.170000     3.200000
      12     0.140000     2.900000
      13     0.140000     2.900000

Bond Coeffs

       1   390.000000     1.470000
       2   650.000000     1.157000
       3   469.000000     1.400000
       4   469.000000     1.400000
       5   367.000000     1.080000
       6   450.000000     1.364000
       7   268.000000     1.529000
       8   340.000000     1.090000
       9   320.000000     1.410000
      10   268.000000     1.529000
      11   340.000000     1.090000
      12   320.000000     1.410000
      13   268.000000     1.529000
      14   268.000000     1.529000
      15   268.000000     1.529000
      16   340.000000     1.090000
      17   340.000000     1.090000
      18   340.000000     1.090000

Angle Coeffs

       1    58.350000   112.700000
       2    35.000000   108.500000
       3    63.000000   120.000000
       4    35.000000   120.000000
       5    63.000000   120.000000
       6    70.000000   120.000000
       7    35.000000   120.000000
       8    75.000000   111.000000
       9    58.350000   112.700000
      10    37.500000   110.700000
      11    58.350000   112.700000
      12    37.500000   110.700000
      13    60.000000   109.500000
      14    37.500000   110.700000
      15    50.000000   109.500000
      16    37.500000   110.700000
      17    50.000000   109.500000
      18    58.350000   112.700000
      19    58.350000   112.700000
      20    37.500000   110.700000
      21    58.350000   112.700000
      22    37.500000   110.700000
      23    37.500000   110.700000
      24    37.500000   110.700000
      25   150.000000   180.000000
      26    37.500000   110.700000
      27    33.000000   107.800000
      28    35.000000   109.500000
      29    33.000000   107.800000
      30    35.000000   109.500000
      31    33.000000   107.800000
      32    33.000000   107.800000

Dihedral Coeffs

       1     0.000000    -0.650000     0.000000     0.000000
       2     0.000000     0.000000     0.366000     0.000000
       3     0.000000     7.250000     0.000000     0.000000
       4     0.000000     7.250000     0.000000     0.000000
       5     0.000000     7.250000     0.000000     0.000000
       6     0.000000     3.370000     0.000000     0.300000
       7     0.000000     7.250000     0.000000     0.000000
       8     0.000000     7.250000     0.000000     0.000000
       9     0.250000    -0.250000     0.500000     0.000000
      10     0.000000     0.000000     0.760000     0.000000
      11     0.850000    -0.200000     0.200000     0.000000
      12     0.850000    -0.200000     0.200000     0.000000
      13     0.850000    -0.200000     0.200000     0.000000
      14     0.000000     0.000000     0.300000     0.000000
      15     0.850000    -0.200000     0.200000     0.000000
      16     0.850000    -0.200000     0.200000     0.000000
      17     0.850000    -0.200000     0.200000     0.000000
      18     0.000000     0.000000     0.300000     0.000000
      19     0.250000    -0.250000     0.500000     0.000000
      20     0.000000     0.000000     0.760000     0.000000
      21     0.000000     0.000000     0.300000     0.000000
      22     1.300000    -0.500000     0.000000     0.000000
      23     0.000000     0.000000     0.300000     0.000000
      24     1.300000    -0.500000     0.000000     0.000000
      25     0.850000    -0.200000     0.200000     0.000000
      26     0.000000     0.000000     0.300000     0.000000
      27     0.000000     0.000000     0.300000     0.000000
      28     0.000000     0.000000     0.300000     0.000000
      29     0.000000     0.000000     0.000000     0.000000
      30     0.000000     0.000000     0.300000     0.000000
      31     0.000000     0.000000     0.300000     0.000000
      32     0.000000     7.250000     0.000000     0.000000
      33     0.000000     7.250000     0.000000     0.000000
      34     0.000000     0.000000     0.300000     0.000000
      35     0.000000     0.000000     0.300000     0.000000
      36     0.000000     0.000000     0.300000     0.000000
      37     0.000000     0.000000     0.300000     0.000000
      38     0.000000     0.000000     0.300000     0.000000
      39     0.000000     0.000000     0.300000     0.000000
      40     0.000000     0.000000     0.300000     0.000000
      41     0.000000     0.000000     0.000000     0.000000

Improper Coeffs

       1     2.500000   -1    2
       2     2.500000   -1    2

Atoms

       1    1     11  -0.41172475   -30.715900   -19.146900   -10.911000
       2    1      1   0.13012325   -31.977100   -19.680800   -10.276000
       3    1      8  -0.04381475   -33.263800   -20.224400    -9.628400
       4    1      6  -0.18500275   -34.124700   -19.039600    -9.148700
       5    1     10   0.13637825   -32.985300   -20.909300    -8.765600
       6    1     10   0.13637825   -33.851400   -20.823500   -10.399800
       7    1     10   0.11883125   -34.390200   -18.423300   -10.070400
       8    1     10   0.11883125   -33.545500   -18.385200    -8.416800
       9    1     11  -0.43327213    48.120300    -3.063900     7.213000
      10    1      1   0.14607888    47.777400    -1.915000     6.295100
      11    1      8  -0.04672212    47.430800    -0.741400     5.359700
      12    1      6  -0.18757812    48.067600     0.541700     5.922900
      13    1     10   0.14505988    46.299400    -0.611400     5.307000
      14    1     10   0.14505988    47.843300    -0.948300     4.317200
      15    1     10   0.11568688    47.830300     1.424300     5.241600
      16    1     10   0.11568688    49.197100     0.404600     5.993400
      17    1     11  -0.43327213   -34.927800     5.190900    30.021600
      18    1      1   0.14607888   -35.882800     4.253000    29.321700
      19    1      8  -0.04672212   -36.858700     3.299200    28.608000
      20    1      6  -0.18757812   -37.561600     4.055500    27.466000
      21    1     10   0.14505988   -37.636200     2.922800    29.351900
      22    1     10   0.14505988   -36.282100     2.414700    28.177400
      23    1     10   0.11568688   -38.133500     4.946000    27.890300
      24    1     10   0.11568688   -38.286100     3.356700    26.930900
      25    1     11  -0.43327213     9.277200    15.526500   -26.581800
      26    1      1   0.14607888     7.791100    15.282900   -26.690900
      27    1      8  -0.04672212     6.275400    15.034800   -26.805600
      28    1      6  -0.18757812     5.783400    15.572200   -28.161500
      29    1     10   0.14505988     5.732500    15.573700   -25.960300
      30    1     10   0.14505988     6.066200    13.915700   -26.744500
      31    1     10   0.11568688     4.662400    15.390200   -28.262400
      32    1     10   0.11568688     5.998200    16.689700   -28.231600
      33    1     11  -0.41172475    12.684800   -32.159100    -2.121600
      34    1      1   0.13012325    12.274100   -32.751300    -3.448500
      35    1      8  -0.04381475    11.857400   -33.353100    -4.803000
      36    1      6  -0.18500275    12.595000   -32.608100    -5.930000
      37    1     10   0.13637825    10.731700   -33.240900    -4.942800
      38    1     10   0.13637825    12.136900   -34.457800    -4.830100
      39    1     10   0.11883125    12.308500   -31.505200    -5.904100
      40    1     10   0.11883125    12.305800   -33.053400    -6.938900
      41    1      6  -0.18676121   -35.434400   -19.515400    -8.488400
      42    1      4  -0.02900421   -35.261700   -20.151000    -7.090800
      43    1     12  -0.31231621   -34.352800   -21.356000    -7.040600
      44    1      3   0.06835579   -32.923800   -20.899400    -6.866600
      45    1      2  -0.16285821   -32.601200   -19.395500    -6.796900
      46    1      2  -0.12557921   -31.141500   -18.926100    -6.654200
      47    1      3   0.04077879   -30.004300   -19.962600    -6.585500
      48    1     12  -0.34806221   -28.571900   -19.507800    -6.443600
      49    1      4  -0.00581521   -27.806000   -20.452600    -5.545900
      50    1      6  -0.19565221   -28.276200   -20.352200    -4.080900
      51    1      2  -0.12557921   -30.329400   -21.466700    -6.632400
      52    1      2  -0.16285821   -31.788800   -21.935800    -6.778800
      53    1     10   0.11840979   -36.109000   -18.606800    -8.350200
      54    1     10   0.11840979   -35.948700   -20.251700    -9.190500
      55    1     10   0.09869879   -34.851400   -19.368000    -6.370800
      56    1     10   0.09869879   -36.296800   -20.468600    -6.734300
      57    1      9   0.17224679   -33.443800   -18.629800    -6.861500
      58    1      9   0.16717679   -30.903500   -17.812400    -6.602500
      59    1     10   0.09878479   -26.700200   -20.178100    -5.587200
      60    1     10   0.09878479   -27.941300   -21.520800    -5.920500
      61    1     10   0.11735879   -27.645500   -21.058000    -3.446200
      62    1     10   0.11735879   -28.128700   -19.283600    -3.712100
      63    1      9   0.16717679   -29.488500   -22.233200    -6.559500
      64    1      9   0.17224679   -32.027900   -23.049700    -6.823500
      65    1      6  -0.18770333   -29.760300   -20.738800    -3.938000
      66    1      4  -0.02450133   -30.229000   -20.623400    -2.473800
      67    1     12  -0.31219133   -29.453500   -21.548200    -1.563800
      68    1      3   0.05622167   -28.025800   -21.077600    -1.422100
      69    1      2  -0.15013933   -27.699500   -19.575100    -1.507100
      70    1      2  -0.14512533   -26.239200   -19.097000    -1.402700
      71    1      3   0.07780067   -25.104700   -20.122600    -1.220600
      72    1     12  -0.35497233   -23.670000   -19.660100    -1.134600
      73    1      4   0.01045667   -22.918800   -20.454000    -0.091000
      74    1      6  -0.18808133   -23.371100   -20.075500     1.333400
      75    1      2  -0.14512533   -25.433900   -21.622900    -1.114100
      76    1      2  -0.15013933   -26.893300   -22.101600    -1.223700
      77    1     10   0.10392067   -30.392200   -20.037400    -4.576100
      78    1     10   0.10392067   -29.906400   -21.809700    -4.300500
      79    1     10   0.10321667   -30.100600   -19.549500    -2.113400
      80    1     10   0.10321667   -31.332600   -20.905400    -2.425700
      81    1      9   0.17262267   -28.539200   -18.818200    -1.654700
      82    1      9   0.16739167   -25.997600   -17.984600    -1.466800
      83    1     10   0.09804667   -21.806300   -20.223900    -0.186700
      84    1     10   0.09804667   -23.089000   -21.567200    -0.268600
      85    1     10   0.11155167   -22.766200   -20.681100     2.086200
      86    1     10   0.11155167   -23.179200   -18.964800     1.503800
      87    1      9   0.16739167   -24.595600   -22.379700    -0.959400
      88    1      9   0.17262267   -27.135400   -23.213600    -1.158100
      89    1      6  -0.18770333   -24.869900   -20.363100     1.540400
      90    1      4  -0.02450133   -25.319500   -19.961800     2.959500
      91    1     12  -0.31219133   -24.597700   -20.754000     4.026200
      92    1      3   0.05622167   -23.139300   -20.370200     4.117300
      93    1      2  -0.15013933   -22.688700   -18.949700     3.728300
      94    1      2  -0.14512533   -21.197400   -18.567800     3.795700
      95    1      3   0.07780067   -20.156600   -19.608200     4.248800
      96    1     12  -0.35497233   -18.689600   -19.249900     4.284500
      97    1      4   0.01045667   -18.001400   -19.964600     5.423400
      98    1      6  -0.18808133   -18.346500   -19.307400     6.774400
      99    1      2  -0.14512533   -20.610300   -21.020200     4.662500
     100    1      2  -0.15013933   -22.100200   -21.404100     4.588300
     101    1     10   0.10392067   -25.471500   -19.757600     0.785200
     102    1     10   0.10392067   -25.068600   -21.473500     1.376600
     103    1     10   0.10321667   -25.130400   -18.849400     3.122800
     104    1     10   0.10321667   -26.436700   -20.168900     3.050500
     105    1      9   0.17262267   -23.458500   -18.182900     3.383300
     106    1      9   0.16739167   -20.863900   -17.517500     3.503200
     107    1     10   0.09804667   -16.873000   -19.901300     5.273600
     108    1     10   0.09804667   -18.320800   -21.059100     5.427700
     109    1     10   0.11155167   -17.812100   -19.872600     7.607100
     110    1     10   0.11155167   -17.990400   -18.224500     6.764200
     111    1      9   0.16739167   -19.841100   -21.784200     5.015300
     112    1      9   0.17262267   -22.432900   -22.454000     4.882300
     113    1      6  -0.18770333   -19.865300   -19.331000     7.025900
     114    1      4  -0.02450133   -20.207500   -18.639800     8.361000
     115    1     12  -0.31219133   -19.611400   -19.363700     9.546700
     116    1      3   0.05622167   -18.101800   -19.311600     9.562900
     117    1      2  -0.15013933   -17.368100   -17.982900     9.300300
     118    1      2  -0.14512533   -15.827600   -17.933900     9.326200
     119    1      3   0.07780067   -15.020700   -19.218300     9.595700
     120    1     12  -0.35497233   -13.509400   -19.187500     9.586400
     121    1      4   0.01045667   -12.922700   -17.837300     9.931100
     122    1      6  -0.18808133   -13.108500   -17.485800    11.420500
     123    1      2  -0.14512533   -15.755300   -20.544900     9.862900
     124    1      2  -0.15013933   -17.294400   -20.592900     9.840300
     125    1     10   0.10392067   -20.383800   -18.768000     6.181300
     126    1     10   0.10392067   -20.237100   -20.408500     7.043700
     127    1     10   0.10321667   -19.828100   -17.564900     8.343700
     128    1     10   0.10321667   -21.341200   -18.634300     8.479600
     129    1      9   0.17262267   -17.965800   -17.035300     9.089700
     130    1      9   0.16739167   -15.284400   -16.949000     9.141400
     131    1     10   0.09804667   -13.401900   -17.033700     9.279600
     132    1     10   0.09804667   -11.803800   -17.874200     9.716200
     133    1     10   0.11155167   -12.639300   -18.298600    12.067600
     134    1     10   0.11155167   -12.590700   -16.492100    11.630300
     135    1      9   0.16739167   -15.159000   -21.494300    10.069400
     136    1      9   0.17262267   -17.835600   -21.578400    10.029900
     137    1      6  -0.18770333   -14.600800   -17.344000    11.766500
     138    1      4  -0.02450133   -14.778800   -16.963900    13.250000
     139    1     12  -0.31219133   -14.065400   -15.671100    13.573700
     140    1      3   0.05622167   -12.575800   -15.898900    13.688300
     141    1      2  -0.15013933   -12.045700   -17.144200    14.421800
     142    1      2  -0.14512533   -10.528500   -17.365900    14.566600
     143    1      3   0.07780067    -9.538800   -16.352800    13.960800
     144    1     12  -0.35497233    -8.050500   -16.591000    14.080200
     145    1      4   0.01045667    -7.231000   -15.320900    14.025200
     146    1      6  -0.18808133    -7.375500   -14.481100    15.310000
     147    1      2  -0.14512533   -10.067900   -15.109000    13.223800
     148    1      2  -0.15013933   -11.586400   -14.884900    13.082400
     149    1     10   0.10392067   -15.053300   -16.526000    11.114200
     150    1     10   0.10392067   -15.137400   -18.328900    11.562000
     151    1     10   0.10321667   -15.892900   -16.833200    13.453500
     152    1     10   0.10321667   -14.367500   -17.791800    13.917400
     153    1      9   0.17262267   -12.777800   -17.899300    14.861700
     154    1      9   0.16739167   -10.137400   -18.285100    15.115500
     155    1     10   0.09804667    -7.548000   -14.703400    13.120700
     156    1     10   0.09804667    -6.133600   -15.609100    13.915400
     157    1     10   0.11155167    -7.058400   -15.103200    16.211100
     158    1     10   0.11155167    -6.703300   -13.563700    15.231200
     159    1      9   0.16739167    -9.335700   -14.354200    12.783300
     160    1      9   0.17262267   -11.977900   -13.966000    12.533100
     161    1      6  -0.18770333    -8.829700   -14.014500    15.490700
     162    1      4  -0.02450133    -8.968900   -13.153100    16.761000
     163    1     12  -0.31219133    -8.090000   -11.924900    16.693800
     164    1      3   0.05622167    -6.642300   -12.261400    16.969000
     165    1      2  -0.15013933    -6.290800   -13.425100    17.913600
     166    1      2  -0.14512533    -4.817400   -13.731500    18.243100
     167    1      3   0.07780067    -3.692700   -12.887500    17.612300
     168    1     12  -0.35497233    -2.247400   -13.203200    17.925900
     169    1      4   0.01045667    -1.306200   -12.071500    17.577000
     170    1      6  -0.18808133    -1.387300   -10.912300    18.590900
     171    1      2  -0.14512533    -4.043800   -11.739400    16.648100
     172    1      2  -0.15013933    -5.518000   -11.429900    16.322200
     173    1     10   0.10392067    -9.137800   -13.398400    14.582300
     174    1     10   0.10392067    -9.511300   -14.924000    15.576200
     175    1     10   0.10321667   -10.056100   -12.820900    16.844200
     176    1     10   0.10321667    -8.691200   -13.764700    17.682400
     177    1      9   0.17262267    -7.122300   -14.052200    18.377600
     178    1      9   0.16739167    -4.558600   -14.585200    18.952700
     179    1     10   0.09804667    -1.546900   -11.690700    16.529700
     180    1     10   0.09804667    -0.239600   -12.473700    17.591600
     181    1     10   0.11155167    -1.129900   -11.296200    19.633200
     182    1     10   0.11155167    -0.640400   -10.103900    18.293800
     183    1      9   0.16739167    -3.212200   -11.115500    16.180500
     184    1      9   0.17262267    -5.777500   -10.577000    15.611600
     185    1      6  -0.18770333    -2.800700   -10.306500    18.605000
     186    1      4  -0.02450133    -2.885800    -9.127900    19.594300
     187    1     12  -0.31219133    -1.950300    -8.004700    19.206900
     188    1      3   0.05622167    -0.509400    -8.296800    19.558900
     189    1      2  -0.15013933    -0.176500    -9.204600    20.757300
     190    1      2  -0.14512533     1.292000    -9.435300    21.164800
     191    1      3   0.07780067     2.429400    -8.777100    20.359900
     192    1     12  -0.35497233     3.870000    -9.013000    20.754900
     193    1      4   0.01045667     4.816300    -8.028800    20.102800
     194    1      6  -0.18808133     4.774300    -6.639300    20.771400
     195    1      2  -0.14512533     2.096700    -7.897200    19.141500
     196    1      2  -0.15013933     0.628600    -7.662100    18.737000
     197    1     10   0.10392067    -3.059900    -9.935100    17.558900
     198    1     10   0.10392067    -3.547600   -11.110400    18.914000
     199    1     10   0.10321667    -3.953400    -8.728700    19.571500
     200    1     10   0.10321667    -2.638800    -9.482200    20.649400
     201    1      9   0.17262267    -1.017400    -9.694500    21.350800
     202    1      9   0.16739167     1.536400   -10.095200    22.061600
     203    1     10   0.09804667     4.551600    -7.934700    18.997900
     204    1     10   0.09804667     5.878800    -8.430800    20.198600
     205    1     10   0.11155167     5.068800    -6.733000    21.868800
     206    1     10   0.11155167     5.510300    -5.946700    20.244000
     207    1      9   0.16739167     2.938100    -7.412600    18.544000
     208    1      9   0.17262267     0.383500    -7.005400    17.837900
     209    1      6  -0.18770333     3.360800    -6.042100    20.675600
     210    1      4  -0.02450133     3.306800    -4.643000    21.318700
     211    1     12  -0.31219133     4.190300    -3.654100    20.592100
     212    1      3   0.05622167     5.661100    -3.812300    20.904200
     213    1      2  -0.15013933     6.108800    -4.419300    22.246700
     214    1      2  -0.14512533     7.608600    -4.492300    22.597000
     215    1      3   0.07780067     8.662500    -3.977700    21.596700
     216    1     12  -0.35497233    10.133500    -4.062800    21.936900
     217    1      4   0.01045667    11.007100    -3.328200    20.942400
     218    1      6  -0.18808133    11.013500    -1.802100    21.166200
     219    1      2  -0.14512533     8.215300    -3.408800    20.238400
     220    1      2  -0.15013933     6.716400    -3.328400    19.891900
     221    1     10   0.10392067     3.055400    -5.963500    19.580000
     222    1     10   0.10392067     2.633800    -6.733100    21.217400
     223    1     10   0.10321667     2.231000    -4.271700    21.251900
     224    1     10   0.10321667     3.615000    -4.699600    22.414800
     225    1      9   0.17262267     5.331100    -4.801700    22.987300
     226    1      9   0.16739167     7.939100    -4.928600    23.597000
     227    1     10   0.09804667    10.646800    -3.562900    19.886700
     228    1     10   0.09804667    12.078000    -3.700700    21.061500
     229    1     10   0.11155167    11.407700    -1.572600    22.211000
     230    1     10   0.11155167    11.693700    -1.311700    20.393700
     231    1      9   0.16739167     8.994400    -3.037400    19.493500
     232    1      9   0.17262267     6.387100    -2.897100    18.889500
     233    1      6  -0.18770333     9.594300    -1.227400    21.026500
     234    1      4  -0.02450133     9.584700     0.300700    21.233000
     235    1     12  -0.31219133    10.374800     1.026100    20.167000
     236    1      3   0.05622167    11.871000     1.003000    20.381200
     237    1      2  -0.15013933    12.457100     0.543400    21.729000
     238    1      2  -0.14512533    13.980500     0.591900    21.962900
     239    1      3   0.07780067    14.918600     1.087200    20.844400
     240    1     12  -0.35497233    16.414500     1.101000    21.059600
     241    1      4   0.01045667    17.106500     1.854800    19.946400
     242    1      6  -0.18808133    17.105700     3.377600    20.188600
     243    1      2  -0.14512533    14.332800     1.529400    19.491000
     244    1      2  -0.15013933    12.810800     1.485200    19.259500
     245    1     10   0.10392067     9.188600    -1.467600    19.988400
     246    1     10   0.10392067     8.926100    -1.714600    21.811100
     247    1     10   0.10321667     8.501300     0.647600    21.160900
     248    1     10   0.10321667     9.993100     0.564600    22.264400
     249    1      9   0.17262267    11.764100     0.173300    22.555300
     250    1      9   0.16739167    14.413400     0.256100    22.962800
     251    1     10   0.09804667    16.583400     1.619500    18.960600
     252    1     10   0.09804667    18.191300     1.509300    19.885900
     253    1     10   0.11155167    17.690500     3.615700    21.137600
     254    1     10   0.11155167    17.609200     3.880500    19.298900
     255    1      9   0.16739167    15.026700     1.886300    18.659300
     256    1      9   0.17262267    12.378900     1.814000    18.257000
     257    1      6  -0.19202117    15.671500     3.916700    20.339300
     258    1      4  -0.03521117    15.682600     5.450300    20.498800
     259    1     12  -0.32801917    16.199500     6.151800    19.260900
     260    1      3   0.06500483    17.674000     5.935400    19.006100
     261    1      2  -0.14963617    18.715700     6.434500    20.025000
     262    1      2  -0.14801917    20.220000     6.258200    19.739700
     263    1      3   0.05687383    20.684800     5.573800    18.440500
     264    1     12  -0.32459117    22.159600     5.355300    18.184700
     265    1      4  -0.01582917    22.511800     5.496400    16.721200
     266    1      6  -0.19070817    22.441400     6.969500    16.275300
     267    1      2  -0.14801917    19.643800     5.089800    17.414700
     268    1      2  -0.14963617    18.139800     5.264500    17.700400
     269    1     10   0.10640183    15.053600     3.643100    19.421600
     270    1     10   0.10640183    15.199200     3.439200    21.260300
     271    1     10   0.11512183    14.609200     5.793300    20.670900
     272    1     10   0.11512183    16.315700     5.741800    21.401200
     273    1      9   0.16885483    18.373400     6.939300    20.988100
     274    1      9   0.16901983    20.989700     6.627000    20.495400
     275    1     10   0.10047083    21.792600     4.868200    16.098400
     276    1     10   0.10047083    23.576400     5.122900    16.557400
     277    1     10   0.12003683    21.384500     7.365600    16.437000
     278    1     10   0.12003683    23.176400     7.590300    16.886900
     279    1      9   0.16901983    19.986500     4.596000    16.446100
     280    1      9   0.16885483    17.370300     4.911500    16.937200
     281    1      6  -0.19202117    21.031300    10.486200    14.464900
     282    1      4  -0.03521117    19.561800    10.776400    14.823000
     283    1     12  -0.32801917    19.199600    12.238500    14.728600
     284    1      3   0.06500483    19.563300    12.885100    16.044700
     285    1      2  -0.14963617    18.629400    13.940400    16.668700
     286    1      2  -0.14801917    18.972200    14.561000    18.037300
     287    1      3   0.05687383    20.250000    14.126400    18.778800
     288    1     12  -0.32459117    20.607700    14.729600    20.115500
     289    1      4  -0.01582917    21.129900    13.599100    20.969400
     290    1      6  -0.19070817    19.962200    12.809100    21.589600
     291    1      2  -0.14801917    21.167100    13.052300    18.167400
     292    1      2  -0.14963617    20.825300    12.431700    16.801400
     293    1     10   0.10640183    21.216300    10.728500    13.366700
     294    1     10   0.10640183    21.735400    11.100700    15.116900
     295    1     10   0.11512183    19.376600    10.441000    15.895300
     296    1     10   0.11512183    18.896500    10.175200    14.119200
     297    1      9   0.16885483    17.682000    14.258300    16.119900
     298    1      9   0.16901983    18.281400    15.341100    18.499700
     299    1     10   0.10047083    21.775700    14.011500    21.813500
     300    1     10   0.10047083    21.761200    12.913400    20.312800
     301    1     10   0.12003683    19.413700    13.483000    22.327600
     302    1     10   0.12003683    20.376500    11.905000    22.146600
     303    1      9   0.16901983    22.100600    12.715000    18.728500
     304    1      9   0.16885483    21.502000    11.631300    16.354600
     305    1      6  -0.18770333    18.944500    12.353100    20.527300
     306    1      4  -0.02450133    17.842000    11.561200    21.256400
     307    1     12  -0.31219133    16.705500    11.224300    20.322900
     308    1      3   0.05622167    17.178100    10.534000    19.067200
     309    1      2  -0.15013933    17.898300     9.173600    19.146300
     310    1      2  -0.14512533    18.317800     8.450600    17.851400
     311    1      3   0.07780067    18.004300     9.083600    16.482900
     312    1     12  -0.35497233    18.348200     8.355400    15.207100
     313    1      4   0.01045667    17.943400     6.908400    15.332200
     314    1      6  -0.18808133    16.590400     6.833900    16.061500
     315    1      2  -0.14512533    17.306100    10.453400    16.407600
     316    1      2  -0.15013933    16.904400    11.183600    17.699700
     317    1     10   0.10392067    19.441000    11.695400    19.739500
     318    1     10   0.10392067    18.497500    13.275700    20.028200
     319    1     10   0.10321667    17.426200    12.196500    22.106600
     320    1     10   0.10321667    18.291400    10.606000    21.686800
     321    1      9   0.17262267    18.113700     8.698200    20.159900
     322    1      9   0.16739167    18.847000     7.441700    17.905300
     323    1     10   0.09804667    17.860700     6.451200    14.291200
     324    1     10   0.09804667    18.722700     6.339400    15.938300
     325    1     10   0.11155167    16.721500     7.221300    17.125500
     326    1     10   0.11155167    16.272100     5.742700    16.104600
     327    1      9   0.16739167    17.089100    10.927700    15.393700
     328    1      9   0.17262267    16.390400    12.199600    17.643800
     329    1      6  -0.18770333    15.548800     7.725000    15.352600
     330    1      4  -0.02450133    14.193200     7.707600    16.092200
     331    1     12  -0.31219133    13.457200     6.399400    15.912800
     332    1      3   0.05622167    14.415800     5.243100    16.018100
     333    1      2  -0.15013933    14.768100     4.645100    17.392000
     334    1      2  -0.14512533    15.814600     3.521900    17.491700
     335    1      3   0.07780067    16.521400     3.012000    16.224900
     336    1     12  -0.35497233    17.582500     1.945500    16.329200
     337    1      4   0.01045667    17.176000     0.763000    15.485100
     338    1      6  -0.18808133    15.992500     0.006700    16.119000
     339    1      2  -0.14512533    16.137700     3.579300    14.847700
     340    1      2  -0.15013933    15.075400     4.687200    14.743200
     341    1     10   0.10392067    15.403900     7.402100    14.269000
     342    1     10   0.10392067    15.955000     8.790200    15.376800
     343    1     10   0.10321667    13.528800     8.532600    15.671300
     344    1     10   0.10321667    14.380900     7.908100    17.198700
     345    1      9   0.17262267    14.265300     5.042500    18.334700
     346    1      9   0.16739167    16.060400     3.059100    18.501400
     347    1     10   0.09804667    16.889500     1.127400    14.443600
     348    1     10   0.09804667    18.059100     0.046500    15.405400
     349    1     10   0.11155167    16.303400    -0.378500    17.146100
     350    1     10   0.11155167    15.748000    -0.875700    15.442100
     351    1      9   0.16739167    16.642100     3.181300    13.906300
     352    1      9   0.17262267    14.794800     5.113300    13.724200
     353    1      6  -0.18770333    14.743000     0.897500    16.276100
     354    1      4  -0.02450133    13.574600     0.136700    16.936100
     355    1     12  -0.31219133    13.119400    -1.037400    16.101500
     356    1      3   0.05622167    14.255300    -2.022500    15.992400
     357    1      2  -0.15013933    15.125500    -2.326500    17.225700
     358    1      2  -0.14512533    16.356200    -3.241500    17.092000
     359    1      3   0.07780067    16.708200    -3.861300    15.726800
     360    1     12  -0.35497233    17.880000    -4.803200    15.606800
     361    1      4   0.01045667    17.439000    -6.063700    14.900900
     362    1      6  -0.18808133    16.364200    -6.820000    15.709500
     363    1      2  -0.14512533    15.825300    -3.572800    14.498100
     364    1      2  -0.15013933    14.600000    -2.650500    14.630200
     365    1     10   0.10392067    14.419600     1.285800    15.254400
     366    1     10   0.10392067    15.005000     1.776000    16.950300
     367    1     10   0.10321667    12.698800     0.855000    17.067400
     368    1     10   0.10321667    13.904900    -0.238600    17.960700
     369    1      9   0.17262267    14.870200    -1.857900    18.233100
     370    1      9   0.16739167    17.004600    -3.462800    18.003400
     371    1     10   0.09804667    17.020500    -5.795500    13.874900
     372    1     10   0.09804667    18.344500    -6.744200    14.771500
     373    1     10   0.11155167    16.777500    -7.085900    16.738000
     374    1     10   0.11155167    16.097500    -7.777900    15.151200
     375    1      9   0.16739167    16.077900    -4.045700    13.492000
     376    1      9   0.17262267    13.954000    -2.425300    13.718200
     377    1      6  -0.18770333    15.080000    -5.983500    15.870600
     378    1      4  -0.02450133    14.030000    -6.809300    16.632200
     379    1     12  -0.31219133    13.805900    -8.087600    15.866000
     380    1      3   0.05622167    13.518700    -7.739700    14.426400
     381    1      2  -0.15013933    14.399100    -8.325600    13.307900
     382    1      2  -0.14512533    14.073300    -8.020700    11.835500
     383    1      3   0.07780067    12.865100    -7.134800    11.482800
     384    1     12  -0.35497233    12.460100    -6.969700    10.041500
     385    1      4   0.01045667    11.134500    -7.657200     9.799200
     386    1      6  -0.18808133    11.114700    -9.111600    10.319600
     387    1      2  -0.14512533    12.025800    -6.492300    12.603100
     388    1      2  -0.15013933    12.353600    -6.795800    14.077200
     389    1     10   0.10392067    14.674900    -5.722600    14.837200
     390    1     10   0.10392067    15.289800    -5.027800    16.452900
     391    1     10   0.10321667    13.058600    -6.216000    16.697600
     392    1     10   0.10321667    14.404400    -7.052500    17.681000
     393    1      9   0.17262267    15.283600    -8.995400    13.570200
     394    1      9   0.16739167    14.710800    -8.472200    11.005500
     395    1     10   0.09804667    10.293800    -7.074500    10.302500
     396    1     10   0.09804667    10.956700    -7.669900     8.673400
     397    1     10   0.11155167    11.997300    -9.680500     9.875900
     398    1     10   0.11155167    10.144300    -9.594000     9.966600
     399    1      9   0.16739167    11.148500    -5.812600    12.341500
     400    1      9   0.17262267    11.725000    -6.334200    14.908800
     401    1      6  -0.18770333    11.146200    -9.193000    11.863100
     402    1      4  -0.02450133    11.151200   -10.643000    12.390900
     403    1     12  -0.31219133     9.943800   -11.424200    11.929800
     404    1      3   0.05622167    10.080600   -11.590800    10.438600
     405    1      2  -0.15013933    11.475300   -11.810500     9.824800
     406    1      2  -0.14512533    11.648800   -11.825200     8.296400
     407    1      3   0.07780067    10.425900   -11.623300     7.384700
     408    1     12  -0.35497233    10.612000   -11.483200     5.894600
     409    1      4   0.01045667    11.488800   -10.269700     5.698300
     410    1      6  -0.18808133    11.054200    -9.219500     6.737300
     411    1      2  -0.14512533     9.021300   -11.478000     7.997900
     412    1      2  -0.15013933     8.848700   -11.452700     9.526700
     413    1     10   0.10392067    10.233800    -8.647300    12.274400
     414    1     10   0.10392067    12.086700    -8.697300    12.266500
     415    1     10   0.10321667    11.160500   -10.612700    13.530300
     416    1     10   0.10321667    12.091600   -11.173000    12.023700
     417    1      9   0.17262267    12.382800   -11.931400    10.504200
     418    1      9   0.16739167    12.685300   -11.957100     7.840800
     419    1     10   0.09804667    12.580100   -10.540500     5.886300
     420    1     10   0.09804667    11.365700    -9.872200     4.637000
     421    1     10   0.11155167    11.657800    -8.260400     6.612900
     422    1     10   0.11155167    11.231300    -9.642000     7.781700
     423    1      9   0.16739167     8.114000   -11.352500     7.319500
     424    1      9   0.17262267     7.813800   -11.309600     9.982900
     425    1      6  -0.18770333     9.551100    -8.930100     6.580100
     426    1      4  -0.02450133     9.112900    -7.979900     7.708300
     427    1     12  -0.31219133     7.623200    -7.757000     7.626600
     428    1      3   0.05622167     7.261300    -7.196100     6.273300
     429    1      2  -0.15013933     6.912500    -5.704100     6.129500
     430    1      2  -0.14512533     6.488800    -5.142600     4.761100
     431    1      3   0.07780067     6.398900    -6.076700     3.540400
     432    1     12  -0.35497233     5.916000    -5.533400     2.219900
     433    1      4   0.01045667     4.521800    -6.023500     1.898700
     434    1      6  -0.18808133     3.528100    -5.756200     3.048600
     435    1      2  -0.14512533     6.772400    -7.563600     3.678100
     436    1      2  -0.15013933     7.205200    -8.123700     5.045800
     437    1     10   0.10392067     9.341700    -8.462500     5.561800
     438    1     10   0.10392067     8.970900    -9.906100     6.672500
     439    1     10   0.10321667     9.663900    -6.987100     7.607600
     440    1     10   0.10321667     9.363500    -8.451200     8.716000
     441    1      9   0.17262267     6.962200    -5.017100     7.037800
     442    1      9   0.16739167     6.225900    -4.038600     4.654900
     443    1     10   0.09804667     4.166800    -5.462600     0.971800
     444    1     10   0.09804667     4.537800    -7.141000     1.673800
     445    1     10   0.11155167     2.478400    -6.000400     2.677500
     446    1     10   0.11155167     3.575100    -4.656400     3.344400
     447    1      9   0.16739167     6.720300    -8.251400     2.770500
     448    1      9   0.17262267     7.478100    -9.225700     5.151200
     449    1      6  -0.18770333     3.806500    -6.656000     4.270300
     450    1      4  -0.02450133     2.811200    -6.381200     5.416000
     451    1     12  -0.31219133     1.377800    -6.553400     4.971000
     452    1      3   0.05622167     1.040000    -5.398700     4.061100
     453    1      2  -0.15013933     1.698200    -4.028000     4.299100
     454    1      2  -0.14512533     1.425400    -2.864600     3.329100
     455    1      3   0.07780067     0.498000    -3.075300     2.117900
     456    1     12  -0.35497233     0.286900    -1.960100     1.123400
     457    1      4   0.01045667    -1.025800    -2.152000     0.402800
     458    1      6  -0.18808133    -2.214400    -1.735900     1.290400
     459    1      2  -0.14512533    -0.196700    -4.433600     1.905800
     460    1      2  -0.15013933     0.082500    -5.600000     2.871800
     461    1     10   0.10392067     3.712300    -7.744500     3.945200
     462    1     10   0.10392067     4.855900    -6.475700     4.671600
     463    1     10   0.10321667     2.949400    -5.312100     5.787300
     464    1     10   0.10321667     3.031900    -7.106400     6.267700
     465    1      9   0.17262267     2.400700    -3.880100     5.184800
     466    1      9   0.16739167     1.920400    -1.852100     3.499700
     467    1     10   0.09804667    -1.033500    -1.494400    -0.528400
     468    1     10   0.09804667    -1.131100    -3.244100     0.092700
     469    1     10   0.11155167    -2.106900    -0.633900     1.561100
     470    1     10   0.11155167    -3.179900    -1.883100     0.702300
     471    1      9   0.16739167    -0.905000    -4.578800     1.024400
     472    1      9   0.17262267    -0.412900    -6.612600     2.702600
     473    1      6  -0.19202117    -2.296800    -2.559500     2.589200
     474    1      4  -0.03521117    -3.538600    -2.067400     3.356900
     475    1     12  -0.32801917    -4.742700    -2.281600     2.471400
     476    1      3   0.06500483    -5.989000    -1.650200     3.046200
     477    1      2  -0.14963617    -5.957600    -0.979900     4.433400
     478    1      2  -0.14801917    -7.219900    -0.282600     4.981200
     479    1      3   0.05687383    -8.510500    -0.252700     4.138400
     480    1     12  -0.32459117    -9.740400     0.471500     4.636700
     481    1      4  -0.01582917   -10.922000    -0.117600     3.902300
     482    1      6  -0.19070817   -12.160100     0.798800     3.946500
     483    1      2  -0.14801917    -8.549300    -0.956100     2.769400
     484    1      2  -0.14963617    -7.288900    -1.649000     2.221500
     485    1     10   0.10640183    -2.407700    -3.666000     2.338200
     486    1     10   0.10640183    -1.355400    -2.399900     3.212300
     487    1     10   0.11512183    -3.424500    -0.955900     3.583400
     488    1     10   0.11512183    -3.662900    -2.646800     4.330700
     489    1      9   0.16885483    -4.998100    -0.990800     5.049200
     490    1      9   0.16901983    -7.195800     0.218500     6.004800
     491    1     10   0.10047083   -10.629500    -0.239500     2.807200
     492    1     10   0.10047083   -11.171100    -1.142500     4.334400
     493    1     10   0.12003683   -11.884300     1.805400     3.487300
     494    1     10   0.12003683   -12.539700     0.950800     5.010500
     495    1      9   0.16901983    -9.509800    -0.953200     2.155000
     496    1      9   0.16885483    -7.316100    -2.155500     1.200600
     497    1      6  -0.19202117   -14.892600     3.310200     1.641700
     498    1      4  -0.03521117   -14.145100     4.422000     0.881400
     499    1     12  -0.32801917   -13.402700     3.778200    -0.265300
     500    1      3   0.06500483   -12.600800     4.809000    -1.023300
     501    1      2  -0.14963617   -12.229600     6.143300    -0.350800
     502    1      2  -0.14801917   -11.411800     7.193900    -1.125300
     503    1      3   0.05687383   -10.964200     6.907800    -2.570600
     504    1     12  -0.32459117   -10.195200     7.948500    -3.345400
     505    1      4  -0.01582917   -10.682100     7.978200    -4.775600
     506    1      6  -0.19070817   -12.129000     8.503700    -4.868800
     507    1      2  -0.14801917   -11.346900     5.579700    -3.247000
     508    1      2  -0.14963617   -12.166300     4.530300    -2.474200
     509    1     10   0.10640183   -15.623500     2.796900     0.933200
     510    1     10   0.10640183   -15.454100     3.754900     2.527300
     511    1     10   0.11512183   -13.401500     4.932700     1.578600
     512    1     10   0.11512183   -14.887500     5.189600     0.482500
     513    1      9   0.16885483   -12.559800     6.352500     0.720000
     514    1      9   0.16901983   -11.138400     8.183300    -0.629200
     515    1     10   0.10047083   -10.005600     8.670700    -5.377500
     516    1     10   0.10047083   -10.627800     6.925800    -5.210800
     517    1     10   0.12003683   -12.174200     9.560200    -4.443200
     518    1     10   0.12003683   -12.432100     8.527500    -5.967000
     519    1      9   0.16901983   -11.029700     5.376400    -4.322900
     520    1      9   0.16885483   -12.449200     3.545700    -2.974700
     521    1      6  -0.18770333   -13.109900     7.602400    -4.094500
     522    1      4  -0.02450133   -14.556900     8.126200    -4.186500
     523    1     12  -0.31219133   -15.045800     8.153200    -5.615100
     524    1      3   0.05622167   -14.309500     9.220300    -6.386900
     525    1      2  -0.15013933   -13.838700    10.498300    -5.668900
     526    1      2  -0.14512533   -13.070900    11.580800    -6.448600
     527    1      3   0.07780067   -12.776500    11.383800    -7.946800
     528    1     12  -0.35497233   -12.091700    12.473500    -8.732700
     529    1      4   0.01045667   -12.821100    12.662100   -10.041700
     530    1      6  -0.18808133   -14.245800    13.213300    -9.826100
     531    1      2  -0.14512533   -13.239200    10.102500    -8.662700
     532    1      2  -0.15013933   -14.000100     9.016800    -7.881500
     533    1     10   0.10392067   -13.063800     6.545200    -4.518600
     534    1     10   0.10392067   -12.810700     7.580400    -2.995500
     535    1     10   0.10321667   -14.614300     9.177900    -3.749800
     536    1     10   0.10321667   -15.230300     7.431400    -3.583900
     537    1      9   0.17262267   -14.055700    10.639300    -4.558700
     538    1      9   0.16739167   -12.726600    12.529500    -5.918500
     539    1     10   0.09804667   -12.238900    13.404400   -10.681500
     540    1     10   0.09804667   -12.879200    11.662100   -10.586300
     541    1     10   0.11155167   -14.183800    14.223200    -9.300700
     542    1     10   0.11155167   -14.726600    13.350500   -10.849600
     543    1      9   0.16739167   -13.023500     9.962400    -9.773100
     544    1      9   0.17262267   -14.338500     8.065100    -8.409700
     545    1      6  -0.18770333   -15.113100    12.256500    -8.982000
     546    1      4  -0.02450133   -16.537700    12.805600    -8.760200
     547    1     12  -0.31219133   -17.277800    12.975800   -10.065500
     548    1      3   0.05622167   -16.596500    14.044300   -10.882500
     549    1      2  -0.15013933   -16.105900    15.333600   -10.199800
     550    1      2  -0.14512533   -15.350700    16.397300   -11.016600
     551    1      3   0.07780067   -15.079000    16.164400   -12.513500
     552    1     12  -0.35497233   -14.366900    17.213900   -13.328500
     553    1      4   0.01045667   -14.957700    17.217200   -14.718200
     554    1      6  -0.18808133   -16.397300    17.768500   -14.711300
     555    1      2  -0.14512533   -15.576100    14.878500   -13.197500
     556    1      2  -0.15013933   -16.334900    13.817300   -12.381700
     557    1     10   0.10392067   -15.175400    11.245200    -9.504300
     558    1     10   0.10392067   -14.628600    12.123000    -7.959800
     559    1     10   0.10321667   -16.478000    13.811400    -8.227000
     560    1     10   0.10321667   -17.112000    12.068700    -8.107000
     561    1      9   0.17262267   -16.294900    15.496700    -9.087800
     562    1      9   0.16739167   -14.989700    17.354800   -10.513900
     563    1     10   0.09804667   -14.320200    17.882700   -15.389200
     564    1     10   0.09804667   -14.954300    16.154100   -15.130400
     565    1     10   0.11155167   -16.383900    18.841900   -14.327400
     566    1     10   0.11155167   -16.771200    17.758800   -15.786400
     567    1      9   0.16739167   -15.385600    14.714800   -14.309400
     568    1      9   0.17262267   -16.697400    12.861800   -12.886600
     569    1      6  -0.18770333   -17.344900    16.932500   -13.824700
     570    1      4  -0.02450133   -18.779900    17.502900   -13.800600
     571    1     12  -0.31219133   -19.441900    17.461400   -15.158700
     572    1      3   0.05622167   -18.618900    18.281000   -16.117600
     573    1      2  -0.15013933   -18.154000    19.691800   -15.714400
     574    1      2  -0.14512533   -17.175400    20.464400   -16.616600
     575    1      3   0.07780067   -16.659300    19.821500   -17.916200
     576    1     12  -0.35497233   -15.659400    20.552300   -18.776100
     577    1      4   0.01045667   -15.850100    20.153600   -20.219700
     578    1      6  -0.18808133   -17.156800    20.739600   -20.787500
     579    1      2  -0.14512533   -17.175100    18.438000   -18.351000
     580    1      2  -0.15013933   -18.155800    17.666500   -17.450700
     581    1     10   0.10392067   -17.368100    15.856100   -14.199400
     582    1     10   0.10392067   -16.944400    16.948600   -12.758100
     583    1     10   0.10321667   -18.745000    18.581300   -13.432400
     584    1     10   0.10321667   -19.406600    16.882800   -13.077900
     585    1      9   0.17262267   -18.514500    20.153900   -14.736500
     586    1      9   0.16739167   -16.821700    21.505400   -16.315000
     587    1     10   0.09804667   -14.978900    20.566900   -20.827700
     588    1     10   0.09804667   -15.863600    19.016600   -20.304500
     589    1     10   0.11155167   -17.120700    21.875300   -20.695700
     590    1     10   0.11155167   -17.213800    20.452100   -21.887600
     591    1      9   0.16739167   -16.822600    17.981200   -19.334400
     592    1      9   0.17262267   -18.519600    16.630900   -17.759100
     593    1      6  -0.18770333   -18.411300    20.213800   -20.060800
     594    1      4  -0.02450133   -19.702000    20.862600   -20.607100
     595    1     12  -0.31219133   -19.914000    20.581600   -22.077100
     596    1      3   0.05622167   -18.762100    21.194600   -22.832000
     597    1      2  -0.15013933   -18.261500    22.599900   -22.450700
     598    1      2  -0.14512533   -16.963900    23.147300   -23.072000
     599    1      3   0.07780067   -16.178800    22.295600   -24.085500
     600    1     12  -0.35497233   -14.864500    22.793700   -24.634700
     601    1      4   0.01045667   -14.932200    22.951400   -26.134200
     602    1      6  -0.18808133   -15.813700    24.151000   -26.531300
     603    1      2  -0.14512533   -16.716900    20.919000   -24.516300
     604    1      2  -0.15013933   -18.011700    20.369400   -23.891600
     605    1     10   0.10392067   -18.468600    19.081700   -20.181800
     606    1     10   0.10392067   -18.329700    20.467600   -18.952800
     607    1     10   0.10321667   -19.641000    21.991000   -20.455700
     608    1     10   0.10321667   -20.592600    20.455500   -20.023500
     609    1      9   0.17262267   -18.831700    23.219300   -21.682100
     610    1      9   0.16739167   -16.577400    24.176500   -22.770500
     611    1     10   0.09804667   -13.878700    23.139700   -26.526700
     612    1     10   0.09804667   -15.342000    21.996800   -26.604600
     613    1     10   0.11155167   -15.394500    25.100200   -26.059100
     614    1     10   0.11155167   -15.799700    24.263000   -27.664300
     615    1      9   0.16739167   -16.148700    20.300600   -25.287100
     616    1      9   0.17262267   -18.396900    19.338900   -24.190300
     617    1      6  -0.18770333   -17.276900    23.966500   -26.092300
     618    1      4  -0.02450133   -17.875600    22.680700   -26.694000
     619    1     12  -0.31219133   -17.746900    22.671600   -28.198500
     620    1      3   0.05622167   -16.517700    21.879500   -28.583300
     621    1      2  -0.15013933   -15.165200    22.584600   -28.795600
     622    1      2  -0.14512533   -13.914100    21.759600   -29.147200
     623    1      3   0.07780067   -14.030600    20.238900   -29.365200
     624    1     12  -0.35497233   -12.807200    19.439400   -29.740100
     625    1      4   0.01045667   -12.478100    19.487700   -31.216800
     626    1      6  -0.18808133   -12.530100    20.927200   -31.766900
     627    1      2  -0.14512533   -15.387000    19.536600   -29.176600
     628    1      2  -0.15013933   -16.628500    20.355900   -28.779200
     629    1     10   0.10392067   -17.875700    24.864600   -26.458800
     630    1     10   0.10392067   -17.340100    23.914500   -24.956300
     631    1     10   0.10321667   -18.977200    22.632600   -26.405300
     632    1     10   0.10321667   -17.338600    21.765400   -26.279900
     633    1      9   0.17262267   -15.086000    23.715200   -28.680000
     634    1      9   0.16739167   -12.905900    22.276900   -29.271000
     635    1     10   0.09804667   -11.416100    19.088000   -31.330700
     636    1     10   0.09804667   -13.189400    18.832800   -31.821200
     637    1     10   0.11155167   -12.016500    20.939400   -32.780300
     638    1     10   0.11155167   -11.960500    21.613400   -31.057000
     639    1      9   0.16739167   -15.471900    18.410100   -29.328800
     640    1      9   0.17262267   -17.630900    19.834200   -28.629400
     641    1      6  -0.18770333   -13.989000    21.405800   -31.938400
     642    1      4  -0.02450133   -14.746600    20.558200   -32.980700
     643    1     12  -0.31219133   -14.310800    20.875400   -34.395200
     644    1      3   0.05622167   -12.814100    20.818200   -34.569000
     645    1      2  -0.15013933   -11.971600    22.093100   -34.371600
     646    1      2  -0.14512533   -10.436800    22.024300   -34.475100
     647    1      3   0.07780067    -9.749600    20.690400   -34.821500
     648    1     12  -0.35497233    -8.243300    20.613800   -34.901000
     649    1      4   0.01045667    -7.762600    19.180200   -34.904700
     650    1      6  -0.18808133    -7.889400    18.505000   -33.523800
     651    1      2  -0.14512533   -10.597700    19.434900   -35.090600
     652    1      2  -0.15013933   -12.129500    19.494000   -34.950400
     653    1     10   0.10392067   -14.016900    22.498300   -32.262500
     654    1     10   0.10392067   -14.532900    21.302000   -30.945800
     655    1     10   0.10321667   -15.856500    20.809100   -32.912700
     656    1     10   0.10321667   -14.598500    19.452700   -32.744100
     657    1      9   0.17262267   -12.482800    23.080900   -34.121000
     658    1      9   0.16739167    -9.810700    22.959700   -34.294000
     659    1     10   0.09804667    -8.358200    18.588800   -35.676100
     660    1     10   0.09804667    -6.661000    19.172200   -35.198200
     661    1     10   0.11155167    -7.272500    19.083800   -32.759400
     662    1     10   0.11155167    -7.479600    17.446100   -33.613300
     663    1      9   0.16739167   -10.087800    18.453500   -35.368300
     664    1      9   0.17262267   -12.754500    18.556100   -35.122500
     665    1      6  -0.18770333    -9.354400    18.440800   -33.052800
     666    1      4  -0.02450133    -9.486000    17.733800   -31.689200
     667    1     12  -0.31219133    -9.029300    16.294000   -31.765400
     668    1      3   0.05622167    -7.541600    16.222200   -32.013600
     669    1      2  -0.15013933    -6.579100    17.037700   -31.132400
     670    1      2  -0.14512533    -5.064500    16.994800   -31.403200
     671    1      3   0.07780067    -4.512700    16.150500   -32.566700
     672    1     12  -0.35497233    -3.031800    16.161700   -32.864100
     673    1      4   0.01045667    -2.589500    15.007400   -33.733000
     674    1      6  -0.18808133    -2.557500    13.675200   -32.958100
     675    1      2  -0.14512533    -5.473100    15.320700   -33.438100
     676    1      2  -0.15013933    -6.988500    15.358400   -33.162700
     677    1     10   0.10392067    -9.971300    17.871300   -33.823800
     678    1     10   0.10392067    -9.757100    19.503300   -32.960400
     679    1     10   0.10321667    -8.867600    18.287900   -30.908000
     680    1     10   0.10321667   -10.583800    17.753000   -31.381100
     681    1      9   0.17262267    -6.988300    17.677000   -30.282100
     682    1      9   0.16739167    -4.351000    17.599400   -30.751400
     683    1     10   0.09804667    -1.529200    15.226600   -34.089700
     684    1     10   0.09804667    -3.277600    14.918800   -34.637700
     685    1     10   0.11155167    -1.875400    13.784700   -32.051200
     686    1     10   0.11155167    -2.137800    12.873400   -33.649300
     687    1      9   0.16739167    -5.062700    14.682700   -34.288900
     688    1      9   0.17262267    -7.701700    14.751500   -33.812600
     689    1      6  -0.19202117    -3.962600    13.242700   -32.499500
     690    1      4  -0.03521117    -3.902200    11.922300   -31.702500
     691    1     12  -0.32801917    -3.298200    10.794200   -32.509600
     692    1      3   0.06500483    -1.831100    11.069300   -32.740700
     693    1      2  -0.14963617    -0.928800    11.451800   -31.553400
     694    1      2  -0.14801917     0.533300    11.867400   -31.799800
     695    1      3   0.05687383     1.087200    11.915700   -33.236100
     696    1     12  -0.32459117     2.427400    12.557700   -33.503400
     697    1      4  -0.01582917     3.662700    11.692700   -33.400200
     698    1      6  -0.19070817     3.810200    11.045400   -32.011000
     699    1      2  -0.14801917     0.211800    11.447100   -34.413600
     700    1      2  -0.14963617    -1.248600    11.022300   -34.166100
     701    1     10   0.10640183    -4.625300    13.104000   -33.416700
     702    1     10   0.10640183    -4.408000    14.055000   -31.835200
     703    1     10   0.11512183    -3.273800    12.076000   -30.763800
     704    1     10   0.11512183    -4.962900    11.634800   -31.399300
     705    1      9   0.16885483    -1.350900    11.450800   -30.494400
     706    1      9   0.16901983     1.195500    12.171300   -30.922700
     707    1     10   0.10047083     4.552400    12.388300   -33.555800
     708    1     10   0.10047083     3.677400    10.887800   -34.207400
     709    1     10   0.12003683     3.641300    11.840200   -31.214000
     710    1     10   0.12003683     4.875100    10.649900   -31.915400
     711    1      9   0.16901983     0.633000    11.447500   -35.473000
     712    1      9   0.16885483    -1.904400    10.699700   -35.041100
     713    1      6  -0.19202117     1.068400     7.799100   -30.629700
     714    1      4  -0.03521117     0.467700     6.382800   -30.524200
     715    1     12  -0.32801917     1.063100     5.429100   -31.535300
     716    1      3   0.06500483     2.401900     4.880400   -31.095900
     717    1      2  -0.14963617     2.938700     5.183500   -29.684400
     718    1      2  -0.14801917     4.280400     4.582100   -29.223500
     719    1      3   0.05687383     5.088700     3.680500   -30.175200
     720    1     12  -0.32459117     6.405700     3.093000   -29.725300
     721    1      4  -0.01582917     6.641900     1.729400   -30.333600
     722    1      6  -0.19070817     5.706200     0.664200   -29.728000
     723    1      2  -0.14801917     4.549100     3.370800   -31.583500
     724    1      2  -0.14963617     3.209400     3.974900   -32.046000
     725    1     10   0.10640183     0.871700     8.220500   -31.670600
     726    1     10   0.10640183     0.575000     8.471700   -29.852300
     727    1     10   0.11512183     0.631200     5.965600   -29.475900
     728    1     10   0.11512183    -0.651800     6.466000   -30.723300
     729    1      9   0.16885483     2.341700     5.854300   -28.981700
     730    1      9   0.16901983     4.675100     4.806600   -28.177900
     731    1     10   0.10047083     6.482800     1.786900   -31.461000
     732    1     10   0.10047083     7.718400     1.419300   -30.122800
     733    1     10   0.12003683     5.877700     0.604200   -28.602500
     734    1     10   0.12003683     5.943500    -0.346700   -30.198100
     735    1      9   0.16901983     5.141800     2.694200   -32.283900
     736    1      9   0.16885483     2.811700     3.746100   -33.089600
     737    1      6  -0.18770333     4.231500     1.010800   -30.000400
     738    1      4  -0.02450133     3.292900    -0.052300   -29.396200
     739    1     12  -0.31219133     3.528500    -1.418600   -29.999500
     740    1      3   0.05622167     4.820700    -2.025100   -29.506000
     741    1      2  -0.15013933     5.412400    -1.582800   -28.154900
     742    1      2  -0.14512533     6.722000    -2.213200   -27.644100
     743    1      3   0.07780067     7.444100    -3.280000   -28.489300
     744    1     12  -0.35497233     8.720400    -3.909800   -27.983700
     745    1      4   0.01045667     8.805900    -5.365700   -28.380000
     746    1      6  -0.18808133     7.761300    -6.217400   -27.631600
     747    1      2  -0.14512533     6.853700    -3.720100   -29.841700
     748    1      2  -0.15013933     5.545600    -3.087800   -30.352900
     749    1     10   0.10392067     4.061200     1.070500   -31.126100
     750    1     10   0.10392067     3.992400     2.021100   -29.530100
     751    1     10   0.10321667     2.218200     0.259000   -29.614100
     752    1     10   0.10321667     3.446700    -0.109000   -28.267800
     753    1      9   0.17262267     4.881900    -0.788100   -27.533100
     754    1      9   0.16739167     7.158700    -1.888700   -26.641900
     755    1     10   0.09804667     8.650300    -5.463300   -29.505300
     756    1     10   0.09804667     9.843300    -5.753500   -28.109900
     757    1     10   0.11155167     7.926900    -6.117700   -26.508000
     758    1     10   0.11155167     7.895000    -7.307600   -27.935800
     759    1      9   0.16739167     7.385400    -4.515000   -30.462700
     760    1      9   0.17262267     5.111400    -3.410700   -31.356300
     761    1      6  -0.18770333     6.326600    -5.775800   -27.977800
     762    1      4  -0.02450133     5.282700    -6.634000   -27.235300
     763    1     12  -0.31219133     5.400900    -8.093900   -27.605400
     764    1      3   0.05622167     6.652100    -8.686400   -27.003300
     765    1      2  -0.15013933     7.210400    -8.122600   -25.683700
     766    1      2  -0.14512533     8.485900    -8.725900   -25.066600
     767    1      3   0.07780067     9.204600    -9.890700   -25.772900
     768    1     12  -0.35497233    10.428700   -10.514100   -25.147900
     769    1      4   0.01045667    10.370700   -12.019000   -25.272000
     770    1      6  -0.18808133     9.221700   -12.615800   -24.434800
     771    1      2  -0.14512533     8.650600   -10.449400   -27.096600
     772    1      2  -0.15013933     7.377700    -9.843400   -27.715100
     773    1     10   0.10392067     6.165900    -5.878700   -29.101600
     774    1     10   0.10392067     6.183800    -4.686300   -27.675400
     775    1     10   0.10321667     4.244100    -6.265100   -27.526400
     776    1     10   0.10321667     5.420100    -6.521600   -26.109100
     777    1      9   0.17262267     6.680300    -7.256800   -25.165000
     778    1      9   0.16739167     8.897000    -8.311800   -24.087100
     779    1     10   0.09804667    10.229800   -12.300800   -26.367600
     780    1     10   0.09804667    11.355200   -12.453500   -24.896000
     781    1     10   0.11155167     9.368800   -12.340300   -23.338500
     782    1     10   0.11155167     9.247200   -13.749900   -24.544600
     783    1      9   0.16739167     9.182200   -11.314700   -27.615000
     784    1      9   0.17262267     6.968900   -10.255700   -28.696000
     785    1      6  -0.18770333     7.850900   -12.097300   -24.911700
     786    1      4  -0.02450133     6.700100   -12.707100   -24.086800
     787    1     12  -0.31219133     6.664100   -14.211700   -24.212900
     788    1      3   0.05622167     7.839400   -14.814200   -23.483100
     789    1      2  -0.15013933     8.401700   -14.119700   -22.229300
     790    1      2  -0.14512533     9.598300   -14.733900   -21.479900
     791    1      3   0.07780067    10.235600   -16.038900   -21.989500
     792    1     12  -0.35497233    11.364600   -16.678900   -21.220600
     793    1      4   0.01045667    11.141200   -18.171100   -21.140800
     794    1      6  -0.18808133     9.890500   -18.522200   -20.309200
     795    1      2  -0.14512533     9.685400   -16.723300   -23.254000
     796    1      2  -0.15013933     8.490400   -16.107900   -24.004400
     797    1     10   0.10392067     7.711400   -12.365500   -26.010800
     798    1     10   0.10392067     7.814800   -10.964800   -24.792700
     799    1     10   0.10321667     5.716100   -12.283500   -24.476400
     800    1     10   0.10321667     6.822200   -12.425900   -22.988700
     801    1      9   0.17262267     7.931000   -13.150900   -21.856300
     802    1      9   0.16739167    10.008300   -14.225200   -20.545700
     803    1     10   0.09804667    11.024900   -18.588900   -22.195100
     804    1     10   0.09804667    12.051400   -18.647400   -20.646400
     805    1     10   0.11155167    10.012600   -18.109700   -19.253500
     806    1     10   0.11155167     9.802500   -19.657400   -20.260900
     807    1      9   0.16739167    10.156900   -17.691400   -23.628000
     808    1      9   0.17262267     8.083300   -16.614200   -24.941100
     809    1      6  -0.18770333     8.605600   -17.946000   -20.937300
     810    1      4  -0.02450133     7.353800   -18.300700   -20.109500
     811    1     12  -0.31219133     7.150500   -19.795200   -20.021000
     812    1      3   0.05622167     8.245100   -20.397700   -19.176100
     813    1      2  -0.15013933     8.831300   -19.596700   -17.999300
     814    1      2  -0.14512533     9.984700   -20.184900   -17.166800
     815    1      3   0.07780067    10.551600   -21.573800   -17.513100
     816    1     12  -0.35497233    11.669400   -22.158700   -16.686700
     817    1      4   0.01045667    11.356700   -23.589900   -16.317500
     818    1      6  -0.18808133    10.130500   -23.680300   -15.387600
     819    1      2  -0.14512533     9.954100   -22.382100   -18.679700
     820    1      2  -0.15013933     8.804200   -21.791100   -19.516000
     821    1     10   0.10392067     8.487000   -18.359200   -21.993300
     822    1     10   0.10392067     8.687800   -16.810800   -20.985100
     823    1     10   0.10321667     6.443800   -17.837800   -20.616300
     824    1     10   0.10321667     7.456000   -17.874100   -19.057000
     825    1      9   0.17262267     8.418500   -18.562800   -17.753200
     826    1      9   0.16739167    10.420700   -19.590800   -16.297000
     827    1     10   0.09804667    11.167100   -24.196000   -17.264300
     828    1     10   0.09804667    12.257500   -24.022000   -15.768700
     829    1     10   0.11155167    10.323500   -23.060300   -14.450500
     830    1     10   0.11155167     9.996800   -24.772700   -15.094200
     831    1      9   0.16739167    10.364600   -23.417100   -18.924400
     832    1      9   0.17262267     8.370000   -22.384000   -20.387500
     833    1      6  -0.18770333     8.838700   -23.191300   -16.073100
     834    1      4  -0.02450133     7.626200   -23.270000   -15.121000
     835    1     12  -0.31219133     7.389000   -24.678500   -14.627900
     836    1      3   0.05622167     8.548400   -25.064900   -13.743600
     837    1      2  -0.15013933     9.140700   -24.029800   -12.770500
     838    1      2  -0.14512533    10.402100   -24.371100   -11.957800
     839    1      3   0.07780067    11.074000   -25.746100   -12.125000
     840    1     12  -0.35497233    12.338600   -26.066300   -11.367000
     841    1      4   0.01045667    12.419100   -27.548400   -11.090600
     842    1      6  -0.18808133    11.395600   -27.965800   -10.017400
     843    1      2  -0.14512533    10.453800   -26.799300   -13.061000
     844    1      2  -0.15013933     9.191300   -26.458100   -13.873500
     845    1     10   0.10392067     8.640100   -23.834800   -16.992900
     846    1     10   0.10392067     8.965700   -22.105900   -16.394800
     847    1     10   0.10321667     6.700200   -22.910900   -15.680600
     848    1     10   0.10321667     7.807000   -22.592300   -14.222000
     849    1      9   0.17262267     8.655700   -23.003700   -12.666700
     850    1      9   0.16739167    10.847300   -23.601800   -11.243900
     851    1     10   0.09804667    12.233400   -28.128100   -12.054700
     852    1     10   0.09804667    13.462900   -27.790100   -10.701100
     853    1     10   0.11155167    11.526400   -29.080200    -9.821600
     854    1     10   0.11155167    11.606100   -27.387000    -9.058100
     855    1      9   0.16739167    10.935400   -27.828200   -13.157600
     856    1      9   0.17262267     8.742300   -27.230800   -14.580800
     857    1      6  -0.18676121     9.944500   -27.693700   -10.462600
     858    1      4  -0.02900421     8.935300   -28.081200    -9.361300
     859    1     12  -0.31231621     9.011000   -29.551100    -9.019500
     860    1      3   0.06835579    10.362600   -29.849900    -8.419600
     861    1      2  -0.16285821    10.967200   -28.892800    -7.375000
     862    1      2  -0.12557921    12.390500   -29.136700    -6.839600
     863    1      3   0.04077879    13.210400   -30.333900    -7.353900
     864    1     12  -0.34806221    14.612500   -30.566100    -6.846200
     865    1      4  -0.00581521    14.913600   -32.045900    -6.820700
     866    1      6  -0.19565221    14.112100   -32.755200    -5.711400
     867    1      2  -0.12557921    12.593300   -31.309200    -8.373400
     868    1      2  -0.16285821    11.169100   -31.067400    -8.906500
     869    1     10   0.11840979     9.724700   -28.289300   -11.409300
     870    1     10   0.11840979     9.827200   -26.581700   -10.683700
     871    1     10   0.09869879     7.883300   -27.844700    -9.731500
     872    1     10   0.09869879     9.147200   -27.469600    -8.422700
     873    1      9   0.17224679    10.366200   -27.995800    -7.009000
     874    1      9   0.16717679    12.839200   -28.426500    -6.069000
     875    1     10   0.09878479    16.024700   -32.190700    -6.611200
     876    1     10   0.09878479    14.658900   -32.500600    -7.834900
     877    1     10   0.11735879    14.387900   -32.304500    -4.701000
     878    1     10   0.11735879    14.379700   -33.863100    -5.713400
     879    1      9   0.16717679    13.192100   -32.209000    -8.736000
     880    1      9   0.17224679    10.717500   -31.781700    -9.671700
     881    1      7  -0.13155491    22.695200     8.561000    14.369500
     882    1      6  -0.17654891    22.801700     7.080800    14.780200
     883    1      6  -0.18303591    23.708200     9.457200    15.111500
     884    1      6  -0.20229791    21.262700     8.988600    14.737600
     885    1     10   0.10057509    22.852700     8.685700    13.247400
     886    1     10   0.09160209    22.051000     6.470600    14.177300
     887    1     10   0.09160209    23.850000     6.681100    14.590500
     888    1     10   0.10167709    23.439400    10.539600    14.873600
     889    1     10   0.10167709    23.617400     9.291500    16.235800
     890    1     10   0.10315209    20.522300     8.368900    14.131400
     891    1     10   0.10315209    21.090400     8.793800    15.847700
     892    1      7  -0.13155491   -14.436600     1.034900     2.785700
     893    1      6  -0.17654891   -13.227900     0.122300     3.067700
     894    1      6  -0.18303591   -15.297300     1.312400     4.037800
     895    1      6  -0.20229791   -13.841800     2.295800     2.127300
     896    1     10   0.10057509   -15.101000     0.493100     2.034200
     897    1     10   0.09160209   -13.564900    -0.858800     3.540700
     898    1     10   0.09160209   -12.740300    -0.100300     2.061600
     899    1     10   0.10167709   -14.736900     1.941500     4.805900
     900    1     10   0.10167709   -15.577600     0.308000     4.498600
     901    1     10   0.10315209   -13.137400     2.809200     2.862400
     902    1     10   0.10315209   -13.241400     1.955700     1.220000
     903    1      7  -0.13155491     3.141100     9.207700   -30.445600
     904    1      6  -0.17654891     2.881200     9.827900   -31.833600
     905    1      6  -0.18303591     2.451100    10.028200   -29.337000
     906    1      6  -0.20229791     2.584100     7.773600   -30.376800
     907    1     10   0.10057509     4.266800     9.164200   -30.270700
     908    1     10   0.09160209     1.779300    10.093000   -31.955600
     909    1     10   0.09160209     3.179100     9.071100   -32.632400
     910    1     10   0.10167709     2.719300     9.581500   -28.323000
     911    1     10   0.10167709     1.322400     9.967200   -29.486900
     912    1     10   0.10315209     2.788000     7.340100   -29.342300
     913    1     10   0.10315209     3.088300     7.123700   -31.166200
     914    1      6  -0.19033915    25.166900     9.239900    14.648200
     915    1      5  -0.00676815    25.725000     7.839700    14.965000
     916    1     13  -0.40011215    27.164700     7.697100    14.513600
     917    1      5  -0.00736315    28.036800     8.818100    15.033900
     918    1      6  -0.18369015    27.869500    10.071400    14.153600
     919    1     10   0.10944385    25.824300    10.003500    15.181500
     920    1     10   0.10944385    25.229900     9.421800    13.524700
     921    1     10   0.08347985    25.103200     7.047300    14.435100
     922    1     10   0.08347985    25.671200     7.672900    16.091400
     923    1     10   0.08394385    27.738700     9.048500    16.109900
     924    1     10   0.08394385    29.132000     8.503200    15.001200
     925    1     10   0.11726885    28.463900    10.939700    14.591800
     926    1     10   0.11726885    26.767100    10.355000    14.113800
     927    1      6  -0.21382885    28.386400     9.787200    12.729000
     928    1      5  -0.01507585    29.917600     9.592700    12.732600
     929    1     13  -0.38303285    30.394100     9.405000    11.309100
     930    1      5  -0.01663585    31.739200    10.061700    11.089600
     931    1      6  -0.18091585    31.996300    10.123500     9.571100
     932    1     10   0.10214115    28.151600    10.689200    12.072300
     933    1     10   0.10214115    27.865100     8.866300    12.305200
     934    1     10   0.10208415    30.220000     8.702900    13.378100
     935    1     10   0.10208415    30.388700    10.543200    13.149500
     936    1     10   0.08258715    31.660800    11.130800    11.477600
     937    1     10   0.08258715    32.581000     9.518800    11.634100
     938    1     10   0.11793215    32.874800    10.812500     9.340100
     939    1     10   0.11793215    31.053600    10.550200     9.092500
     940    1      6  -0.21382885    32.303600     8.743400     8.956700
     941    1      5  -0.01507585    33.758900     8.339100     9.270400
     942    1     13  -0.38303285    34.589900     9.465600     8.702200
     943    1      5  -0.01663585    36.056400     9.238400     8.406300
     944    1      6  -0.18091585    36.232800     8.167500     7.311400
     945    1     10   0.10214115    32.233900     8.841600     7.823200
     946    1     10   0.10214115    31.550500     7.965900     9.314700
     947    1     10   0.10208415    33.997100     7.361600     8.735200
     948    1     10   0.10208415    33.934000     8.230400    10.391500
     949    1     10   0.08258715    36.445700    10.225000     7.988200
     950    1     10   0.08258715    36.653400     8.965300     9.338400
     951    1     10   0.11793215    37.280600     8.255100     6.871100
     952    1     10   0.11793215    35.464700     8.350700     6.489300
     953    1      6  -0.21382885    36.117000     6.743900     7.886500
     954    1      5  -0.01507585    37.347500     6.565700     8.795900
     955    1     13  -0.38303285    38.548700     6.856700     7.924100
     956    1      5  -0.01663585    39.857600     6.913600     8.676600
     957    1      6  -0.18091585    40.860200     7.642200     7.761000
     958    1     10   0.10214115    36.181900     5.989300     7.034400
     959    1     10   0.10214115    35.140600     6.602500     8.456500
     960    1     10   0.10208415    37.393200     5.508300     9.219300
     961    1     10   0.10208415    37.300500     7.325100     9.645100
     962    1     10   0.08258715    39.711800     7.534800     9.621100
     963    1     10   0.08258715    40.226800     5.870500     8.951600
     964    1     10   0.11793215    41.845100     7.828800     8.304100
     965    1     10   0.11793215    40.391900     8.643200     7.481300
     966    1      6  -0.21382885    41.138000     6.847700     6.470000
     967    1      5  -0.01507585    42.043000     5.632900     6.754200
     968    1     13  -0.38303285    43.319500     6.206900     7.323400
     969    1      5  -0.01663585    44.528500     5.302100     7.413100
     970    1      6  -0.18091585    45.047300     4.903000     6.017100
     971    1     10   0.10214115    41.707800     7.522600     5.749600
     972    1     10   0.10214115    40.154000     6.530400     5.989300
     973    1     10   0.10208415    42.255500     5.101700     5.769800
     974    1     10   0.10208415    41.555200     4.915100     7.493300
     975    1     10   0.08258715    45.347600     5.911200     7.920400
     976    1     10   0.08258715    44.313300     4.373100     8.037900
     977    1     10   0.11793215    46.085200     4.444700     6.128800
     978    1     10   0.11793215    45.117600     5.834900     5.364300
     979    1      6  -0.21330231    44.156700     3.834000     5.359400
     980    1      5  -0.02540231    44.261200     2.579800     6.245600
     981    1     13  -0.37485131    45.726500     2.219600     6.324100
     982    1      5  -0.01703231    45.966900     1.021000     7.210700
     983    1      6  -0.19278931    47.486900     0.801500     7.324500
     984    1     10   0.10336369    44.565000     3.589000     4.323500
     985    1     10   0.10336369    43.077300     4.184600     5.272000
     986    1     10   0.10328069    43.663900     1.721800     5.791100
     987    1     10   0.10328069    43.868300     2.819100     7.288700
     988    1     10   0.08599469    45.534300     1.219300     8.246600
     989    1     10   0.08599469    45.474100     0.098500     6.756800
     990    1     10   0.11904969    47.699600    -0.095200     7.995400
     991    1     10   0.11904969    47.969500     1.733800     7.769000
     992    1      6  -0.19033915   -16.601300     1.990800     3.570000
     993    1      5  -0.00676815   -17.683600     2.108000     4.662800
     994    1     13  -0.40011215   -17.344300     3.060100     5.785300
     995    1      5  -0.00736315   -18.598700     3.181800     6.622700
     996    1      6  -0.18369015   -18.484000     4.303900     7.672200
     997    1     10   0.10944385   -17.036900     1.334500     2.746100
     998    1     10   0.10944385   -16.383200     3.022000     3.140600
     999    1     10   0.08347985   -17.903000     1.075100     5.092500
    1000    1     10   0.08347985   -18.628600     2.504800     4.163900
    1001    1     10   0.08394385   -18.812600     2.189400     7.141500
    1002    1     10   0.08394385   -19.467200     3.435300     5.929200
    1003    1     10   0.11726885   -17.639000     4.072200     8.401200
    1004    1     10   0.11726885   -18.270000     5.289400     7.140300
    1005    1      6  -0.21382885   -19.822800     4.419400     8.429500
    1006    1      5  -0.01507585   -20.119700     3.110000     9.185400
    1007    1     13  -0.38303285   -21.449500     3.184400     9.903300
    1008    1      5  -0.01663585   -21.577200     1.938900    10.749500
    1009    1      6  -0.18091585   -22.952100     1.795200    11.433900
    1010    1     10   0.10214115   -20.657000     4.624500     7.680000
    1011    1     10   0.10214115   -19.765900     5.278200     9.177100
    1012    1     10   0.10208415   -20.143700     2.241700     8.446700
    1013    1     10   0.10208415   -19.291300     2.931300     9.947800
    1014    1     10   0.08258715   -20.765800     1.962500    11.549800
    1015    1     10   0.08258715   -21.411900     1.028800    10.083200
    1016    1     10   0.11793215   -22.931100     0.836700    12.050500
    1017    1     10   0.11793215   -23.159800     2.680700    12.120400
    1018    1      6  -0.21382885   -24.063300     1.662800    10.375400
    1019    1      5  -0.01507585   -25.397600     1.225600    11.017700
    1020    1     13  -0.38303285   -26.016000     2.209000    11.986300
    1021    1      5  -0.01663585   -25.062200     2.645200    13.071300
    1022    1      6  -0.18091585   -25.855700     3.279700    14.232000
    1023    1     10   0.10214115   -23.754500     0.839100     9.650500
    1024    1     10   0.10214115   -24.182800     2.640500     9.801600
    1025    1     10   0.10208415   -26.153300     1.038700    10.185000
    1026    1     10   0.10208415   -25.215200     0.245200    11.570200
    1027    1     10   0.08258715   -24.332000     3.402900    12.632800
    1028    1     10   0.08258715   -24.482100     1.747400    13.467100
    1029    1     10   0.11793215   -25.122100     3.685400    15.004600
    1030    1     10   0.11793215   -26.508800     4.130400    13.845200
    1031    1      6  -0.21382885   -26.718000     2.193500    14.906900
    1032    1      5  -0.01507585   -27.477300     2.772600    16.117800
    1033    1     13  -0.38303285   -28.532800     3.760500    15.680600
    1034    1      5  -0.01663585   -29.060600     4.514300    16.880800
    1035    1      6  -0.18091585   -30.308500     5.319500    16.472500
    1036    1     10   0.10214115   -27.456000     1.748200    14.161000
    1037    1     10   0.10214115   -26.017600     1.373900    15.277600
    1038    1     10   0.10208415   -27.994800     1.926500    16.680100
    1039    1     10   0.10208415   -26.730200     3.281900    16.811800
    1040    1     10   0.08258715   -28.246100     5.225200    17.242500
    1041    1     10   0.08258715   -29.338800     3.793400    17.719300
    1042    1     10   0.11793215   -30.637700     5.992700    17.331600
    1043    1     10   0.11793215   -30.060400     5.957700    15.561000
    1044    1      6  -0.21382885   -31.454000     4.340100    16.157700
    1045    1      5  -0.01507585   -31.835500     3.615800    17.464200
    1046    1     13  -0.38303285   -32.283100     4.671800    18.448400
    1047    1      5  -0.01663585   -32.694200     4.118900    19.794500
    1048    1      6  -0.18091585   -33.100600     5.326000    20.661300
    1049    1     10   0.10214115   -31.120900     3.593200    15.363400
    1050    1     10   0.10214115   -32.360500     4.920800    15.782500
    1051    1     10   0.10208415   -30.930500     3.056300    17.873800
    1052    1     10   0.10208415   -32.687600     2.884300    17.268100
    1053    1     10   0.08258715   -31.816400     3.573000    20.275100
    1054    1     10   0.08258715   -33.578300     3.408200    19.678100
    1055    1     10   0.11793215   -33.402300     4.994100    21.707900
    1056    1     10   0.11793215   -32.212300     6.037300    20.726400
    1057    1      6  -0.21382885   -34.267100     6.029600    19.941800
    1058    1      5  -0.01507585   -35.528600     5.144100    19.945000
    1059    1     13  -0.38303285   -36.213300     5.180900    21.294000
    1060    1      5  -0.01663585   -35.356100     4.814700    22.482100
    1061    1      6  -0.18091585   -36.166300     5.147700    23.749400
    1062    1     10   0.10214115   -33.932500     6.210500    18.867200
    1063    1     10   0.10214115   -34.515900     7.027700    20.433300
    1064    1     10   0.10208415   -35.254300     4.081200    19.637400
    1065    1     10   0.10208415   -36.269700     5.573300    19.192500
    1066    1     10   0.08258715   -35.084800     3.707900    22.454300
    1067    1     10   0.08258715   -34.411900     5.452200    22.479000
    1068    1     10   0.11793215   -35.544300     4.927600    24.676900
    1069    1     10   0.11793215   -36.427100     6.257300    23.727800
    1070    1      6  -0.21330231   -37.471500     4.327600    23.758200
    1071    1      5  -0.02540231   -37.167900     2.820700    23.853600
    1072    1     13  -0.37485131   -36.698800     2.394400    25.229200
    1073    1      5  -0.01703231   -35.732300     3.334200    25.909700
    1074    1      6  -0.19278931   -36.496700     4.550100    26.470800
    1075    1     10   0.10336369   -38.012000     4.539600    22.777200
    1076    1     10   0.10336369   -38.137000     4.632200    24.632400
    1077    1     10   0.10328069   -36.383300     2.560500    23.068400
    1078    1     10   0.10328069   -38.122100     2.237200    23.632000
    1079    1     10   0.08599469   -35.242000     2.791100    26.784200
    1080    1     10   0.08599469   -34.930700     3.670600    25.172100
    1081    1     10   0.11904969   -35.768500     5.243900    27.007400
    1082    1     10   0.11904969   -37.008900     5.118300    25.626900
    1083    1      6  -0.19142985     2.863200    11.510100   -29.376900
    1084    1      5  -0.01884685     4.387300    11.654700   -29.216000
    1085    1     13  -0.38136285     4.732300    13.122800   -29.296900
    1086    1      5  -0.01357085     6.221900    13.324500   -29.161500
    1087    1      6  -0.19213485     6.530200    14.828000   -29.283000
    1088    1     10   0.11846915     2.546600    11.952300   -30.378800
    1089    1     10   0.11846915     2.336300    12.071800   -28.536400
    1090    1     10   0.08178015     4.911200    11.092000   -30.057800
    1091    1     10   0.08178015     4.713700    11.232000   -28.208900
    1092    1     10   0.08517115     6.568500    12.946100   -28.143300
    1093    1     10   0.08517115     6.763000    12.755400   -29.987700
    1094    1     10   0.11325215     7.652000    15.000100   -29.175800
    1095    1     10   0.11325215     6.179100    15.210300   -30.297900

Bonds

       1      2        1        2
       2      1        2        3
       3     15        3        4
       4     18        3        5
       5     18        3        6
       6     16        4        7
       7     16        4        8
       8     13        4       41
       9      2        9       10
      10      1       10       11
      11     15       11       12
      12     18       11       13
      13     18       11       14
      14     16       12       15
      15     16       12       16
      16     13       12      983
      17      2       17       18
      18      1       18       19
      19     15       19       20
      20     18       19       21
      21     18       19       22
      22     16       20       23
      23     16       20       24
      24     13       20     1074
      25      2       25       26
      26      1       26       27
      27     15       27       28
      28     18       27       29
      29     18       27       30
      30     16       28       31
      31     16       28       32
      32     13       28     1087
      33      2       33       34
      34      1       34       35
      35     15       35       36
      36     18       35       37
      37     18       35       38
      38     16       36       39
      39     16       36       40
      40     13       36      866
      41      7       41       42
      42     16       41       53
      43     16       41       54
      44      9       42       43
      45      8       42       55
      46      8       42       56
      47      6       43       44
      48      4       44       45
      49      3       45       46
      50      5       45       57
      51      4       46       47
      52      5       46       58
      53      6       47       48
      54      4       47       51
      55      9       48       49
      56      7       49       50
      57      8       49       59
      58      8       49       60
      59     16       50       61
      60     16       50       62
      61     13       50       65
      62      3       51       52
      63      5       51       63
      64      4       52       44
      65      5       52       64
      66      7       65       66
      67     16       65       77
      68     16       65       78
      69      9       66       67
      70      8       66       79
      71      8       66       80
      72      6       67       68
      73      4       68       69
      74      3       69       70
      75      5       69       81
      76      4       70       71
      77      5       70       82
      78      6       71       72
      79      4       71       75
      80      9       72       73
      81      7       73       74
      82      8       73       83
      83      8       73       84
      84     16       74       85
      85     16       74       86
      86     13       74       89
      87      3       75       76
      88      5       75       87
      89      4       76       68
      90      5       76       88
      91      7       89       90
      92     16       89      101
      93     16       89      102
      94      9       90       91
      95      8       90      103
      96      8       90      104
      97      6       91       92
      98      4       92       93
      99      3       93       94
     100      5       93      105
     101      4       94       95
     102      5       94      106
     103      6       95       96
     104      4       95       99
     105      9       96       97
     106      7       97       98
     107      8       97      107
     108      8       97      108
     109     16       98      109
     110     16       98      110
     111     13       98      113
     112      3       99      100
     113      5       99      111
     114      4      100       92
     115      5      100      112
     116      7      113      114
     117     16      113      125
     118     16      113      126
     119      9      114      115
     120      8      114      127
     121      8      114      128
     122      6      115      116
     123      4      116      117
     124      3      117      118
     125      5      117      129
     126      4      118      119
     127      5      118      130
     128      6      119      120
     129      4      119      123
     130      9      120      121
     131      7      121      122
     132      8      121      131
     133      8      121      132
     134     16      122      133
     135     16      122      134
     136     13      122      137
     137      3      123      124
     138      5      123      135
     139      4      124      116
     140      5      124      136
     141      7      137      138
     142     16      137      149
     143     16      137      150
     144      9      138      139
     145      8      138      151
     146      8      138      152
     147      6      139      140
     148      4      140      141
     149      3      141      142
     150      5      141      153
     151      4      142      143
     152      5      142      154
     153      6      143      144
     154      4      143      147
     155      9      144      145
     156      7      145      146
     157      8      145      155
     158      8      145      156
     159     16      146      157
     160     16      146      158
     161     13      146      161
     162      3      147      148
     163      5      147      159
     164      4      148      140
     165      5      148      160
     166      7      161      162
     167     16      161      173
     168     16      161      174
     169      9      162      163
     170      8      162      175
     171      8      162      176
     172      6      163      164
     173      4      164      165
     174      3      165      166
     175      5      165      177
     176      4      166      167
     177      5      166      178
     178      6      167      168
     179      4      167      171
     180      9      168      169
     181      7      169      170
     182      8      169      179
     183      8      169      180
     184     16      170      181
     185     16      170      182
     186     13      170      185
     187      3      171      172
     188      5      171      183
     189      4      172      164
     190      5      172      184
     191      7      185      186
     192     16      185      197
     193     16      185      198
     194      9      186      187
     195      8      186      199
     196      8      186      200
     197      6      187      188
     198      4      188      189
     199      3      189      190
     200      5      189      201
     201      4      190      191
     202      5      190      202
     203      6      191      192
     204      4      191      195
     205      9      192      193
     206      7      193      194
     207      8      193      203
     208      8      193      204
     209     16      194      205
     210     16      194      206
     211     13      194      209
     212      3      195      196
     213      5      195      207
     214      4      196      188
     215      5      196      208
     216      7      209      210
     217     16      209      221
     218     16      209      222
     219      9      210      211
     220      8      210      223
     221      8      210      224
     222      6      211      212
     223      4      212      213
     224      3      213      214
     225      5      213      225
     226      4      214      215
     227      5      214      226
     228      6      215      216
     229      4      215      219
     230      9      216      217
     231      7      217      218
     232      8      217      227
     233      8      217      228
     234     16      218      229
     235     16      218      230
     236     13      218      233
     237      3      219      220
     238      5      219      231
     239      4      220      212
     240      5      220      232
     241      7      233      234
     242     16      233      245
     243     16      233      246
     244      9      234      235
     245      8      234      247
     246      8      234      248
     247      6      235      236
     248      4      236      237
     249      3      237      238
     250      5      237      249
     251      4      238      239
     252      5      238      250
     253      6      239      240
     254      4      239      243
     255      9      240      241
     256      7      241      242
     257      8      241      251
     258      8      241      252
     259     16      242      253
     260     16      242      254
     261     13      242      257
     262      3      243      244
     263      5      243      255
     264      4      244      236
     265      5      244      256
     266      7      257      258
     267     16      257      269
     268     16      257      270
     269      9      258      259
     270      8      258      271
     271      8      258      272
     272      6      259      260
     273      4      260      261
     274      3      261      262
     275      5      261      273
     276      4      262      263
     277      5      262      274
     278      6      263      264
     279      4      263      267
     280      9      264      265
     281      7      265      266
     282      8      265      275
     283      8      265      276
     284     16      266      277
     285     16      266      278
     286     13      266      882
     287      3      267      268
     288      5      267      279
     289      4      268      260
     290      5      268      280
     291      7      281      282
     292     16      281      293
     293     16      281      294
     294     13      281      884
     295      9      282      283
     296      8      282      295
     297      8      282      296
     298      6      283      284
     299      4      284      285
     300      3      285      286
     301      5      285      297
     302      4      286      287
     303      5      286      298
     304      6      287      288
     305      4      287      291
     306      9      288      289
     307      7      289      290
     308      8      289      299
     309      8      289      300
     310     16      290      301
     311     16      290      302
     312     13      290      305
     313      3      291      292
     314      5      291      303
     315      4      292      284
     316      5      292      304
     317      7      305      306
     318     16      305      317
     319     16      305      318
     320      9      306      307
     321      8      306      319
     322      8      306      320
     323      6      307      308
     324      4      308      309
     325      3      309      310
     326      5      309      321
     327      4      310      311
     328      5      310      322
     329      6      311      312
     330      4      311      315
     331      9      312      313
     332      7      313      314
     333      8      313      323
     334      8      313      324
     335     16      314      325
     336     16      314      326
     337     13      314      329
     338      3      315      316
     339      5      315      327
     340      4      316      308
     341      5      316      328
     342      7      329      330
     343     16      329      341
     344     16      329      342
     345      9      330      331
     346      8      330      343
     347      8      330      344
     348      6      331      332
     349      4      332      333
     350      3      333      334
     351      5      333      345
     352      4      334      335
     353      5      334      346
     354      6      335      336
     355      4      335      339
     356      9      336      337
     357      7      337      338
     358      8      337      347
     359      8      337      348
     360     16      338      349
     361     16      338      350
     362     13      338      353
     363      3      339      340
     364      5      339      351
     365      4      340      332
     366      5      340      352
     367      7      353      354
     368     16      353      365
     369     16      353      366
     370      9      354      355
     371      8      354      367
     372      8      354      368
     373      6      355      356
     374      4      356      357
     375      3      357      358
     376      5      357      369
     377      4      358      359
     378      5      358      370
     379      6      359      360
     380      4      359      363
     381      9      360      361
     382      7      361      362
     383      8      361      371
     384      8      361      372
     385     16      362      373
     386     16      362      374
     387     13      362      377
     388      3      363      364
     389      5      363      375
     390      4      364      356
     391      5      364      376
     392      7      377      378
     393     16      377      389
     394     16      377      390
     395      9      378      379
     396      8      378      391
     397      8      378      392
     398      6      379      380
     399      4      380      381
     400      3      381      382
     401      5      381      393
     402      4      382      383
     403      5      382      394
     404      6      383      384
     405      4      383      387
     406      9      384      385
     407      7      385      386
     408      8      385      395
     409      8      385      396
     410     16      386      397
     411     16      386      398
     412     13      386      401
     413      3      387      388
     414      5      387      399
     415      4      388      380
     416      5      388      400
     417      7      401      402
     418     16      401      413
     419     16      401      414
     420      9      402      403
     421      8      402      415
     422      8      402      416
     423      6      403      404
     424      4      404      405
     425      3      405      406
     426      5      405      417
     427      4      406      407
     428      5      406      418
     429      6      407      408
     430      4      407      411
     431      9      408      409
     432      7      409      410
     433      8      409      419
     434      8      409      420
     435     16      410      421
     436     16      410      422
     437     13      410      425
     438      3      411      412
     439      5      411      423
     440      4      412      404
     441      5      412      424
     442      7      425      426
     443     16      425      437
     444     16      425      438
     445      9      426      427
     446      8      426      439
     447      8      426      440
     448      6      427      428
     449      4      428      429
     450      3      429      430
     451      5      429      441
     452      4      430      431
     453      5      430      442
     454      6      431      432
     455      4      431      435
     456      9      432      433
     457      7      433      434
     458      8      433      443
     459      8      433      444
     460     16      434      445
     461     16      434      446
     462     13      434      449
     463      3      435      436
     464      5      435      447
     465      4      436      428
     466      5      436      448
     467      7      449      450
     468     16      449      461
     469     16      449      462
     470      9      450      451
     471      8      450      463
     472      8      450      464
     473      6      451      452
     474      4      452      453
     475      3      453      454
     476      5      453      465
     477      4      454      455
     478      5      454      466
     479      6      455      456
     480      4      455      459
     481      9      456      457
     482      7      457      458
     483      8      457      467
     484      8      457      468
     485     16      458      469
     486     16      458      470
     487     13      458      473
     488      3      459      460
     489      5      459      471
     490      4      460      452
     491      5      460      472
     492      7      473      474
     493     16      473      485
     494     16      473      486
     495      9      474      475
     496      8      474      487
     497      8      474      488
     498      6      475      476
     499      4      476      477
     500      3      477      478
     501      5      477      489
     502      4      478      479
     503      5      478      490
     504      6      479      480
     505      4      479      483
     506      9      480      481
     507      7      481      482
     508      8      481      491
     509      8      481      492
     510     16      482      493
     511     16      482      494
     512     13      482      893
     513      3      483      484
     514      5      483      495
     515      4      484      476
     516      5      484      496
     517      7      497      498
     518     16      497      509
     519     16      497      510
     520     13      497      895
     521      9      498      499
     522      8      498      511
     523      8      498      512
     524      6      499      500
     525      4      500      501
     526      3      501      502
     527      5      501      513
     528      4      502      503
     529      5      502      514
     530      6      503      504
     531      4      503      507
     532      9      504      505
     533      7      505      506
     534      8      505      515
     535      8      505      516
     536     16      506      517
     537     16      506      518
     538     13      506      521
     539      3      507      508
     540      5      507      519
     541      4      508      500
     542      5      508      520
     543      7      521      522
     544     16      521      533
     545     16      521      534
     546      9      522      523
     547      8      522      535
     548      8      522      536
     549      6      523      524
     550      4      524      525
     551      3      525      526
     552      5      525      537
     553      4      526      527
     554      5      526      538
     555      6      527      528
     556      4      527      531
     557      9      528      529
     558      7      529      530
     559      8      529      539
     560      8      529      540
     561     16      530      541
     562     16      530      542
     563     13      530      545
     564      3      531      532
     565      5      531      543
     566      4      532      524
     567      5      532      544
     568      7      545      546
     569     16      545      557
     570     16      545      558
     571      9      546      547
     572      8      546      559
     573      8      546      560
     574      6      547      548
     575      4      548      549
     576      3      549      550
     577      5      549      561
     578      4      550      551
     579      5      550      562
     580      6      551      552
     581      4      551      555
     582      9      552      553
     583      7      553      554
     584      8      553      563
     585      8      553      564
     586     16      554      565
     587     16      554      566
     588     13      554      569
     589      3      555      556
     590      5      555      567
     591      4      556      548
     592      5      556      568
     593      7      569      570
     594     16      569      581
     595     16      569      582
     596      9      570      571
     597      8      570      583
     598      8      570      584
     599      6      571      572
     600      4      572      573
     601      3      573      574
     602      5      573      585
     603      4      574      575
     604      5      574      586
     605      6      575      576
     606      4      575      579
     607      9      576      577
     608      7      577      578
     609      8      577      587
     610      8      577      588
     611     16      578      589
     612     16      578      590
     613     13      578      593
     614      3      579      580
     615      5      579      591
     616      4      580      572
     617      5      580      592
     618      7      593      594
     619     16      593      605
     620     16      593      606
     621      9      594      595
     622      8      594      607
     623      8      594      608
     624      6      595      596
     625      4      596      597
     626      3      597      598
     627      5      597      609
     628      4      598      599
     629      5      598      610
     630      6      599      600
     631      4      599      603
     632      9      600      601
     633      7      601      602
     634      8      601      611
     635      8      601      612
     636     16      602      613
     637     16      602      614
     638     13      602      617
     639      3      603      604
     640      5      603      615
     641      4      604      596
     642      5      604      616
     643      7      617      618
     644     16      617      629
     645     16      617      630
     646      9      618      619
     647      8      618      631
     648      8      618      632
     649      6      619      620
     650      4      620      621
     651      3      621      622
     652      5      621      633
     653      4      622      623
     654      5      622      634
     655      6      623      624
     656      4      623      627
     657      9      624      625
     658      7      625      626
     659      8      625      635
     660      8      625      636
     661     16      626      637
     662     16      626      638
     663     13      626      641
     664      3      627      628
     665      5      627      639
     666      4      628      620
     667      5      628      640
     668      7      641      642
     669     16      641      653
     670     16      641      654
     671      9      642      643
     672      8      642      655
     673      8      642      656
     674      6      643      644
     675      4      644      645
     676      3      645      646
     677      5      645      657
     678      4      646      647
     679      5      646      658
     680      6      647      648
     681      4      647      651
     682      9      648      649
     683      7      649      650
     684      8      649      659
     685      8      649      660
     686     16      650      661
     687     16      650      662
     688     13      650      665
     689      3      651      652
     690      5      651      663
     691      4      652      644
     692      5      652      664
     693      7      665      666
     694     16      665      677
     695     16      665      678
     696      9      666      667
     697      8      666      679
     698      8      666      680
     699      6      667      668
     700      4      668      669
     701      3      669      670
     702      5      669      681
     703      4      670      671
     704      5      670      682
     705      6      671      672
     706      4      671      675
     707      9      672      673
     708      7      673      674
     709      8      673      683
     710      8      673      684
     711     16      674      685
     712     16      674      686
     713     13      674      689
     714      3      675      676
     715      5      675      687
     716      4      676      668
     717      5      676      688
     718      7      689      690
     719     16      689      701
     720     16      689      702
     721      9      690      691
     722      8      690      703
     723      8      690      704
     724      6      691      692
     725      4      692      693
     726      3      693      694
     727      5      693      705
     728      4      694      695
     729      5      694      706
     730      6      695      696
     731      4      695      699
     732      9      696      697
     733      7      697      698
     734      8      697      707
     735      8      697      708
     736     16      698      709
     737     16      698      710
     738     13      698      904
     739      3      699      700
     740      5      699      711
     741      4      700      692
     742      5      700      712
     743      7      713      714
     744     16      713      725
     745     16      713      726
     746     13      713      906
     747      9      714      715
     748      8      714      727
     749      8      714      728
     750      6      715      716
     751      4      716      717
     752      3      717      718
     753      5      717      729
     754      4      718      719
     755      5      718      730
     756      6      719      720
     757      4      719      723
     758      9      720      721
     759      7      721      722
     760      8      721      731
     761      8      721      732
     762     16      722      733
     763     16      722      734
     764     13      722      737
     765      3      723      724
     766      5      723      735
     767      4      724      716
     768      5      724      736
     769      7      737      738
     770     16      737      749
     771     16      737      750
     772      9      738      739
     773      8      738      751
     774      8      738      752
     775      6      739      740
     776      4      740      741
     777      3      741      742
     778      5      741      753
     779      4      742      743
     780      5      742      754
     781      6      743      744
     782      4      743      747
     783      9      744      745
     784      7      745      746
     785      8      745      755
     786      8      745      756
     787     16      746      757
     788     16      746      758
     789     13      746      761
     790      3      747      748
     791      5      747      759
     792      4      748      740
     793      5      748      760
     794      7      761      762
     795     16      761      773
     796     16      761      774
     797      9      762      763
     798      8      762      775
     799      8      762      776
     800      6      763      764
     801      4      764      765
     802      3      765      766
     803      5      765      777
     804      4      766      767
     805      5      766      778
     806      6      767      768
     807      4      767      771
     808      9      768      769
     809      7      769      770
     810      8      769      779
     811      8      769      780
     812     16      770      781
     813     16      770      782
     814     13      770      785
     815      3      771      772
     816      5      771      783
     817      4      772      764
     818      5      772      784
     819      7      785      786
     820     16      785      797
     821     16      785      798
     822      9      786      787
     823      8      786      799
     824      8      786      800
     825      6      787      788
     826      4      788      789
     827      3      789      790
     828      5      789      801
     829      4      790      791
     830      5      790      802
     831      6      791      792
     832      4      791      795
     833      9      792      793
     834      7      793      794
     835      8      793      803
     836      8      793      804
     837     16      794      805
     838     16      794      806
     839     13      794      809
     840      3      795      796
     841      5      795      807
     842      4      796      788
     843      5      796      808
     844      7      809      810
     845     16      809      821
     846     16      809      822
     847      9      810      811
     848      8      810      823
     849      8      810      824
     850      6      811      812
     851      4      812      813
     852      3      813      814
     853      5      813      825
     854      4      814      815
     855      5      814      826
     856      6      815      816
     857      4      815      819
     858      9      816      817
     859      7      817      818
     860      8      817      827
     861      8      817      828
     862     16      818      829
     863     16      818      830
     864     13      818      833
     865      3      819      820
     866      5      819      831
     867      4      820      812
     868      5      820      832
     869      7      833      834
     870     16      833      845
     871     16      833      846
     872      9      834      835
     873      8      834      847
     874      8      834      848
     875      6      835      836
     876      4      836      837
     877      3      837      838
     878      5      837      849
     879      4      838      839
     880      5      838      850
     881      6      839      840
     882      4      839      843
     883      9      840      841
     884      7      841      842
     885      8      841      851
     886      8      841      852
     887     16      842      853
     888     16      842      854
     889     13      842      857
     890      3      843      844
     891      5      843      855
     892      4      844      836
     893      5      844      856
     894      7      857      858
     895     16      857      869
     896     16      857      870
     897      9      858      859
     898      8      858      871
     899      8      858      872
     900      6      859      860
     901      4      860      861
     902      3      861      862
     903      5      861      873
     904      4      862      863
     905      5      862      874
     906      6      863      864
     907      4      863      867
     908      9      864      865
     909      7      865      866
     910      8      865      875
     911      8      865      876
     912     16      866      877
     913     16      866      878
     914      3      867      868
     915      5      867      879
     916      4      868      860
     917      5      868      880
     918     14      881      882
     919     14      881      883
     920     14      881      884
     921     17      881      885
     922     16      882      886
     923     16      882      887
     924     16      883      888
     925     16      883      889
     926     13      883      914
     927     16      884      890
     928     16      884      891
     929     14      892      893
     930     14      892      894
     931     14      892      895
     932     17      892      896
     933     16      893      897
     934     16      893      898
     935     16      894      899
     936     16      894      900
     937     13      894      992
     938     16      895      901
     939     16      895      902
     940     14      903      904
     941     14      903      905
     942     14      903      906
     943     17      903      907
     944     16      904      908
     945     16      904      909
     946     16      905      910
     947     16      905      911
     948     13      905     1083
     949     16      906      912
     950     16      906      913
     951     10      914      915
     952     16      914      919
     953     16      914      920
     954     12      915      916
     955     11      915      921
     956     11      915      922
     957     12      916      917
     958     10      917      918
     959     11      917      923
     960     11      917      924
     961     16      918      925
     962     16      918      926
     963     13      918      927
     964     10      927      928
     965     16      927      932
     966     16      927      933
     967     12      928      929
     968     11      928      934
     969     11      928      935
     970     12      929      930
     971     10      930      931
     972     11      930      936
     973     11      930      937
     974     16      931      938
     975     16      931      939
     976     13      931      940
     977     10      940      941
     978     16      940      945
     979     16      940      946
     980     12      941      942
     981     11      941      947
     982     11      941      948
     983     12      942      943
     984     10      943      944
     985     11      943      949
     986     11      943      950
     987     16      944      951
     988     16      944      952
     989     13      944      953
     990     10      953      954
     991     16      953      958
     992     16      953      959
     993     12      954      955
     994     11      954      960
     995     11      954      961
     996     12      955      956
     997     10      956      957
     998     11      956      962
     999     11      956      963
    1000     16      957      964
    1001     16      957      965
    1002     13      957      966
    1003     10      966      967
    1004     16      966      971
    1005     16      966      972
    1006     12      967      968
    1007     11      967      973
    1008     11      967      974
    1009     12      968      969
    1010     10      969      970
    1011     11      969      975
    1012     11      969      976
    1013     16      970      977
    1014     16      970      978
    1015     13      970      979
    1016     10      979      980
    1017     16      979      984
    1018     16      979      985
    1019     12      980      981
    1020     11      980      986
    1021     11      980      987
    1022     12      981      982
    1023     10      982      983
    1024     11      982      988
    1025     11      982      989
    1026     16      983      990
    1027     16      983      991
    1028     10      992      993
    1029     16      992      997
    1030     16      992      998
    1031     12      993      994
    1032     11      993      999
    1033     11      993     1000
    1034     12      994      995
    1035     10      995      996
    1036     11      995     1001
    1037     11      995     1002
    1038     16      996     1003
    1039     16      996     1004
    1040     13      996     1005
    1041     10     1005     1006
    1042     16     1005     1010
    1043     16     1005     1011
    1044     12     1006     1007
    1045     11     1006     1012
    1046     11     1006     1013
    1047     12     1007     1008
    1048     10     1008     1009
    1049     11     1008     1014
    1050     11     1008     1015
    1051     16     1009     1016
    1052     16     1009     1017
    1053     13     1009     1018
    1054     10     1018     1019
    1055     16     1018     1023
    1056     16     1018     1024
    1057     12     1019     1020
    1058     11     1019     1025
    1059     11     1019     1026
    1060     12     1020     1021
    1061     10     1021     1022
    1062     11     1021     1027
    1063     11     1021     1028
    1064     16     1022     1029
    1065     16     1022     1030
    1066     13     1022     1031
    1067     10     1031     1032
    1068     16     1031     1036
    1069     16     1031     1037
    1070     12     1032     1033
    1071     11     1032     1038
    1072     11     1032     1039
    1073     12     1033     1034
    1074     10     1034     1035
    1075     11     1034     1040
    1076     11     1034     1041
    1077     16     1035     1042
    1078     16     1035     1043
    1079     13     1035     1044
    1080     10     1044     1045
    1081     16     1044     1049
    1082     16     1044     1050
    1083     12     1045     1046
    1084     11     1045     1051
    1085     11     1045     1052
    1086     12     1046     1047
    1087     10     1047     1048
    1088     11     1047     1053
    1089     11     1047     1054
    1090     16     1048     1055
    1091     16     1048     1056
    1092     13     1048     1057
    1093     10     1057     1058
    1094     16     1057     1062
    1095     16     1057     1063
    1096     12     1058     1059
    1097     11     1058     1064
    1098     11     1058     1065
    1099     12     1059     1060
    1100     10     1060     1061
    1101     11     1060     1066
    1102     11     1060     1067
    1103     16     1061     1068
    1104     16     1061     1069
    1105     13     1061     1070
    1106     10     1070     1071
    1107     16     1070     1075
    1108     16     1070     1076
    1109     12     1071     1072
    1110     11     1071     1077
    1111     11     1071     1078
    1112     12     1072     1073
    1113     10     1073     1074
    1114     11     1073     1079
    1115     11     1073     1080
    1116     16     1074     1081
    1117     16     1074     1082
    1118     10     1083     1084
    1119     16     1083     1088
    1120     16     1083     1089
    1121     12     1084     1085
    1122     11     1084     1090
    1123     11     1084     1091
    1124     12     1085     1086
    1125     10     1086     1087
    1126     11     1086     1092
    1127     11     1086     1093
    1128     16     1087     1094
    1129     16     1087     1095

Angles

       1     25        1        2        3
       2      1        2        3        4
       3      2        2        3        5
       4      2        2        3        6
       5     26        3        4        7
       6     26        3        4        8
       7     19        3        4       41
       8     23        4        3        5
       9     23        4        3        6
      10      9        4       41       42
      11     20        4       41       53
      12     20        4       41       54
      13     32        5        3        6
      14     31        7        4        8
      15     20        7        4       41
      16     20        8        4       41
      17     25        9       10       11
      18      1       10       11       12
      19      2       10       11       13
      20      2       10       11       14
      21     26       11       12       15
      22     26       11       12       16
      23     19       11       12      983
      24     23       12       11       13
      25     23       12       11       14
      26     11       12      983      982
      27     20       12      983      990
      28     20       12      983      991
      29     32       13       11       14
      30     31       15       12       16
      31     20       15       12      983
      32     20       16       12      983
      33     25       17       18       19
      34      1       18       19       20
      35      2       18       19       21
      36      2       18       19       22
      37     26       19       20       23
      38     26       19       20       24
      39     19       19       20     1074
      40     23       20       19       21
      41     23       20       19       22
      42     11       20     1074     1073
      43     20       20     1074     1081
      44     20       20     1074     1082
      45     32       21       19       22
      46     31       23       20       24
      47     20       23       20     1074
      48     20       24       20     1074
      49     25       25       26       27
      50      1       26       27       28
      51      2       26       27       29
      52      2       26       27       30
      53     26       27       28       31
      54     26       27       28       32
      55     19       27       28     1087
      56     23       28       27       29
      57     23       28       27       30
      58     11       28     1087     1086
      59     20       28     1087     1094
      60     20       28     1087     1095
      61     32       29       27       30
      62     31       31       28       32
      63     20       31       28     1087
      64     20       32       28     1087
      65     25       33       34       35
      66      1       34       35       36
      67      2       34       35       37
      68      2       34       35       38
      69     26       35       36       39
      70     26       35       36       40
      71     19       35       36      866
      72     23       36       35       37
      73     23       36       35       38
      74      9       36      866      865
      75     20       36      866      877
      76     20       36      866      878
      77     32       37       35       38
      78     31       39       36       40
      79     20       39       36      866
      80     20       40       36      866
      81     15       41       42       43
      82     14       41       42       55
      83     14       41       42       56
      84     10       42       41       53
      85     10       42       41       54
      86      8       42       43       44
      87     28       43       42       55
      88     28       43       42       56
      89      6       43       44       45
      90      6       43       44       52
      91      3       44       45       46
      92      7       44       45       57
      93      3       44       52       51
      94      7       44       52       64
      95      5       45       44       52
      96      3       45       46       47
      97      4       45       46       58
      98      4       46       45       57
      99      6       46       47       48
     100      5       46       47       51
     101      7       47       46       58
     102      8       47       48       49
     103      3       47       51       52
     104      7       47       51       63
     105      6       48       47       51
     106     15       48       49       50
     107     28       48       49       59
     108     28       48       49       60
     109     10       49       50       61
     110     10       49       50       62
     111      9       49       50       65
     112     14       50       49       59
     113     14       50       49       60
     114      9       50       65       66
     115     20       50       65       77
     116     20       50       65       78
     117      4       51       52       64
     118      4       52       51       63
     119     31       53       41       54
     120     27       55       42       56
     121     27       59       49       60
     122     31       61       50       62
     123     20       61       50       65
     124     20       62       50       65
     125     15       65       66       67
     126     14       65       66       79
     127     14       65       66       80
     128     10       66       65       77
     129     10       66       65       78
     130      8       66       67       68
     131     28       67       66       79
     132     28       67       66       80
     133      6       67       68       69
     134      6       67       68       76
     135      3       68       69       70
     136      7       68       69       81
     137      3       68       76       75
     138      7       68       76       88
     139      5       69       68       76
     140      3       69       70       71
     141      4       69       70       82
     142      4       70       69       81
     143      6       70       71       72
     144      5       70       71       75
     145      7       71       70       82
     146      8       71       72       73
     147      3       71       75       76
     148      7       71       75       87
     149      6       72       71       75
     150     15       72       73       74
     151     28       72       73       83
     152     28       72       73       84
     153     10       73       74       85
     154     10       73       74       86
     155      9       73       74       89
     156     14       74       73       83
     157     14       74       73       84
     158      9       74       89       90
     159     20       74       89      101
     160     20       74       89      102
     161      4       75       76       88
     162      4       76       75       87
     163     31       77       65       78
     164     27       79       66       80
     165     27       83       73       84
     166     31       85       74       86
     167     20       85       74       89
     168     20       86       74       89
     169     15       89       90       91
     170     14       89       90      103
     171     14       89       90      104
     172     10       90       89      101
     173     10       90       89      102
     174      8       90       91       92
     175     28       91       90      103
     176     28       91       90      104
     177      6       91       92       93
     178      6       91       92      100
     179      3       92       93       94
     180      7       92       93      105
     181      3       92      100       99
     182      7       92      100      112
     183      5       93       92      100
     184      3       93       94       95
     185      4       93       94      106
     186      4       94       93      105
     187      6       94       95       96
     188      5       94       95       99
     189      7       95       94      106
     190      8       95       96       97
     191      3       95       99      100
     192      7       95       99      111
     193      6       96       95       99
     194     15       96       97       98
     195     28       96       97      107
     196     28       96       97      108
     197     10       97       98      109
     198     10       97       98      110
     199      9       97       98      113
     200     14       98       97      107
     201     14       98       97      108
     202      9       98      113      114
     203     20       98      113      125
     204     20       98      113      126
     205      4       99      100      112
     206      4      100       99      111
     207     31      101       89      102
     208     27      103       90      104
     209     27      107       97      108
     210     31      109       98      110
     211     20      109       98      113
     212     20      110       98      113
     213     15      113      114      115
     214     14      113      114      127
     215     14      113      114      128
     216     10      114      113      125
     217     10      114      113      126
     218      8      114      115      116
     219     28      115      114      127
     220     28      115      114      128
     221      6      115      116      117
     222      6      115      116      124
     223      3      116      117      118
     224      7      116      117      129
     225      3      116      124      123
     226      7      116      124      136
     227      5      117      116      124
     228      3      117      118      119
     229      4      117      118      130
     230      4      118      117      129
     231      6      118      119      120
     232      5      118      119      123
     233      7      119      118      130
     234      8      119      120      121
     235      3      119      123      124
     236      7      119      123      135
     237      6      120      119      123
     238     15      120      121      122
     239     28      120      121      131
     240     28      120      121      132
     241     10      121      122      133
     242     10      121      122      134
     243      9      121      122      137
     244     14      122      121      131
     245     14      122      121      132
     246      9      122      137      138
     247     20      122      137      149
     248     20      122      137      150
     249      4      123      124      136
     250      4      124      123      135
     251     31      125      113      126
     252     27      127      114      128
     253     27      131      121      132
     254     31      133      122      134
     255     20      133      122      137
     256     20      134      122      137
     257     15      137      138      139
     258     14      137      138      151
     259     14      137      138      152
     260     10      138      137      149
     261     10      138      137      150
     262      8      138      139      140
     263     28      139      138      151
     264     28      139      138      152
     265      6      139      140      141
     266      6      139      140      148
     267      3      140      141      142
     268      7      140      141      153
     269      3      140      148      147
     270      7      140      148      160
     271      5      141      140      148
     272      3      141      142      143
     273      4      141      142      154
     274      4      142      141      153
     275      6      142      143      144
     276      5      142      143      147
     277      7      143      142      154
     278      8      143      144      145
     279      3      143      147      148
     280      7      143      147      159
     281      6      144      143      147
     282     15      144      145      146
     283     28      144      145      155
     284     28      144      145      156
     285     10      145      146      157
     286     10      145      146      158
     287      9      145      146      161
     288     14      146      145      155
     289     14      146      145      156
     290      9      146      161      162
     291     20      146      161      173
     292     20      146      161      174
     293      4      147      148      160
     294      4      148      147      159
     295     31      149      137      150
     296     27      151      138      152
     297     27      155      145      156
     298     31      157      146      158
     299     20      157      146      161
     300     20      158      146      161
     301     15      161      162      163
     302     14      161      162      175
     303     14      161      162      176
     304     10      162      161      173
     305     10      162      161      174
     306      8      162      163      164
     307     28      163      162      175
     308     28      163      162      176
     309      6      163      164      165
     310      6      163      164      172
     311      3      164      165      166
     312      7      164      165      177
     313      3      164      172      171
     314      7      164      172      184
     315      5      165      164      172
     316      3      165      166      167
     317      4      165      166      178
     318      4      166      165      177
     319      6      166      167      168
     320      5      166      167      171
     321      7      167      166      178
     322      8      167      168      169
     323      3      167      171      172
     324      7      167      171      183
     325      6      168      167      171
     326     15      168      169      170
     327     28      168      169      179
     328     28      168      169      180
     329     10      169      170      181
     330     10      169      170      182
     331      9      169      170      185
     332     14      170      169      179
     333     14      170      169      180
     334      9      170      185      186
     335     20      170      185      197
     336     20      170      185      198
     337      4      171      172      184
     338      4      172      171      183
     339     31      173      161      174
     340     27      175      162      176
     341     27      179      169      180
     342     31      181      170      182
     343     20      181      170      185
     344     20      182      170      185
     345     15      185      186      187
     346     14      185      186      199
     347     14      185      186      200
     348     10      186      185      197
     349     10      186      185      198
     350      8      186      187      188
     351     28      187      186      199
     352     28      187      186      200
     353      6      187      188      189
     354      6      187      188      196
     355      3      188      189      190
     356      7      188      189      201
     357      3      188      196      195
     358      7      188      196      208
     359      5      189      188      196
     360      3      189      190      191
     361      4      189      190      202
     362      4      190      189      201
     363      6      190      191      192
     364      5      190      191      195
     365      7      191      190      202
     366      8      191      192      193
     367      3      191      195      196
     368      7      191      195      207
     369      6      192      191      195
     370     15      192      193      194
     371     28      192      193      203
     372     28      192      193      204
     373     10      193      194      205
     374     10      193      194      206
     375      9      193      194      209
     376     14      194      193      203
     377     14      194      193      204
     378      9      194      209      210
     379     20      194      209      221
     380     20      194      209      222
     381      4      195      196      208
     382      4      196      195      207
     383     31      197      185      198
     384     27      199      186      200
     385     27      203      193      204
     386     31      205      194      206
     387     20      205      194      209
     388     20      206      194      209
     389     15      209      210      211
     390     14      209      210      223
     391     14      209      210      224
     392     10      210      209      221
     393     10      210      209      222
     394      8      210      211      212
     395     28      211      210      223
     396     28      211      210      224
     397      6      211      212      213
     398      6      211      212      220
     399      3      212      213      214
     400      7      212      213      225
     401      3      212      220      219
     402      7      212      220      232
     403      5      213      212      220
     404      3      213      214      215
     405      4      213      214      226
     406      4      214      213      225
     407      6      214      215      216
     408      5      214      215      219
     409      7      215      214      226
     410      8      215      216      217
     411      3      215      219      220
     412      7      215      219      231
     413      6      216      215      219
     414     15      216      217      218
     415     28      216      217      227
     416     28      216      217      228
     417     10      217      218      229
     418     10      217      218      230
     419      9      217      218      233
     420     14      218      217      227
     421     14      218      217      228
     422      9      218      233      234
     423     20      218      233      245
     424     20      218      233      246
     425      4      219      220      232
     426      4      220      219      231
     427     31      221      209      222
     428     27      223      210      224
     429     27      227      217      228
     430     31      229      218      230
     431     20      229      218      233
     432     20      230      218      233
     433     15      233      234      235
     434     14      233      234      247
     435     14      233      234      248
     436     10      234      233      245
     437     10      234      233      246
     438      8      234      235      236
     439     28      235      234      247
     440     28      235      234      248
     441      6      235      236      237
     442      6      235      236      244
     443      3      236      237      238
     444      7      236      237      249
     445      3      236      244      243
     446      7      236      244      256
     447      5      237      236      244
     448      3      237      238      239
     449      4      237      238      250
     450      4      238      237      249
     451      6      238      239      240
     452      5      238      239      243
     453      7      239      238      250
     454      8      239      240      241
     455      3      239      243      244
     456      7      239      243      255
     457      6      240      239      243
     458     15      240      241      242
     459     28      240      241      251
     460     28      240      241      252
     461     10      241      242      253
     462     10      241      242      254
     463      9      241      242      257
     464     14      242      241      251
     465     14      242      241      252
     466      9      242      257      258
     467     20      242      257      269
     468     20      242      257      270
     469      4      243      244      256
     470      4      244      243      255
     471     31      245      233      246
     472     27      247      234      248
     473     27      251      241      252
     474     31      253      242      254
     475     20      253      242      257
     476     20      254      242      257
     477     15      257      258      259
     478     14      257      258      271
     479     14      257      258      272
     480     10      258      257      269
     481     10      258      257      270
     482      8      258      259      260
     483     28      259      258      271
     484     28      259      258      272
     485      6      259      260      261
     486      6      259      260      268
     487      3      260      261      262
     488      7      260      261      273
     489      3      260      268      267
     490      7      260      268      280
     491      5      261      260      268
     492      3      261      262      263
     493      4      261      262      274
     494      4      262      261      273
     495      6      262      263      264
     496      5      262      263      267
     497      7      263      262      274
     498      8      263      264      265
     499      3      263      267      268
     500      7      263      267      279
     501      6      264      263      267
     502     15      264      265      266
     503     28      264      265      275
     504     28      264      265      276
     505     10      265      266      277
     506     10      265      266      278
     507      9      265      266      882
     508     14      266      265      275
     509     14      266      265      276
     510     18      266      882      881
     511     20      266      882      886
     512     20      266      882      887
     513      4      267      268      280
     514      4      268      267      279
     515     31      269      257      270
     516     27      271      258      272
     517     27      275      265      276
     518     31      277      266      278
     519     20      277      266      882
     520     20      278      266      882
     521     15      281      282      283
     522     14      281      282      295
     523     14      281      282      296
     524     18      281      884      881
     525     20      281      884      890
     526     20      281      884      891
     527     10      282      281      293
     528     10      282      281      294
     529      9      282      281      884
     530      8      282      283      284
     531     28      283      282      295
     532     28      283      282      296
     533      6      283      284      285
     534      6      283      284      292
     535      3      284      285      286
     536      7      284      285      297
     537      3      284      292      291
     538      7      284      292      304
     539      5      285      284      292
     540      3      285      286      287
     541      4      285      286      298
     542      4      286      285      297
     543      6      286      287      288
     544      5      286      287      291
     545      7      287      286      298
     546      8      287      288      289
     547      3      287      291      292
     548      7      287      291      303
     549      6      288      287      291
     550     15      288      289      290
     551     28      288      289      299
     552     28      288      289      300
     553     10      289      290      301
     554     10      289      290      302
     555      9      289      290      305
     556     14      290      289      299
     557     14      290      289      300
     558      9      290      305      306
     559     20      290      305      317
     560     20      290      305      318
     561      4      291      292      304
     562      4      292      291      303
     563     31      293      281      294
     564     20      293      281      884
     565     20      294      281      884
     566     27      295      282      296
     567     27      299      289      300
     568     31      301      290      302
     569     20      301      290      305
     570     20      302      290      305
     571     15      305      306      307
     572     14      305      306      319
     573     14      305      306      320
     574     10      306      305      317
     575     10      306      305      318
     576      8      306      307      308
     577     28      307      306      319
     578     28      307      306      320
     579      6      307      308      309
     580      6      307      308      316
     581      3      308      309      310
     582      7      308      309      321
     583      3      308      316      315
     584      7      308      316      328
     585      5      309      308      316
     586      3      309      310      311
     587      4      309      310      322
     588      4      310      309      321
     589      6      310      311      312
     590      5      310      311      315
     591      7      311      310      322
     592      8      311      312      313
     593      3      311      315      316
     594      7      311      315      327
     595      6      312      311      315
     596     15      312      313      314
     597     28      312      313      323
     598     28      312      313      324
     599     10      313      314      325
     600     10      313      314      326
     601      9      313      314      329
     602     14      314      313      323
     603     14      314      313      324
     604      9      314      329      330
     605     20      314      329      341
     606     20      314      329      342
     607      4      315      316      328
     608      4      316      315      327
     609     31      317      305      318
     610     27      319      306      320
     611     27      323      313      324
     612     31      325      314      326
     613     20      325      314      329
     614     20      326      314      329
     615     15      329      330      331
     616     14      329      330      343
     617     14      329      330      344
     618     10      330      329      341
     619     10      330      329      342
     620      8      330      331      332
     621     28      331      330      343
     622     28      331      330      344
     623      6      331      332      333
     624      6      331      332      340
     625      3      332      333      334
     626      7      332      333      345
     627      3      332      340      339
     628      7      332      340      352
     629      5      333      332      340
     630      3      333      334      335
     631      4      333      334      346
     632      4      334      333      345
     633      6      334      335      336
     634      5      334      335      339
     635      7      335      334      346
     636      8      335      336      337
     637      3      335      339      340
     638      7      335      339      351
     639      6      336      335      339
     640     15      336      337      338
     641     28      336      337      347
     642     28      336      337      348
     643     10      337      338      349
     644     10      337      338      350
     645      9      337      338      353
     646     14      338      337      347
     647     14      338      337      348
     648      9      338      353      354
     649     20      338      353      365
     650     20      338      353      366
     651      4      339      340      352
     652      4      340      339      351
     653     31      341      329      342
     654     27      343      330      344
     655     27      347      337      348
     656     31      349      338      350
     657     20      349      338      353
     658     20      350      338      353
     659     15      353      354      355
     660     14      353      354      367
     661     14      353      354      368
     662     10      354      353      365
     663     10      354      353      366
     664      8      354      355      356
     665     28      355      354      367
     666     28      355      354      368
     667      6      355      356      357
     668      6      355      356      364
     669      3      356      357      358
     670      7      356      357      369
     671      3      356      364      363
     672      7      356      364      376
     673      5      357      356      364
     674      3      357      358      359
     675      4      357      358      370
     676      4      358      357      369
     677      6      358      359      360
     678      5      358      359      363
     679      7      359      358      370
     680      8      359      360      361
     681      3      359      363      364
     682      7      359      363      375
     683      6      360      359      363
     684     15      360      361      362
     685     28      360      361      371
     686     28      360      361      372
     687     10      361      362      373
     688     10      361      362      374
     689      9      361      362      377
     690     14      362      361      371
     691     14      362      361      372
     692      9      362      377      378
     693     20      362      377      389
     694     20      362      377      390
     695      4      363      364      376
     696      4      364      363      375
     697     31      365      353      366
     698     27      367      354      368
     699     27      371      361      372
     700     31      373      362      374
     701     20      373      362      377
     702     20      374      362      377
     703     15      377      378      379
     704     14      377      378      391
     705     14      377      378      392
     706     10      378      377      389
     707     10      378      377      390
     708      8      378      379      380
     709     28      379      378      391
     710     28      379      378      392
     711      6      379      380      381
     712      6      379      380      388
     713      3      380      381      382
     714      7      380      381      393
     715      3      380      388      387
     716      7      380      388      400
     717      5      381      380      388
     718      3      381      382      383
     719      4      381      382      394
     720      4      382      381      393
     721      6      382      383      384
     722      5      382      383      387
     723      7      383      382      394
     724      8      383      384      385
     725      3      383      387      388
     726      7      383      387      399
     727      6      384      383      387
     728     15      384      385      386
     729     28      384      385      395
     730     28      384      385      396
     731     10      385      386      397
     732     10      385      386      398
     733      9      385      386      401
     734     14      386      385      395
     735     14      386      385      396
     736      9      386      401      402
     737     20      386      401      413
     738     20      386      401      414
     739      4      387      388      400
     740      4      388      387      399
     741     31      389      377      390
     742     27      391      378      392
     743     27      395      385      396
     744     31      397      386      398
     745     20      397      386      401
     746     20      398      386      401
     747     15      401      402      403
     748     14      401      402      415
     749     14      401      402      416
     750     10      402      401      413
     751     10      402      401      414
     752      8      402      403      404
     753     28      403      402      415
     754     28      403      402      416
     755      6      403      404      405
     756      6      403      404      412
     757      3      404      405      406
     758      7      404      405      417
     759      3      404      412      411
     760      7      404      412      424
     761      5      405      404      412
     762      3      405      406      407
     763      4      405      406      418
     764      4      406      405      417
     765      6      406      407      408
     766      5      406      407      411
     767      7      407      406      418
     768      8      407      408      409
     769      3      407      411      412
     770      7      407      411      423
     771      6      408      407      411
     772     15      408      409      410
     773     28      408      409      419
     774     28      408      409      420
     775     10      409      410      421
     776     10      409      410      422
     777      9      409      410      425
     778     14      410      409      419
     779     14      410      409      420
     780      9      410      425      426
     781     20      410      425      437
     782     20      410      425      438
     783      4      411      412      424
     784      4      412      411      423
     785     31      413      401      414
     786     27      415      402      416
     787     27      419      409      420
     788     31      421      410      422
     789     20      421      410      425
     790     20      422      410      425
     791     15      425      426      427
     792     14      425      426      439
     793     14      425      426      440
     794     10      426      425      437
     795     10      426      425      438
     796      8      426      427      428
     797     28      427      426      439
     798     28      427      426      440
     799      6      427      428      429
     800      6      427      428      436
     801      3      428      429      430
     802      7      428      429      441
     803      3      428      436      435
     804      7      428      436      448
     805      5      429      428      436
     806      3      429      430      431
     807      4      429      430      442
     808      4      430      429      441
     809      6      430      431      432
     810      5      430      431      435
     811      7      431      430      442
     812      8      431      432      433
     813      3      431      435      436
     814      7      431      435      447
     815      6      432      431      435
     816     15      432      433      434
     817     28      432      433      443
     818     28      432      433      444
     819     10      433      434      445
     820     10      433      434      446
     821      9      433      434      449
     822     14      434      433      443
     823     14      434      433      444
     824      9      434      449      450
     825     20      434      449      461
     826     20      434      449      462
     827      4      435      436      448
     828      4      436      435      447
     829     31      437      425      438
     830     27      439      426      440
     831     27      443      433      444
     832     31      445      434      446
     833     20      445      434      449
     834     20      446      434      449
     835     15      449      450      451
     836     14      449      450      463
     837     14      449      450      464
     838     10      450      449      461
     839     10      450      449      462
     840      8      450      451      452
     841     28      451      450      463
     842     28      451      450      464
     843      6      451      452      453
     844      6      451      452      460
     845      3      452      453      454
     846      7      452      453      465
     847      3      452      460      459
     848      7      452      460      472
     849      5      453      452      460
     850      3      453      454      455
     851      4      453      454      466
     852      4      454      453      465
     853      6      454      455      456
     854      5      454      455      459
     855      7      455      454      466
     856      8      455      456      457
     857      3      455      459      460
     858      7      455      459      471
     859      6      456      455      459
     860     15      456      457      458
     861     28      456      457      467
     862     28      456      457      468
     863     10      457      458      469
     864     10      457      458      470
     865      9      457      458      473
     866     14      458      457      467
     867     14      458      457      468
     868      9      458      473      474
     869     20      458      473      485
     870     20      458      473      486
     871      4      459      460      472
     872      4      460      459      471
     873     31      461      449      462
     874     27      463      450      464
     875     27      467      457      468
     876     31      469      458      470
     877     20      469      458      473
     878     20      470      458      473
     879     15      473      474      475
     880     14      473      474      487
     881     14      473      474      488
     882     10      474      473      485
     883     10      474      473      486
     884      8      474      475      476
     885     28      475      474      487
     886     28      475      474      488
     887      6      475      476      477
     888      6      475      476      484
     889      3      476      477      478
     890      7      476      477      489
     891      3      476      484      483
     892      7      476      484      496
     893      5      477      476      484
     894      3      477      478      479
     895      4      477      478      490
     896      4      478      477      489
     897      6      478      479      480
     898      5      478      479      483
     899      7      479      478      490
     900      8      479      480      481
     901      3      479      483      484
     902      7      479      483      495
     903      6      480      479      483
     904     15      480      481      482
     905     28      480      481      491
     906     28      480      481      492
     907     10      481      482      493
     908     10      481      482      494
     909      9      481      482      893
     910     14      482      481      491
     911     14      482      481      492
     912     18      482      893      892
     913     20      482      893      897
     914     20      482      893      898
     915      4      483      484      496
     916      4      484      483      495
     917     31      485      473      486
     918     27      487      474      488
     919     27      491      481      492
     920     31      493      482      494
     921     20      493      482      893
     922     20      494      482      893
     923     15      497      498      499
     924     14      497      498      511
     925     14      497      498      512
     926     18      497      895      892
     927     20      497      895      901
     928     20      497      895      902
     929     10      498      497      509
     930     10      498      497      510
     931      9      498      497      895
     932      8      498      499      500
     933     28      499      498      511
     934     28      499      498      512
     935      6      499      500      501
     936      6      499      500      508
     937      3      500      501      502
     938      7      500      501      513
     939      3      500      508      507
     940      7      500      508      520
     941      5      501      500      508
     942      3      501      502      503
     943      4      501      502      514
     944      4      502      501      513
     945      6      502      503      504
     946      5      502      503      507
     947      7      503      502      514
     948      8      503      504      505
     949      3      503      507      508
     950      7      503      507      519
     951      6      504      503      507
     952     15      504      505      506
     953     28      504      505      515
     954     28      504      505      516
     955     10      505      506      517
     956     10      505      506      518
     957      9      505      506      521
     958     14      506      505      515
     959     14      506      505      516
     960      9      506      521      522
     961     20      506      521      533
     962     20      506      521      534
     963      4      507      508      520
     964      4      508      507      519
     965     31      509      497      510
     966     20      509      497      895
     967     20      510      497      895
     968     27      511      498      512
     969     27      515      505      516
     970     31      517      506      518
     971     20      517      506      521
     972     20      518      506      521
     973     15      521      522      523
     974     14      521      522      535
     975     14      521      522      536
     976     10      522      521      533
     977     10      522      521      534
     978      8      522      523      524
     979     28      523      522      535
     980     28      523      522      536
     981      6      523      524      525
     982      6      523      524      532
     983      3      524      525      526
     984      7      524      525      537
     985      3      524      532      531
     986      7      524      532      544
     987      5      525      524      532
     988      3      525      526      527
     989      4      525      526      538
     990      4      526      525      537
     991      6      526      527      528
     992      5      526      527      531
     993      7      527      526      538
     994      8      527      528      529
     995      3      527      531      532
     996      7      527      531      543
     997      6      528      527      531
     998     15      528      529      530
     999     28      528      529      539
    1000     28      528      529      540
    1001     10      529      530      541
    1002     10      529      530      542
    1003      9      529      530      545
    1004     14      530      529      539
    1005     14      530      529      540
    1006      9      530      545      546
    1007     20      530      545      557
    1008     20      530      545      558
    1009      4      531      532      544
    1010      4      532      531      543
    1011     31      533      521      534
    1012     27      535      522      536
    1013     27      539      529      540
    1014     31      541      530      542
    1015     20      541      530      545
    1016     20      542      530      545
    1017     15      545      546      547
    1018     14      545      546      559
    1019     14      545      546      560
    1020     10      546      545      557
    1021     10      546      545      558
    1022      8      546      547      548
    1023     28      547      546      559
    1024     28      547      546      560
    1025      6      547      548      549
    1026      6      547      548      556
    1027      3      548      549      550
    1028      7      548      549      561
    1029      3      548      556      555
    1030      7      548      556      568
    1031      5      549      548      556
    1032      3      549      550      551
    1033      4      549      550      562
    1034      4      550      549      561
    1035      6      550      551      552
    1036      5      550      551      555
    1037      7      551      550      562
    1038      8      551      552      553
    1039      3      551      555      556
    1040      7      551      555      567
    1041      6      552      551      555
    1042     15      552      553      554
    1043     28      552      553      563
    1044     28      552      553      564
    1045     10      553      554      565
    1046     10      553      554      566
    1047      9      553      554      569
    1048     14      554      553      563
    1049     14      554      553      564
    1050      9      554      569      570
    1051     20      554      569      581
    1052     20      554      569      582
    1053      4      555      556      568
    1054      4      556      555      567
    1055     31      557      545      558
    1056     27      559      546      560
    1057     27      563      553      564
    1058     31      565      554      566
    1059     20      565      554      569
    1060     20      566      554      569
    1061     15      569      570      571
    1062     14      569      570      583
    1063     14      569      570      584
    1064     10      570      569      581
    1065     10      570      569      582
    1066      8      570      571      572
    1067     28      571      570      583
    1068     28      571      570      584
    1069      6      571      572      573
    1070      6      571      572      580
    1071      3      572      573      574
    1072      7      572      573      585
    1073      3      572      580      579
    1074      7      572      580      592
    1075      5      573      572      580
    1076      3      573      574      575
    1077      4      573      574      586
    1078      4      574      573      585
    1079      6      574      575      576
    1080      5      574      575      579
    1081      7      575      574      586
    1082      8      575      576      577
    1083      3      575      579      580
    1084      7      575      579      591
    1085      6      576      575      579
    1086     15      576      577      578
    1087     28      576      577      587
    1088     28      576      577      588
    1089     10      577      578      589
    1090     10      577      578      590
    1091      9      577      578      593
    1092     14      578      577      587
    1093     14      578      577      588
    1094      9      578      593      594
    1095     20      578      593      605
    1096     20      578      593      606
    1097      4      579      580      592
    1098      4      580      579      591
    1099     31      581      569      582
    1100     27      583      570      584
    1101     27      587      577      588
    1102     31      589      578      590
    1103     20      589      578      593
    1104     20      590      578      593
    1105     15      593      594      595
    1106     14      593      594      607
    1107     14      593      594      608
    1108     10      594      593      605
    1109     10      594      593      606
    1110      8      594      595      596
    1111     28      595      594      607
    1112     28      595      594      608
    1113      6      595      596      597
    1114      6      595      596      604
    1115      3      596      597      598
    1116      7      596      597      609
    1117      3      596      604      603
    1118      7      596      604      616
    1119      5      597      596      604
    1120      3      597      598      599
    1121      4      597      598      610
    1122      4      598      597      609
    1123      6      598      599      600
    1124      5      598      599      603
    1125      7      599      598      610
    1126      8      599      600      601
    1127      3      599      603      604
    1128      7      599      603      615
    1129      6      600      599      603
    1130     15      600      601      602
    1131     28      600      601      611
    1132     28      600      601      612
    1133     10      601      602      613
    1134     10      601      602      614
    1135      9      601      602      617
    1136     14      602      601      611
    1137     14      602      601      612
    1138      9      602      617      618
    1139     20      602      617      629
    1140     20      602      617      630
    1141      4      603      604      616
    1142      4      604      603      615
    1143     31      605      593      606
    1144     27      607      594      608
    1145     27      611      601      612
    1146     31      613      602      614
    1147     20      613      602      617
    1148     20      614      602      617
    1149     15      617      618      619
    1150     14      617      618      631
    1151     14      617      618      632
    1152     10      618      617      629
    1153     10      618      617      630
    1154      8      618      619      620
    1155     28      619      618      631
    1156     28      619      618      632
    1157      6      619      620      621
    1158      6      619      620      628
    1159      3      620      621      622
    1160      7      620      621      633
    1161      3      620      628      627
    1162      7      620      628      640
    1163      5      621      620      628
    1164      3      621      622      623
    1165      4      621      622      634
    1166      4      622      621      633
    1167      6      622      623      624
    1168      5      622      623      627
    1169      7      623      622      634
    1170      8      623      624      625
    1171      3      623      627      628
    1172      7      623      627      639
    1173      6      624      623      627
    1174     15      624      625      626
    1175     28      624      625      635
    1176     28      624      625      636
    1177     10      625      626      637
    1178     10      625      626      638
    1179      9      625      626      641
    1180     14      626      625      635
    1181     14      626      625      636
    1182      9      626      641      642
    1183     20      626      641      653
    1184     20      626      641      654
    1185      4      627      628      640
    1186      4      628      627      639
    1187     31      629      617      630
    1188     27      631      618      632
    1189     27      635      625      636
    1190     31      637      626      638
    1191     20      637      626      641
    1192     20      638      626      641
    1193     15      641      642      643
    1194     14      641      642      655
    1195     14      641      642      656
    1196     10      642      641      653
    1197     10      642      641      654
    1198      8      642      643      644
    1199     28      643      642      655
    1200     28      643      642      656
    1201      6      643      644      645
    1202      6      643      644      652
    1203      3      644      645      646
    1204      7      644      645      657
    1205      3      644      652      651
    1206      7      644      652      664
    1207      5      645      644      652
    1208      3      645      646      647
    1209      4      645      646      658
    1210      4      646      645      657
    1211      6      646      647      648
    1212      5      646      647      651
    1213      7      647      646      658
    1214      8      647      648      649
    1215      3      647      651      652
    1216      7      647      651      663
    1217      6      648      647      651
    1218     15      648      649      650
    1219     28      648      649      659
    1220     28      648      649      660
    1221     10      649      650      661
    1222     10      649      650      662
    1223      9      649      650      665
    1224     14      650      649      659
    1225     14      650      649      660
    1226      9      650      665      666
    1227     20      650      665      677
    1228     20      650      665      678
    1229      4      651      652      664
    1230      4      652      651      663
    1231     31      653      641      654
    1232     27      655      642      656
    1233     27      659      649      660
    1234     31      661      650      662
    1235     20      661      650      665
    1236     20      662      650      665
    1237     15      665      666      667
    1238     14      665      666      679
    1239     14      665      666      680
    1240     10      666      665      677
    1241     10      666      665      678
    1242      8      666      667      668
    1243     28      667      666      679
    1244     28      667      666      680
    1245      6      667      668      669
    1246      6      667      668      676
    1247      3      668      669      670
    1248      7      668      669      681
    1249      3      668      676      675
    1250      7      668      676      688
    1251      5      669      668      676
    1252      3      669      670      671
    1253      4      669      670      682
    1254      4      670      669      681
    1255      6      670      671      672
    1256      5      670      671      675
    1257      7      671      670      682
    1258      8      671      672      673
    1259      3      671      675      676
    1260      7      671      675      687
    1261      6      672      671      675
    1262     15      672      673      674
    1263     28      672      673      683
    1264     28      672      673      684
    1265     10      673      674      685
    1266     10      673      674      686
    1267      9      673      674      689
    1268     14      674      673      683
    1269     14      674      673      684
    1270      9      674      689      690
    1271     20      674      689      701
    1272     20      674      689      702
    1273      4      675      676      688
    1274      4      676      675      687
    1275     31      677      665      678
    1276     27      679      666      680
    1277     27      683      673      684
    1278     31      685      674      686
    1279     20      685      674      689
    1280     20      686      674      689
    1281     15      689      690      691
    1282     14      689      690      703
    1283     14      689      690      704
    1284     10      690      689      701
    1285     10      690      689      702
    1286      8      690      691      692
    1287     28      691      690      703
    1288     28      691      690      704
    1289      6      691      692      693
    1290      6      691      692      700
    1291      3      692      693      694
    1292      7      692      693      705
    1293      3      692      700      699
    1294      7      692      700      712
    1295      5      693      692      700
    1296      3      693      694      695
    1297      4      693      694      706
    1298      4      694      693      705
    1299      6      694      695      696
    1300      5      694      695      699
    1301      7      695      694      706
    1302      8      695      696      697
    1303      3      695      699      700
    1304      7      695      699      711
    1305      6      696      695      699
    1306     15      696      697      698
    1307     28      696      697      707
    1308     28      696      697      708
    1309     10      697      698      709
    1310     10      697      698      710
    1311      9      697      698      904
    1312     14      698      697      707
    1313     14      698      697      708
    1314     18      698      904      903
    1315     20      698      904      908
    1316     20      698      904      909
    1317      4      699      700      712
    1318      4      700      699      711
    1319     31      701      689      702
    1320     27      703      690      704
    1321     27      707      697      708
    1322     31      709      698      710
    1323     20      709      698      904
    1324     20      710      698      904
    1325     15      713      714      715
    1326     14      713      714      727
    1327     14      713      714      728
    1328     18      713      906      903
    1329     20      713      906      912
    1330     20      713      906      913
    1331     10      714      713      725
    1332     10      714      713      726
    1333      9      714      713      906
    1334      8      714      715      716
    1335     28      715      714      727
    1336     28      715      714      728
    1337      6      715      716      717
    1338      6      715      716      724
    1339      3      716      717      718
    1340      7      716      717      729
    1341      3      716      724      723
    1342      7      716      724      736
    1343      5      717      716      724
    1344      3      717      718      719
    1345      4      717      718      730
    1346      4      718      717      729
    1347      6      718      719      720
    1348      5      718      719      723
    1349      7      719      718      730
    1350      8      719      720      721
    1351      3      719      723      724
    1352      7      719      723      735
    1353      6      720      719      723
    1354     15      720      721      722
    1355     28      720      721      731
    1356     28      720      721      732
    1357     10      721      722      733
    1358     10      721      722      734
    1359      9      721      722      737
    1360     14      722      721      731
    1361     14      722      721      732
    1362      9      722      737      738
    1363     20      722      737      749
    1364     20      722      737      750
    1365      4      723      724      736
    1366      4      724      723      735
    1367     31      725      713      726
    1368     20      725      713      906
    1369     20      726      713      906
    1370     27      727      714      728
    1371     27      731      721      732
    1372     31      733      722      734
    1373     20      733      722      737
    1374     20      734      722      737
    1375     15      737      738      739
    1376     14      737      738      751
    1377     14      737      738      752
    1378     10      738      737      749
    1379     10      738      737      750
    1380      8      738      739      740
    1381     28      739      738      751
    1382     28      739      738      752
    1383      6      739      740      741
    1384      6      739      740      748
    1385      3      740      741      742
    1386      7      740      741      753
    1387      3      740      748      747
    1388      7      740      748      760
    1389      5      741      740      748
    1390      3      741      742      743
    1391      4      741      742      754
    1392      4      742      741      753
    1393      6      742      743      744
    1394      5      742      743      747
    1395      7      743      742      754
    1396      8      743      744      745
    1397      3      743      747      748
    1398      7      743      747      759
    1399      6      744      743      747
    1400     15      744      745      746
    1401     28      744      745      755
    1402     28      744      745      756
    1403     10      745      746      757
    1404     10      745      746      758
    1405      9      745      746      761
    1406     14      746      745      755
    1407     14      746      745      756
    1408      9      746      761      762
    1409     20      746      761      773
    1410     20      746      761      774
    1411      4      747      748      760
    1412      4      748      747      759
    1413     31      749      737      750
    1414     27      751      738      752
    1415     27      755      745      756
    1416     31      757      746      758
    1417     20      757      746      761
    1418     20      758      746      761
    1419     15      761      762      763
    1420     14      761      762      775
    1421     14      761      762      776
    1422     10      762      761      773
    1423     10      762      761      774
    1424      8      762      763      764
    1425     28      763      762      775
    1426     28      763      762      776
    1427      6      763      764      765
    1428      6      763      764      772
    1429      3      764      765      766
    1430      7      764      765      777
    1431      3      764      772      771
    1432      7      764      772      784
    1433      5      765      764      772
    1434      3      765      766      767
    1435      4      765      766      778
    1436      4      766      765      777
    1437      6      766      767      768
    1438      5      766      767      771
    1439      7      767      766      778
    1440      8      767      768      769
    1441      3      767      771      772
    1442      7      767      771      783
    1443      6      768      767      771
    1444     15      768      769      770
    1445     28      768      769      779
    1446     28      768      769      780
    1447     10      769      770      781
    1448     10      769      770      782
    1449      9      769      770      785
    1450     14      770      769      779
    1451     14      770      769      780
    1452      9      770      785      786
    1453     20      770      785      797
    1454     20      770      785      798
    1455      4      771      772      784
    1456      4      772      771      783
    1457     31      773      761      774
    1458     27      775      762      776
    1459     27      779      769      780
    1460     31      781      770      782
    1461     20      781      770      785
    1462     20      782      770      785
    1463     15      785      786      787
    1464     14      785      786      799
    1465     14      785      786      800
    1466     10      786      785      797
    1467     10      786      785      798
    1468      8      786      787      788
    1469     28      787      786      799
    1470     28      787      786      800
    1471      6      787      788      789
    1472      6      787      788      796
    1473      3      788      789      790
    1474      7      788      789      801
    1475      3      788      796      795
    1476      7      788      796      808
    1477      5      789      788      796
    1478      3      789      790      791
    1479      4      789      790      802
    1480      4      790      789      801
    1481      6      790      791      792
    1482      5      790      791      795
    1483      7      791      790      802
    1484      8      791      792      793
    1485      3      791      795      796
    1486      7      791      795      807
    1487      6      792      791      795
    1488     15      792      793      794
    1489     28      792      793      803
    1490     28      792      793      804
    1491     10      793      794      805
    1492     10      793      794      806
    1493      9      793      794      809
    1494     14      794      793      803
    1495     14      794      793      804
    1496      9      794      809      810
    1497     20      794      809      821
    1498     20      794      809      822
    1499      4      795      796      808
    1500      4      796      795      807
    1501     31      797      785      798
    1502     27      799      786      800
    1503     27      803      793      804
    1504     31      805      794      806
    1505     20      805      794      809
    1506     20      806      794      809
    1507     15      809      810      811
    1508     14      809      810      823
    1509     14      809      810      824
    1510     10      810      809      821
    1511     10      810      809      822
    1512      8      810      811      812
    1513     28      811      810      823
    1514     28      811      810      824
    1515      6      811      812      813
    1516      6      811      812      820
    1517      3      812      813      814
    1518      7      812      813      825
    1519      3      812      820      819
    1520      7      812      820      832
    1521      5      813      812      820
    1522      3      813      814      815
    1523      4      813      814      826
    1524      4      814      813      825
    1525      6      814      815      816
    1526      5      814      815      819
    1527      7      815      814      826
    1528      8      815      816      817
    1529      3      815      819      820
    1530      7      815      819      831
    1531      6      816      815      819
    1532     15      816      817      818
    1533     28      816      817      827
    1534     28      816      817      828
    1535     10      817      818      829
    1536     10      817      818      830
    1537      9      817      818      833
    1538     14      818      817      827
    1539     14      818      817      828
    1540      9      818      833      834
    1541     20      818      833      845
    1542     20      818      833      846
    1543      4      819      820      832
    1544      4      820      819      831
    1545     31      821      809      822
    1546     27      823      810      824
    1547     27      827      817      828
    1548     31      829      818      830
    1549     20      829      818      833
    1550     20      830      818      833
    1551     15      833      834      835
    1552     14      833      834      847
    1553     14      833      834      848
    1554     10      834      833      845
    1555     10      834      833      846
    1556      8      834      835      836
    1557     28      835      834      847
    1558     28      835      834      848
    1559      6      835      836      837
    1560      6      835      836      844
    1561      3      836      837      838
    1562      7      836      837      849
    1563      3      836      844      843
    1564      7      836      844      856
    1565      5      837      836      844
    1566      3      837      838      839
    1567      4      837      838      850
    1568      4      838      837      849
    1569      6      838      839      840
    1570      5      838      839      843
    1571      7      839      838      850
    1572      8      839      840      841
    1573      3      839      843      844
    1574      7      839      843      855
    1575      6      840      839      843
    1576     15      840      841      842
    1577     28      840      841      851
    1578     28      840      841      852
    1579     10      841      842      853
    1580     10      841      842      854
    1581      9      841      842      857
    1582     14      842      841      851
    1583     14      842      841      852
    1584      9      842      857      858
    1585     20      842      857      869
    1586     20      842      857      870
    1587      4      843      844      856
    1588      4      844      843      855
    1589     31      845      833      846
    1590     27      847      834      848
    1591     27      851      841      852
    1592     31      853      842      854
    1593     20      853      842      857
    1594     20      854      842      857
    1595     15      857      858      859
    1596     14      857      858      871
    1597     14      857      858      872
    1598     10      858      857      869
    1599     10      858      857      870
    1600      8      858      859      860
    1601     28      859      858      871
    1602     28      859      858      872
    1603      6      859      860      861
    1604      6      859      860      868
    1605      3      860      861      862
    1606      7      860      861      873
    1607      3      860      868      867
    1608      7      860      868      880
    1609      5      861      860      868
    1610      3      861      862      863
    1611      4      861      862      874
    1612      4      862      861      873
    1613      6      862      863      864
    1614      5      862      863      867
    1615      7      863      862      874
    1616      8      863      864      865
    1617      3      863      867      868
    1618      7      863      867      879
    1619      6      864      863      867
    1620     15      864      865      866
    1621     28      864      865      875
    1622     28      864      865      876
    1623     10      865      866      877
    1624     10      865      866      878
    1625     14      866      865      875
    1626     14      866      865      876
    1627      4      867      868      880
    1628      4      868      867      879
    1629     31      869      857      870
    1630     27      871      858      872
    1631     27      875      865      876
    1632     31      877      866      878
    1633     24      881      882      886
    1634     24      881      882      887
    1635     24      881      883      888
    1636     24      881      883      889
    1637     18      881      883      914
    1638     24      881      884      890
    1639     24      881      884      891
    1640     21      882      881      883
    1641     21      882      881      884
    1642     22      882      881      885
    1643     21      883      881      884
    1644     22      883      881      885
    1645     11      883      914      915
    1646     20      883      914      919
    1647     20      883      914      920
    1648     22      884      881      885
    1649     31      886      882      887
    1650     31      888      883      889
    1651     20      888      883      914
    1652     20      889      883      914
    1653     31      890      884      891
    1654     24      892      893      897
    1655     24      892      893      898
    1656     24      892      894      899
    1657     24      892      894      900
    1658     18      892      894      992
    1659     24      892      895      901
    1660     24      892      895      902
    1661     21      893      892      894
    1662     21      893      892      895
    1663     22      893      892      896
    1664     21      894      892      895
    1665     22      894      892      896
    1666     11      894      992      993
    1667     20      894      992      997
    1668     20      894      992      998
    1669     22      895      892      896
    1670     31      897      893      898
    1671     31      899      894      900
    1672     20      899      894      992
    1673     20      900      894      992
    1674     31      901      895      902
    1675     24      903      904      908
    1676     24      903      904      909
    1677     24      903      905      910
    1678     24      903      905      911
    1679     18      903      905     1083
    1680     24      903      906      912
    1681     24      903      906      913
    1682     21      904      903      905
    1683     21      904      903      906
    1684     22      904      903      907
    1685     21      905      903      906
    1686     22      905      903      907
    1687     11      905     1083     1084
    1688     20      905     1083     1088
    1689     20      905     1083     1089
    1690     22      906      903      907
    1691     31      908      904      909
    1692     31      910      905      911
    1693     20      910      905     1083
    1694     20      911      905     1083
    1695     31      912      906      913
    1696     17      914      915      916
    1697     16      914      915      921
    1698     16      914      915      922
    1699     12      915      914      919
    1700     12      915      914      920
    1701     13      915      916      917
    1702     30      916      915      921
    1703     30      916      915      922
    1704     17      916      917      918
    1705     30      916      917      923
    1706     30      916      917      924
    1707     12      917      918      925
    1708     12      917      918      926
    1709     11      917      918      927
    1710     16      918      917      923
    1711     16      918      917      924
    1712     11      918      927      928
    1713     20      918      927      932
    1714     20      918      927      933
    1715     31      919      914      920
    1716     29      921      915      922
    1717     29      923      917      924
    1718     31      925      918      926
    1719     20      925      918      927
    1720     20      926      918      927
    1721     17      927      928      929
    1722     16      927      928      934
    1723     16      927      928      935
    1724     12      928      927      932
    1725     12      928      927      933
    1726     13      928      929      930
    1727     30      929      928      934
    1728     30      929      928      935
    1729     17      929      930      931
    1730     30      929      930      936
    1731     30      929      930      937
    1732     12      930      931      938
    1733     12      930      931      939
    1734     11      930      931      940
    1735     16      931      930      936
    1736     16      931      930      937
    1737     11      931      940      941
    1738     20      931      940      945
    1739     20      931      940      946
    1740     31      932      927      933
    1741     29      934      928      935
    1742     29      936      930      937
    1743     31      938      931      939
    1744     20      938      931      940
    1745     20      939      931      940
    1746     17      940      941      942
    1747     16      940      941      947
    1748     16      940      941      948
    1749     12      941      940      945
    1750     12      941      940      946
    1751     13      941      942      943
    1752     30      942      941      947
    1753     30      942      941      948
    1754     17      942      943      944
    1755     30      942      943      949
    1756     30      942      943      950
    1757     12      943      944      951
    1758     12      943      944      952
    1759     11      943      944      953
    1760     16      944      943      949
    1761     16      944      943      950
    1762     11      944      953      954
    1763     20      944      953      958
    1764     20      944      953      959
    1765     31      945      940      946
    1766     29      947      941      948
    1767     29      949      943      950
    1768     31      951      944      952
    1769     20      951      944      953
    1770     20      952      944      953
    1771     17      953      954      955
    1772     16      953      954      960
    1773     16      953      954      961
    1774     12      954      953      958
    1775     12      954      953      959
    1776     13      954      955      956
    1777     30      955      954      960
    1778     30      955      954      961
    1779     17      955      956      957
    1780     30      955      956      962
    1781     30      955      956      963
    1782     12      956      957      964
    1783     12      956      957      965
    1784     11      956      957      966
    1785     16      957      956      962
    1786     16      957      956      963
    1787     11      957      966      967
    1788     20      957      966      971
    1789     20      957      966      972
    1790     31      958      953      959
    1791     29      960      954      961
    1792     29      962      956      963
    1793     31      964      957      965
    1794     20      964      957      966
    1795     20      965      957      966
    1796     17      966      967      968
    1797     16      966      967      973
    1798     16      966      967      974
    1799     12      967      966      971
    1800     12      967      966      972
    1801     13      967      968      969
    1802     30      968      967      973
    1803     30      968      967      974
    1804     17      968      969      970
    1805     30      968      969      975
    1806     30      968      969      976
    1807     12      969      970      977
    1808     12      969      970      978
    1809     11      969      970      979
    1810     16      970      969      975
    1811     16      970      969      976
    1812     11      970      979      980
    1813     20      970      979      984
    1814     20      970      979      985
    1815     31      971      966      972
    1816     29      973      967      974
    1817     29      975      969      976
    1818     31      977      970      978
    1819     20      977      970      979
    1820     20      978      970      979
    1821     17      979      980      981
    1822     16      979      980      986
    1823     16      979      980      987
    1824     12      980      979      984
    1825     12      980      979      985
    1826     13      980      981      982
    1827     30      981      980      986
    1828     30      981      980      987
    1829     17      981      982      983
    1830     30      981      982      988
    1831     30      981      982      989
    1832     12      982      983      990
    1833     12      982      983      991
    1834     16      983      982      988
    1835     16      983      982      989
    1836     31      984      979      985
    1837     29      986      980      987
    1838     29      988      982      989
    1839     31      990      983      991
    1840     17      992      993      994
    1841     16      992      993      999
    1842     16      992      993     1000
    1843     12      993      992      997
    1844     12      993      992      998
    1845     13      993      994      995
    1846     30      994      993      999
    1847     30      994      993     1000
    1848     17      994      995      996
    1849     30      994      995     1001
    1850     30      994      995     1002
    1851     12      995      996     1003
    1852     12      995      996     1004
    1853     11      995      996     1005
    1854     16      996      995     1001
    1855     16      996      995     1002
    1856     11      996     1005     1006
    1857     20      996     1005     1010
    1858     20      996     1005     1011
    1859     31      997      992      998
    1860     29      999      993     1000
    1861     29     1001      995     1002
    1862     31     1003      996     1004
    1863     20     1003      996     1005
    1864     20     1004      996     1005
    1865     17     1005     1006     1007
    1866     16     1005     1006     1012
    1867     16     1005     1006     1013
    1868     12     1006     1005     1010
    1869     12     1006     1005     1011
    1870     13     1006     1007     1008
    1871     30     1007     1006     1012
    1872     30     1007     1006     1013
    1873     17     1007     1008     1009
    1874     30     1007     1008     1014
    1875     30     1007     1008     1015
    1876     12     1008     1009     1016
    1877     12     1008     1009     1017
    1878     11     1008     1009     1018
    1879     16     1009     1008     1014
    1880     16     1009     1008     1015
    1881     11     1009     1018     1019
    1882     20     1009     1018     1023
    1883     20     1009     1018     1024
    1884     31     1010     1005     1011
    1885     29     1012     1006     1013
    1886     29     1014     1008     1015
    1887     31     1016     1009     1017
    1888     20     1016     1009     1018
    1889     20     1017     1009     1018
    1890     17     1018     1019     1020
    1891     16     1018     1019     1025
    1892     16     1018     1019     1026
    1893     12     1019     1018     1023
    1894     12     1019     1018     1024
    1895     13     1019     1020     1021
    1896     30     1020     1019     1025
    1897     30     1020     1019     1026
    1898     17     1020     1021     1022
    1899     30     1020     1021     1027
    1900     30     1020     1021     1028
    1901     12     1021     1022     1029
    1902     12     1021     1022     1030
    1903     11     1021     1022     1031
    1904     16     1022     1021     1027
    1905     16     1022     1021     1028
    1906     11     1022     1031     1032
    1907     20     1022     1031     1036
    1908     20     1022     1031     1037
    1909     31     1023     1018     1024
    1910     29     1025     1019     1026
    1911     29     1027     1021     1028
    1912     31     1029     1022     1030
    1913     20     1029     1022     1031
    1914     20     1030     1022     1031
    1915     17     1031     1032     1033
    1916     16     1031     1032     1038
    1917     16     1031     1032     1039
    1918     12     1032     1031     1036
    1919     12     1032     1031     1037
    1920     13     1032     1033     1034
    1921     30     1033     1032     1038
    1922     30     1033     1032     1039
    1923     17     1033     1034     1035
    1924     30     1033     1034     1040
    1925     30     1033     1034     1041
    1926     12     1034     1035     1042
    1927     12     1034     1035     1043
    1928     11     1034     1035     1044
    1929     16     1035     1034     1040
    1930     16     1035     1034     1041
    1931     11     1035     1044     1045
    1932     20     1035     1044     1049
    1933     20     1035     1044     1050
    1934     31     1036     1031     1037
    1935     29     1038     1032     1039
    1936     29     1040     1034     1041
    1937     31     1042     1035     1043
    1938     20     1042     1035     1044
    1939     20     1043     1035     1044
    1940     17     1044     1045     1046
    1941     16     1044     1045     1051
    1942     16     1044     1045     1052
    1943     12     1045     1044     1049
    1944     12     1045     1044     1050
    1945     13     1045     1046     1047
    1946     30     1046     1045     1051
    1947     30     1046     1045     1052
    1948     17     1046     1047     1048
    1949     30     1046     1047     1053
    1950     30     1046     1047     1054
    1951     12     1047     1048     1055
    1952     12     1047     1048     1056
    1953     11     1047     1048     1057
    1954     16     1048     1047     1053
    1955     16     1048     1047     1054
    1956     11     1048     1057     1058
    1957     20     1048     1057     1062
    1958     20     1048     1057     1063
    1959     31     1049     1044     1050
    1960     29     1051     1045     1052
    1961     29     1053     1047     1054
    1962     31     1055     1048     1056
    1963     20     1055     1048     1057
    1964     20     1056     1048     1057
    1965     17     1057     1058     1059
    1966     16     1057     1058     1064
    1967     16     1057     1058     1065
    1968     12     1058     1057     1062
    1969     12     1058     1057     1063
    1970     13     1058     1059     1060
    1971     30     1059     1058     1064
    1972     30     1059     1058     1065
    1973     17     1059     1060     1061
    1974     30     1059     1060     1066
    1975     30     1059     1060     1067
    1976     12     1060     1061     1068
    1977     12     1060     1061     1069
    1978     11     1060     1061     1070
    1979     16     1061     1060     1066
    1980     16     1061     1060     1067
    1981     11     1061     1070     1071
    1982     20     1061     1070     1075
    1983     20     1061     1070     1076
    1984     31     1062     1057     1063
    1985     29     1064     1058     1065
    1986     29     1066     1060     1067
    1987     31     1068     1061     1069
    1988     20     1068     1061     1070
    1989     20     1069     1061     1070
    1990     17     1070     1071     1072
    1991     16     1070     1071     1077
    1992     16     1070     1071     1078
    1993     12     1071     1070     1075
    1994     12     1071     1070     1076
    1995     13     1071     1072     1073
    1996     30     1072     1071     1077
    1997     30     1072     1071     1078
    1998     17     1072     1073     1074
    1999     30     1072     1073     1079
    2000     30     1072     1073     1080
    2001     12     1073     1074     1081
    2002     12     1073     1074     1082
    2003     16     1074     1073     1079
    2004     16     1074     1073     1080
    2005     31     1075     1070     1076
    2006     29     1077     1071     1078
    2007     29     1079     1073     1080
    2008     31     1081     1074     1082
    2009     17     1083     1084     1085
    2010     16     1083     1084     1090
    2011     16     1083     1084     1091
    2012     12     1084     1083     1088
    2013     12     1084     1083     1089
    2014     13     1084     1085     1086
    2015     30     1085     1084     1090
    2016     30     1085     1084     1091
    2017     17     1085     1086     1087
    2018     30     1085     1086     1092
    2019     30     1085     1086     1093
    2020     12     1086     1087     1094
    2021     12     1086     1087     1095
    2022     16     1087     1086     1092
    2023     16     1087     1086     1093
    2024     31     1088     1083     1089
    2025     29     1090     1084     1091
    2026     29     1092     1086     1093
    2027     31     1094     1087     1095

Dihedrals

       1     29        1        2        3        4
       2     41        1        2        3        5
       3     41        1        2        3        6
       4      2        2        3        4        7
       5      2        2        3        4        8
       6      1        2        3        4       41
       7     13        3        4       41       42
       8     31        3        4       41       53
       9     31        3        4       41       54
      10     22        4       41       42       43
      11     21        4       41       42       55
      12     21        4       41       42       56
      13     40        5        3        4        7
      14     40        5        3        4        8
      15     27        5        3        4       41
      16     40        6        3        4        7
      17     40        6        3        4        8
      18     27        6        3        4       41
      19     14        7        4       41       42
      20     38        7        4       41       53
      21     38        7        4       41       54
      22     14        8        4       41       42
      23     38        8        4       41       53
      24     38        8        4       41       54
      25     29        9       10       11       12
      26     41        9       10       11       13
      27     41        9       10       11       14
      28      2       10       11       12       15
      29      2       10       11       12       16
      30      1       10       11       12      983
      31     17       11       12      983      982
      32     31       11       12      983      990
      33     31       11       12      983      991
      34     24       12      983      982      981
      35     23       12      983      982      988
      36     23       12      983      982      989
      37     40       13       11       12       15
      38     40       13       11       12       16
      39     27       13       11       12      983
      40     40       14       11       12       15
      41     40       14       11       12       16
      42     27       14       11       12      983
      43     18       15       12      983      982
      44     38       15       12      983      990
      45     38       15       12      983      991
      46     18       16       12      983      982
      47     38       16       12      983      990
      48     38       16       12      983      991
      49     29       17       18       19       20
      50     41       17       18       19       21
      51     41       17       18       19       22
      52      2       18       19       20       23
      53      2       18       19       20       24
      54      1       18       19       20     1074
      55     17       19       20     1074     1073
      56     31       19       20     1074     1081
      57     31       19       20     1074     1082
      58     24       20     1074     1073     1072
      59     23       20     1074     1073     1079
      60     23       20     1074     1073     1080
      61     40       21       19       20       23
      62     40       21       19       20       24
      63     27       21       19       20     1074
      64     40       22       19       20       23
      65     40       22       19       20       24
      66     27       22       19       20     1074
      67     18       23       20     1074     1073
      68     38       23       20     1074     1081
      69     38       23       20     1074     1082
      70     18       24       20     1074     1073
      71     38       24       20     1074     1081
      72     38       24       20     1074     1082
      73     29       25       26       27       28
      74     41       25       26       27       29
      75     41       25       26       27       30
      76      2       26       27       28       31
      77      2       26       27       28       32
      78      1       26       27       28     1087
      79     17       27       28     1087     1086
      80     31       27       28     1087     1094
      81     31       27       28     1087     1095
      82     24       28     1087     1086     1085
      83     23       28     1087     1086     1092
      84     23       28     1087     1086     1093
      85     40       29       27       28       31
      86     40       29       27       28       32
      87     27       29       27       28     1087
      88     40       30       27       28       31
      89     40       30       27       28       32
      90     27       30       27       28     1087
      91     18       31       28     1087     1086
      92     38       31       28     1087     1094
      93     38       31       28     1087     1095
      94     18       32       28     1087     1086
      95     38       32       28     1087     1094
      96     38       32       28     1087     1095
      97     29       33       34       35       36
      98     41       33       34       35       37
      99     41       33       34       35       38
     100      2       34       35       36       39
     101      2       34       35       36       40
     102      1       34       35       36      866
     103     13       35       36      866      865
     104     31       35       36      866      877
     105     31       35       36      866      878
     106     22       36      866      865      864
     107     21       36      866      865      875
     108     21       36      866      865      876
     109     40       37       35       36       39
     110     40       37       35       36       40
     111     27       37       35       36      866
     112     40       38       35       36       39
     113     40       38       35       36       40
     114     27       38       35       36      866
     115     14       39       36      866      865
     116     38       39       36      866      877
     117     38       39       36      866      878
     118     14       40       36      866      865
     119     38       40       36      866      877
     120     38       40       36      866      878
     121      9       41       42       43       44
     122      6       42       43       44       45
     123      6       42       43       44       52
     124     36       43       42       41       53
     125     36       43       42       41       54
     126      4       43       44       45       46
     127     33       43       44       45       57
     128      4       43       44       52       51
     129     33       43       44       52       64
     130     10       44       43       42       55
     131     10       44       43       42       56
     132      7       44       45       46       47
     133      8       44       45       46       58
     134      7       44       52       51       47
     135      8       44       52       51       63
     136      3       45       44       52       51
     137      5       45       44       52       64
     138      4       45       46       47       48
     139      3       45       46       47       51
     140      3       46       45       44       52
     141      6       46       47       48       49
     142      3       46       47       51       52
     143      5       46       47       51       63
     144      8       47       46       45       57
     145      9       47       48       49       50
     146     10       47       48       49       59
     147     10       47       48       49       60
     148      8       47       51       52       64
     149     33       48       47       46       58
     150      4       48       47       51       52
     151     33       48       47       51       63
     152     36       48       49       50       61
     153     36       48       49       50       62
     154     22       48       49       50       65
     155      6       49       48       47       51
     156     11       49       50       65       66
     157     14       49       50       65       77
     158     14       49       50       65       78
     159     22       50       65       66       67
     160     21       50       65       66       79
     161     21       50       65       66       80
     162      5       51       47       46       58
     163      5       52       44       45       57
     164     34       53       41       42       55
     165     34       53       41       42       56
     166     34       54       41       42       55
     167     34       54       41       42       56
     168     32       57       45       46       58
     169     34       59       49       50       61
     170     34       59       49       50       62
     171     21       59       49       50       65
     172     34       60       49       50       61
     173     34       60       49       50       62
     174     21       60       49       50       65
     175     14       61       50       65       66
     176     38       61       50       65       77
     177     38       61       50       65       78
     178     14       62       50       65       66
     179     38       62       50       65       77
     180     38       62       50       65       78
     181     32       63       51       52       64
     182      9       65       66       67       68
     183      6       66       67       68       69
     184      6       66       67       68       76
     185     36       67       66       65       77
     186     36       67       66       65       78
     187      4       67       68       69       70
     188     33       67       68       69       81
     189      4       67       68       76       75
     190     33       67       68       76       88
     191     10       68       67       66       79
     192     10       68       67       66       80
     193      7       68       69       70       71
     194      8       68       69       70       82
     195      7       68       76       75       71
     196      8       68       76       75       87
     197      3       69       68       76       75
     198      5       69       68       76       88
     199      4       69       70       71       72
     200      3       69       70       71       75
     201      3       70       69       68       76
     202      6       70       71       72       73
     203      3       70       71       75       76
     204      5       70       71       75       87
     205      8       71       70       69       81
     206      9       71       72       73       74
     207     10       71       72       73       83
     208     10       71       72       73       84
     209      8       71       75       76       88
     210     33       72       71       70       82
     211      4       72       71       75       76
     212     33       72       71       75       87
     213     36       72       73       74       85
     214     36       72       73       74       86
     215     22       72       73       74       89
     216      6       73       72       71       75
     217     11       73       74       89       90
     218     14       73       74       89      101
     219     14       73       74       89      102
     220     22       74       89       90       91
     221     21       74       89       90      103
     222     21       74       89       90      104
     223      5       75       71       70       82
     224      5       76       68       69       81
     225     34       77       65       66       79
     226     34       77       65       66       80
     227     34       78       65       66       79
     228     34       78       65       66       80
     229     32       81       69       70       82
     230     34       83       73       74       85
     231     34       83       73       74       86
     232     21       83       73       74       89
     233     34       84       73       74       85
     234     34       84       73       74       86
     235     21       84       73       74       89
     236     14       85       74       89       90
     237     38       85       74       89      101
     238     38       85       74       89      102
     239     14       86       74       89       90
     240     38       86       74       89      101
     241     38       86       74       89      102
     242     32       87       75       76       88
     243      9       89       90       91       92
     244      6       90       91       92       93
     245      6       90       91       92      100
     246     36       91       90       89      101
     247     36       91       90       89      102
     248      4       91       92       93       94
     249     33       91       92       93      105
     250      4       91       92      100       99
     251     33       91       92      100      112
     252     10       92       91       90      103
     253     10       92       91       90      104
     254      7       92       93       94       95
     255      8       92       93       94      106
     256      7       92      100       99       95
     257      8       92      100       99      111
     258      3       93       92      100       99
     259      5       93       92      100      112
     260      4       93       94       95       96
     261      3       93       94       95       99
     262      3       94       93       92      100
     263      6       94       95       96       97
     264      3       94       95       99      100
     265      5       94       95       99      111
     266      8       95       94       93      105
     267      9       95       96       97       98
     268     10       95       96       97      107
     269     10       95       96       97      108
     270      8       95       99      100      112
     271     33       96       95       94      106
     272      4       96       95       99      100
     273     33       96       95       99      111
     274     36       96       97       98      109
     275     36       96       97       98      110
     276     22       96       97       98      113
     277      6       97       96       95       99
     278     11       97       98      113      114
     279     14       97       98      113      125
     280     14       97       98      113      126
     281     22       98      113      114      115
     282     21       98      113      114      127
     283     21       98      113      114      128
     284      5       99       95       94      106
     285      5      100       92       93      105
     286     34      101       89       90      103
     287     34      101       89       90      104
     288     34      102       89       90      103
     289     34      102       89       90      104
     290     32      105       93       94      106
     291     34      107       97       98      109
     292     34      107       97       98      110
     293     21      107       97       98      113
     294     34      108       97       98      109
     295     34      108       97       98      110
     296     21      108       97       98      113
     297     14      109       98      113      114
     298     38      109       98      113      125
     299     38      109       98      113      126
     300     14      110       98      113      114
     301     38      110       98      113      125
     302     38      110       98      113      126
     303     32      111       99      100      112
     304      9      113      114      115      116
     305      6      114      115      116      117
     306      6      114      115      116      124
     307     36      115      114      113      125
     308     36      115      114      113      126
     309      4      115      116      117      118
     310     33      115      116      117      129
     311      4      115      116      124      123
     312     33      115      116      124      136
     313     10      116      115      114      127
     314     10      116      115      114      128
     315      7      116      117      118      119
     316      8      116      117      118      130
     317      7      116      124      123      119
     318      8      116      124      123      135
     319      3      117      116      124      123
     320      5      117      116      124      136
     321      4      117      118      119      120
     322      3      117      118      119      123
     323      3      118      117      116      124
     324      6      118      119      120      121
     325      3      118      119      123      124
     326      5      118      119      123      135
     327      8      119      118      117      129
     328      9      119      120      121      122
     329     10      119      120      121      131
     330     10      119      120      121      132
     331      8      119      123      124      136
     332     33      120      119      118      130
     333      4      120      119      123      124
     334     33      120      119      123      135
     335     36      120      121      122      133
     336     36      120      121      122      134
     337     22      120      121      122      137
     338      6      121      120      119      123
     339     11      121      122      137      138
     340     14      121      122      137      149
     341     14      121      122      137      150
     342     22      122      137      138      139
     343     21      122      137      138      151
     344     21      122      137      138      152
     345      5      123      119      118      130
     346      5      124      116      117      129
     347     34      125      113      114      127
     348     34      125      113      114      128
     349     34      126      113      114      127
     350     34      126      113      114      128
     351     32      129      117      118      130
     352     34      131      121      122      133
     353     34      131      121      122      134
     354     21      131      121      122      137
     355     34      132      121      122      133
     356     34      132      121      122      134
     357     21      132      121      122      137
     358     14      133      122      137      138
     359     38      133      122      137      149
     360     38      133      122      137      150
     361     14      134      122      137      138
     362     38      134      122      137      149
     363     38      134      122      137      150
     364     32      135      123      124      136
     365      9      137      138      139      140
     366      6      138      139      140      141
     367      6      138      139      140      148
     368     36      139      138      137      149
     369     36      139      138      137      150
     370      4      139      140      141      142
     371     33      139      140      141      153
     372      4      139      140      148      147
     373     33      139      140      148      160
     374     10      140      139      138      151
     375     10      140      139      138      152
     376      7      140      141      142      143
     377      8      140      141      142      154
     378      7      140      148      147      143
     379      8      140      148      147      159
     380      3      141      140      148      147
     381      5      141      140      148      160
     382      4      141      142      143      144
     383      3      141      142      143      147
     384      3      142      141      140      148
     385      6      142      143      144      145
     386      3      142      143      147      148
     387      5      142      143      147      159
     388      8      143      142      141      153
     389      9      143      144      145      146
     390     10      143      144      145      155
     391     10      143      144      145      156
     392      8      143      147      148      160
     393     33      144      143      142      154
     394      4      144      143      147      148
     395     33      144      143      147      159
     396     36      144      145      146      157
     397     36      144      145      146      158
     398     22      144      145      146      161
     399      6      145      144      143      147
     400     11      145      146      161      162
     401     14      145      146      161      173
     402     14      145      146      161      174
     403     22      146      161      162      163
     404     21      146      161      162      175
     405     21      146      161      162      176
     406      5      147      143      142      154
     407      5      148      140      141      153
     408     34      149      137      138      151
     409     34      149      137      138      152
     410     34      150      137      138      151
     411     34      150      137      138      152
     412     32      153      141      142      154
     413     34      155      145      146      157
     414     34      155      145      146      158
     415     21      155      145      146      161
     416     34      156      145      146      157
     417     34      156      145      146      158
     418     21      156      145      146      161
     419     14      157      146      161      162
     420     38      157      146      161      173
     421     38      157      146      161      174
     422     14      158      146      161      162
     423     38      158      146      161      173
     424     38      158      146      161      174
     425     32      159      147      148      160
     426      9      161      162      163      164
     427      6      162      163      164      165
     428      6      162      163      164      172
     429     36      163      162      161      173
     430     36      163      162      161      174
     431      4      163      164      165      166
     432     33      163      164      165      177
     433      4      163      164      172      171
     434     33      163      164      172      184
     435     10      164      163      162      175
     436     10      164      163      162      176
     437      7      164      165      166      167
     438      8      164      165      166      178
     439      7      164      172      171      167
     440      8      164      172      171      183
     441      3      165      164      172      171
     442      5      165      164      172      184
     443      4      165      166      167      168
     444      3      165      166      167      171
     445      3      166      165      164      172
     446      6      166      167      168      169
     447      3      166      167      171      172
     448      5      166      167      171      183
     449      8      167      166      165      177
     450      9      167      168      169      170
     451     10      167      168      169      179
     452     10      167      168      169      180
     453      8      167      171      172      184
     454     33      168      167      166      178
     455      4      168      167      171      172
     456     33      168      167      171      183
     457     36      168      169      170      181
     458     36      168      169      170      182
     459     22      168      169      170      185
     460      6      169      168      167      171
     461     11      169      170      185      186
     462     14      169      170      185      197
     463     14      169      170      185      198
     464     22      170      185      186      187
     465     21      170      185      186      199
     466     21      170      185      186      200
     467      5      171      167      166      178
     468      5      172      164      165      177
     469     34      173      161      162      175
     470     34      173      161      162      176
     471     34      174      161      162      175
     472     34      174      161      162      176
     473     32      177      165      166      178
     474     34      179      169      170      181
     475     34      179      169      170      182
     476     21      179      169      170      185
     477     34      180      169      170      181
     478     34      180      169      170      182
     479     21      180      169      170      185
     480     14      181      170      185      186
     481     38      181      170      185      197
     482     38      181      170      185      198
     483     14      182      170      185      186
     484     38      182      170      185      197
     485     38      182      170      185      198
     486     32      183      171      172      184
     487      9      185      186      187      188
     488      6      186      187      188      189
     489      6      186      187      188      196
     490     36      187      186      185      197
     491     36      187      186      185      198
     492      4      187      188      189      190
     493     33      187      188      189      201
     494      4      187      188      196      195
     495     33      187      188      196      208
     496     10      188      187      186      199
     497     10      188      187      186      200
     498      7      188      189      190      191
     499      8      188      189      190      202
     500      7      188      196      195      191
     501      8      188      196      195      207
     502      3      189      188      196      195
     503      5      189      188      196      208
     504      4      189      190      191      192
     505      3      189      190      191      195
     506      3      190      189      188      196
     507      6      190      191      192      193
     508      3      190      191      195      196
     509      5      190      191      195      207
     510      8      191      190      189      201
     511      9      191      192      193      194
     512     10      191      192      193      203
     513     10      191      192      193      204
     514      8      191      195      196      208
     515     33      192      191      190      202
     516      4      192      191      195      196
     517     33      192      191      195      207
     518     36      192      193      194      205
     519     36      192      193      194      206
     520     22      192      193      194      209
     521      6      193      192      191      195
     522     11      193      194      209      210
     523     14      193      194      209      221
     524     14      193      194      209      222
     525     22      194      209      210      211
     526     21      194      209      210      223
     527     21      194      209      210      224
     528      5      195      191      190      202
     529      5      196      188      189      201
     530     34      197      185      186      199
     531     34      197      185      186      200
     532     34      198      185      186      199
     533     34      198      185      186      200
     534     32      201      189      190      202
     535     34      203      193      194      205
     536     34      203      193      194      206
     537     21      203      193      194      209
     538     34      204      193      194      205
     539     34      204      193      194      206
     540     21      204      193      194      209
     541     14      205      194      209      210
     542     38      205      194      209      221
     543     38      205      194      209      222
     544     14      206      194      209      210
     545     38      206      194      209      221
     546     38      206      194      209      222
     547     32      207      195      196      208
     548      9      209      210      211      212
     549      6      210      211      212      213
     550      6      210      211      212      220
     551     36      211      210      209      221
     552     36      211      210      209      222
     553      4      211      212      213      214
     554     33      211      212      213      225
     555      4      211      212      220      219
     556     33      211      212      220      232
     557     10      212      211      210      223
     558     10      212      211      210      224
     559      7      212      213      214      215
     560      8      212      213      214      226
     561      7      212      220      219      215
     562      8      212      220      219      231
     563      3      213      212      220      219
     564      5      213      212      220      232
     565      4      213      214      215      216
     566      3      213      214      215      219
     567      3      214      213      212      220
     568      6      214      215      216      217
     569      3      214      215      219      220
     570      5      214      215      219      231
     571      8      215      214      213      225
     572      9      215      216      217      218
     573     10      215      216      217      227
     574     10      215      216      217      228
     575      8      215      219      220      232
     576     33      216      215      214      226
     577      4      216      215      219      220
     578     33      216      215      219      231
     579     36      216      217      218      229
     580     36      216      217      218      230
     581     22      216      217      218      233
     582      6      217      216      215      219
     583     11      217      218      233      234
     584     14      217      218      233      245
     585     14      217      218      233      246
     586     22      218      233      234      235
     587     21      218      233      234      247
     588     21      218      233      234      248
     589      5      219      215      214      226
     590      5      220      212      213      225
     591     34      221      209      210      223
     592     34      221      209      210      224
     593     34      222      209      210      223
     594     34      222      209      210      224
     595     32      225      213      214      226
     596     34      227      217      218      229
     597     34      227      217      218      230
     598     21      227      217      218      233
     599     34      228      217      218      229
     600     34      228      217      218      230
     601     21      228      217      218      233
     602     14      229      218      233      234
     603     38      229      218      233      245
     604     38      229      218      233      246
     605     14      230      218      233      234
     606     38      230      218      233      245
     607     38      230      218      233      246
     608     32      231      219      220      232
     609      9      233      234      235      236
     610      6      234      235      236      237
     611      6      234      235      236      244
     612     36      235      234      233      245
     613     36      235      234      233      246
     614      4      235      236      237      238
     615     33      235      236      237      249
     616      4      235      236      244      243
     617     33      235      236      244      256
     618     10      236      235      234      247
     619     10      236      235      234      248
     620      7      236      237      238      239
     621      8      236      237      238      250
     622      7      236      244      243      239
     623      8      236      244      243      255
     624      3      237      236      244      243
     625      5      237      236      244      256
     626      4      237      238      239      240
     627      3      237      238      239      243
     628      3      238      237      236      244
     629      6      238      239      240      241
     630      3      238      239      243      244
     631      5      238      239      243      255
     632      8      239      238      237      249
     633      9      239      240      241      242
     634     10      239      240      241      251
     635     10      239      240      241      252
     636      8      239      243      244      256
     637     33      240      239      238      250
     638      4      240      239      243      244
     639     33      240      239      243      255
     640     36      240      241      242      253
     641     36      240      241      242      254
     642     22      240      241      242      257
     643      6      241      240      239      243
     644     11      241      242      257      258
     645     14      241      242      257      269
     646     14      241      242      257      270
     647     22      242      257      258      259
     648     21      242      257      258      271
     649     21      242      257      258      272
     650      5      243      239      238      250
     651      5      244      236      237      249
     652     34      245      233      234      247
     653     34      245      233      234      248
     654     34      246      233      234      247
     655     34      246      233      234      248
     656     32      249      237      238      250
     657     34      251      241      242      253
     658     34      251      241      242      254
     659     21      251      241      242      257
     660     34      252      241      242      253
     661     34      252      241      242      254
     662     21      252      241      242      257
     663     14      253      242      257      258
     664     38      253      242      257      269
     665     38      253      242      257      270
     666     14      254      242      257      258
     667     38      254      242      257      269
     668     38      254      242      257      270
     669     32      255      243      244      256
     670      9      257      258      259      260
     671      6      258      259      260      261
     672      6      258      259      260      268
     673     36      259      258      257      269
     674     36      259      258      257      270
     675      4      259      260      261      262
     676     33      259      260      261      273
     677      4      259      260      268      267
     678     33      259      260      268      280
     679     10      260      259      258      271
     680     10      260      259      258      272
     681      7      260      261      262      263
     682      8      260      261      262      274
     683      7      260      268      267      263
     684      8      260      268      267      279
     685      3      261      260      268      267
     686      5      261      260      268      280
     687      4      261      262      263      264
     688      3      261      262      263      267
     689      3      262      261      260      268
     690      6      262      263      264      265
     691      3      262      263      267      268
     692      5      262      263      267      279
     693      8      263      262      261      273
     694      9      263      264      265      266
     695     10      263      264      265      275
     696     10      263      264      265      276
     697      8      263      267      268      280
     698     33      264      263      262      274
     699      4      264      263      267      268
     700     33      264      263      267      279
     701     36      264      265      266      277
     702     36      264      265      266      278
     703     22      264      265      266      882
     704      6      265      264      263      267
     705     12      265      266      882      881
     706     14      265      266      882      886
     707     14      265      266      882      887
     708     25      266      882      881      883
     709     25      266      882      881      884
     710     26      266      882      881      885
     711      5      267      263      262      274
     712      5      268      260      261      273
     713     34      269      257      258      271
     714     34      269      257      258      272
     715     34      270      257      258      271
     716     34      270      257      258      272
     717     32      273      261      262      274
     718     34      275      265      266      277
     719     34      275      265      266      278
     720     21      275      265      266      882
     721     34      276      265      266      277
     722     34      276      265      266      278
     723     21      276      265      266      882
     724     30      277      266      882      881
     725     38      277      266      882      886
     726     38      277      266      882      887
     727     30      278      266      882      881
     728     38      278      266      882      886
     729     38      278      266      882      887
     730     32      279      267      268      280
     731      9      281      282      283      284
     732     25      281      884      881      882
     733     25      281      884      881      883
     734     26      281      884      881      885
     735     12      282      281      884      881
     736     14      282      281      884      890
     737     14      282      281      884      891
     738      6      282      283      284      285
     739      6      282      283      284      292
     740     36      283      282      281      293
     741     36      283      282      281      294
     742     22      283      282      281      884
     743      4      283      284      285      286
     744     33      283      284      285      297
     745      4      283      284      292      291
     746     33      283      284      292      304
     747     10      284      283      282      295
     748     10      284      283      282      296
     749      7      284      285      286      287
     750      8      284      285      286      298
     751      7      284      292      291      287
     752      8      284      292      291      303
     753      3      285      284      292      291
     754      5      285      284      292      304
     755      4      285      286      287      288
     756      3      285      286      287      291
     757      3      286      285      284      292
     758      6      286      287      288      289
     759      3      286      287      291      292
     760      5      286      287      291      303
     761      8      287      286      285      297
     762      9      287      288      289      290
     763     10      287      288      289      299
     764     10      287      288      289      300
     765      8      287      291      292      304
     766     33      288      287      286      298
     767      4      288      287      291      292
     768     33      288      287      291      303
     769     36      288      289      290      301
     770     36      288      289      290      302
     771     22      288      289      290      305
     772      6      289      288      287      291
     773     11      289      290      305      306
     774     14      289      290      305      317
     775     14      289      290      305      318
     776     22      290      305      306      307
     777     21      290      305      306      319
     778     21      290      305      306      320
     779      5      291      287      286      298
     780      5      292      284      285      297
     781     34      293      281      282      295
     782     34      293      281      282      296
     783     30      293      281      884      881
     784     38      293      281      884      890
     785     38      293      281      884      891
     786     34      294      281      282      295
     787     34      294      281      282      296
     788     30      294      281      884      881
     789     38      294      281      884      890
     790     38      294      281      884      891
     791     21      295      282      281      884
     792     21      296      282      281      884
     793     32      297      285      286      298
     794     34      299      289      290      301
     795     34      299      289      290      302
     796     21      299      289      290      305
     797     34      300      289      290      301
     798     34      300      289      290      302
     799     21      300      289      290      305
     800     14      301      290      305      306
     801     38      301      290      305      317
     802     38      301      290      305      318
     803     14      302      290      305      306
     804     38      302      290      305      317
     805     38      302      290      305      318
     806     32      303      291      292      304
     807      9      305      306      307      308
     808      6      306      307      308      309
     809      6      306      307      308      316
     810     36      307      306      305      317
     811     36      307      306      305      318
     812      4      307      308      309      310
     813     33      307      308      309      321
     814      4      307      308      316      315
     815     33      307      308      316      328
     816     10      308      307      306      319
     817     10      308      307      306      320
     818      7      308      309      310      311
     819      8      308      309      310      322
     820      7      308      316      315      311
     821      8      308      316      315      327
     822      3      309      308      316      315
     823      5      309      308      316      328
     824      4      309      310      311      312
     825      3      309      310      311      315
     826      3      310      309      308      316
     827      6      310      311      312      313
     828      3      310      311      315      316
     829      5      310      311      315      327
     830      8      311      310      309      321
     831      9      311      312      313      314
     832     10      311      312      313      323
     833     10      311      312      313      324
     834      8      311      315      316      328
     835     33      312      311      310      322
     836      4      312      311      315      316
     837     33      312      311      315      327
     838     36      312      313      314      325
     839     36      312      313      314      326
     840     22      312      313      314      329
     841      6      313      312      311      315
     842     11      313      314      329      330
     843     14      313      314      329      341
     844     14      313      314      329      342
     845     22      314      329      330      331
     846     21      314      329      330      343
     847     21      314      329      330      344
     848      5      315      311      310      322
     849      5      316      308      309      321
     850     34      317      305      306      319
     851     34      317      305      306      320
     852     34      318      305      306      319
     853     34      318      305      306      320
     854     32      321      309      310      322
     855     34      323      313      314      325
     856     34      323      313      314      326
     857     21      323      313      314      329
     858     34      324      313      314      325
     859     34      324      313      314      326
     860     21      324      313      314      329
     861     14      325      314      329      330
     862     38      325      314      329      341
     863     38      325      314      329      342
     864     14      326      314      329      330
     865     38      326      314      329      341
     866     38      326      314      329      342
     867     32      327      315      316      328
     868      9      329      330      331      332
     869      6      330      331      332      333
     870      6      330      331      332      340
     871     36      331      330      329      341
     872     36      331      330      329      342
     873      4      331      332      333      334
     874     33      331      332      333      345
     875      4      331      332      340      339
     876     33      331      332      340      352
     877     10      332      331      330      343
     878     10      332      331      330      344
     879      7      332      333      334      335
     880      8      332      333      334      346
     881      7      332      340      339      335
     882      8      332      340      339      351
     883      3      333      332      340      339
     884      5      333      332      340      352
     885      4      333      334      335      336
     886      3      333      334      335      339
     887      3      334      333      332      340
     888      6      334      335      336      337
     889      3      334      335      339      340
     890      5      334      335      339      351
     891      8      335      334      333      345
     892      9      335      336      337      338
     893     10      335      336      337      347
     894     10      335      336      337      348
     895      8      335      339      340      352
     896     33      336      335      334      346
     897      4      336      335      339      340
     898     33      336      335      339      351
     899     36      336      337      338      349
     900     36      336      337      338      350
     901     22      336      337      338      353
     902      6      337      336      335      339
     903     11      337      338      353      354
     904     14      337      338      353      365
     905     14      337      338      353      366
     906     22      338      353      354      355
     907     21      338      353      354      367
     908     21      338      353      354      368
     909      5      339      335      334      346
     910      5      340      332      333      345
     911     34      341      329      330      343
     912     34      341      329      330      344
     913     34      342      329      330      343
     914     34      342      329      330      344
     915     32      345      333      334      346
     916     34      347      337      338      349
     917     34      347      337      338      350
     918     21      347      337      338      353
     919     34      348      337      338      349
     920     34      348      337      338      350
     921     21      348      337      338      353
     922     14      349      338      353      354
     923     38      349      338      353      365
     924     38      349      338      353      366
     925     14      350      338      353      354
     926     38      350      338      353      365
     927     38      350      338      353      366
     928     32      351      339      340      352
     929      9      353      354      355      356
     930      6      354      355      356      357
     931      6      354      355      356      364
     932     36      355      354      353      365
     933     36      355      354      353      366
     934      4      355      356      357      358
     935     33      355      356      357      369
     936      4      355      356      364      363
     937     33      355      356      364      376
     938     10      356      355      354      367
     939     10      356      355      354      368
     940      7      356      357      358      359
     941      8      356      357      358      370
     942      7      356      364      363      359
     943      8      356      364      363      375
     944      3      357      356      364      363
     945      5      357      356      364      376
     946      4      357      358      359      360
     947      3      357      358      359      363
     948      3      358      357      356      364
     949      6      358      359      360      361
     950      3      358      359      363      364
     951      5      358      359      363      375
     952      8      359      358      357      369
     953      9      359      360      361      362
     954     10      359      360      361      371
     955     10      359      360      361      372
     956      8      359      363      364      376
     957     33      360      359      358      370
     958      4      360      359      363      364
     959     33      360      359      363      375
     960     36      360      361      362      373
     961     36      360      361      362      374
     962     22      360      361      362      377
     963      6      361      360      359      363
     964     11      361      362      377      378
     965     14      361      362      377      389
     966     14      361      362      377      390
     967     22      362      377      378      379
     968     21      362      377      378      391
     969     21      362      377      378      392
     970      5      363      359      358      370
     971      5      364      356      357      369
     972     34      365      353      354      367
     973     34      365      353      354      368
     974     34      366      353      354      367
     975     34      366      353      354      368
     976     32      369      357      358      370
     977     34      371      361      362      373
     978     34      371      361      362      374
     979     21      371      361      362      377
     980     34      372      361      362      373
     981     34      372      361      362      374
     982     21      372      361      362      377
     983     14      373      362      377      378
     984     38      373      362      377      389
     985     38      373      362      377      390
     986     14      374      362      377      378
     987     38      374      362      377      389
     988     38      374      362      377      390
     989     32      375      363      364      376
     990      9      377      378      379      380
     991      6      378      379      380      381
     992      6      378      379      380      388
     993     36      379      378      377      389
     994     36      379      378      377      390
     995      4      379      380      381      382
     996     33      379      380      381      393
     997      4      379      380      388      387
     998     33      379      380      388      400
     999     10      380      379      378      391
    1000     10      380      379      378      392
    1001      7      380      381      382      383
    1002      8      380      381      382      394
    1003      7      380      388      387      383
    1004      8      380      388      387      399
    1005      3      381      380      388      387
    1006      5      381      380      388      400
    1007      4      381      382      383      384
    1008      3      381      382      383      387
    1009      3      382      381      380      388
    1010      6      382      383      384      385
    1011      3      382      383      387      388
    1012      5      382      383      387      399
    1013      8      383      382      381      393
    1014      9      383      384      385      386
    1015     10      383      384      385      395
    1016     10      383      384      385      396
    1017      8      383      387      388      400
    1018     33      384      383      382      394
    1019      4      384      383      387      388
    1020     33      384      383      387      399
    1021     36      384      385      386      397
    1022     36      384      385      386      398
    1023     22      384      385      386      401
    1024      6      385      384      383      387
    1025     11      385      386      401      402
    1026     14      385      386      401      413
    1027     14      385      386      401      414
    1028     22      386      401      402      403
    1029     21      386      401      402      415
    1030     21      386      401      402      416
    1031      5      387      383      382      394
    1032      5      388      380      381      393
    1033     34      389      377      378      391
    1034     34      389      377      378      392
    1035     34      390      377      378      391
    1036     34      390      377      378      392
    1037     32      393      381      382      394
    1038     34      395      385      386      397
    1039     34      395      385      386      398
    1040     21      395      385      386      401
    1041     34      396      385      386      397
    1042     34      396      385      386      398
    1043     21      396      385      386      401
    1044     14      397      386      401      402
    1045     38      397      386      401      413
    1046     38      397      386      401      414
    1047     14      398      386      401      402
    1048     38      398      386      401      413
    1049     38      398      386      401      414
    1050     32      399      387      388      400
    1051      9      401      402      403      404
    1052      6      402      403      404      405
    1053      6      402      403      404      412
    1054     36      403      402      401      413
    1055     36      403      402      401      414
    1056      4      403      404      405      406
    1057     33      403      404      405      417
    1058      4      403      404      412      411
    1059     33      403      404      412      424
    1060     10      404      403      402      415
    1061     10      404      403      402      416
    1062      7      404      405      406      407
    1063      8      404      405      406      418
    1064      7      404      412      411      407
    1065      8      404      412      411      423
    1066      3      405      404      412      411
    1067      5      405      404      412      424
    1068      4      405      406      407      408
    1069      3      405      406      407      411
    1070      3      406      405      404      412
    1071      6      406      407      408      409
    1072      3      406      407      411      412
    1073      5      406      407      411      423
    1074      8      407      406      405      417
    1075      9      407      408      409      410
    1076     10      407      408      409      419
    1077     10      407      408      409      420
    1078      8      407      411      412      424
    1079     33      408      407      406      418
    1080      4      408      407      411      412
    1081     33      408      407      411      423
    1082     36      408      409      410      421
    1083     36      408      409      410      422
    1084     22      408      409      410      425
    1085      6      409      408      407      411
    1086     11      409      410      425      426
    1087     14      409      410      425      437
    1088     14      409      410      425      438
    1089     22      410      425      426      427
    1090     21      410      425      426      439
    1091     21      410      425      426      440
    1092      5      411      407      406      418
    1093      5      412      404      405      417
    1094     34      413      401      402      415
    1095     34      413      401      402      416
    1096     34      414      401      402      415
    1097     34      414      401      402      416
    1098     32      417      405      406      418
    1099     34      419      409      410      421
    1100     34      419      409      410      422
    1101     21      419      409      410      425
    1102     34      420      409      410      421
    1103     34      420      409      410      422
    1104     21      420      409      410      425
    1105     14      421      410      425      426
    1106     38      421      410      425      437
    1107     38      421      410      425      438
    1108     14      422      410      425      426
    1109     38      422      410      425      437
    1110     38      422      410      425      438
    1111     32      423      411      412      424
    1112      9      425      426      427      428
    1113      6      426      427      428      429
    1114      6      426      427      428      436
    1115     36      427      426      425      437
    1116     36      427      426      425      438
    1117      4      427      428      429      430
    1118     33      427      428      429      441
    1119      4      427      428      436      435
    1120     33      427      428      436      448
    1121     10      428      427      426      439
    1122     10      428      427      426      440
    1123      7      428      429      430      431
    1124      8      428      429      430      442
    1125      7      428      436      435      431
    1126      8      428      436      435      447
    1127      3      429      428      436      435
    1128      5      429      428      436      448
    1129      4      429      430      431      432
    1130      3      429      430      431      435
    1131      3      430      429      428      436
    1132      6      430      431      432      433
    1133      3      430      431      435      436
    1134      5      430      431      435      447
    1135      8      431      430      429      441
    1136      9      431      432      433      434
    1137     10      431      432      433      443
    1138     10      431      432      433      444
    1139      8      431      435      436      448
    1140     33      432      431      430      442
    1141      4      432      431      435      436
    1142     33      432      431      435      447
    1143     36      432      433      434      445
    1144     36      432      433      434      446
    1145     22      432      433      434      449
    1146      6      433      432      431      435
    1147     11      433      434      449      450
    1148     14      433      434      449      461
    1149     14      433      434      449      462
    1150     22      434      449      450      451
    1151     21      434      449      450      463
    1152     21      434      449      450      464
    1153      5      435      431      430      442
    1154      5      436      428      429      441
    1155     34      437      425      426      439
    1156     34      437      425      426      440
    1157     34      438      425      426      439
    1158     34      438      425      426      440
    1159     32      441      429      430      442
    1160     34      443      433      434      445
    1161     34      443      433      434      446
    1162     21      443      433      434      449
    1163     34      444      433      434      445
    1164     34      444      433      434      446
    1165     21      444      433      434      449
    1166     14      445      434      449      450
    1167     38      445      434      449      461
    1168     38      445      434      449      462
    1169     14      446      434      449      450
    1170     38      446      434      449      461
    1171     38      446      434      449      462
    1172     32      447      435      436      448
    1173      9      449      450      451      452
    1174      6      450      451      452      453
    1175      6      450      451      452      460
    1176     36      451      450      449      461
    1177     36      451      450      449      462
    1178      4      451      452      453      454
    1179     33      451      452      453      465
    1180      4      451      452      460      459
    1181     33      451      452      460      472
    1182     10      452      451      450      463
    1183     10      452      451      450      464
    1184      7      452      453      454      455
    1185      8      452      453      454      466
    1186      7      452      460      459      455
    1187      8      452      460      459      471
    1188      3      453      452      460      459
    1189      5      453      452      460      472
    1190      4      453      454      455      456
    1191      3      453      454      455      459
    1192      3      454      453      452      460
    1193      6      454      455      456      457
    1194      3      454      455      459      460
    1195      5      454      455      459      471
    1196      8      455      454      453      465
    1197      9      455      456      457      458
    1198     10      455      456      457      467
    1199     10      455      456      457      468
    1200      8      455      459      460      472
    1201     33      456      455      454      466
    1202      4      456      455      459      460
    1203     33      456      455      459      471
    1204     36      456      457      458      469
    1205     36      456      457      458      470
    1206     22      456      457      458      473
    1207      6      457      456      455      459
    1208     11      457      458      473      474
    1209     14      457      458      473      485
    1210     14      457      458      473      486
    1211     22      458      473      474      475
    1212     21      458      473      474      487
    1213     21      458      473      474      488
    1214      5      459      455      454      466
    1215      5      460      452      453      465
    1216     34      461      449      450      463
    1217     34      461      449      450      464
    1218     34      462      449      450      463
    1219     34      462      449      450      464
    1220     32      465      453      454      466
    1221     34      467      457      458      469
    1222     34      467      457      458      470
    1223     21      467      457      458      473
    1224     34      468      457      458      469
    1225     34      468      457      458      470
    1226     21      468      457      458      473
    1227     14      469      458      473      474
    1228     38      469      458      473      485
    1229     38      469      458      473      486
    1230     14      470      458      473      474
    1231     38      470      458      473      485
    1232     38      470      458      473      486
    1233     32      471      459      460      472
    1234      9      473      474      475      476
    1235      6      474      475      476      477
    1236      6      474      475      476      484
    1237     36      475      474      473      485
    1238     36      475      474      473      486
    1239      4      475      476      477      478
    1240     33      475      476      477      489
    1241      4      475      476      484      483
    1242     33      475      476      484      496
    1243     10      476      475      474      487
    1244     10      476      475      474      488
    1245      7      476      477      478      479
    1246      8      476      477      478      490
    1247      7      476      484      483      479
    1248      8      476      484      483      495
    1249      3      477      476      484      483
    1250      5      477      476      484      496
    1251      4      477      478      479      480
    1252      3      477      478      479      483
    1253      3      478      477      476      484
    1254      6      478      479      480      481
    1255      3      478      479      483      484
    1256      5      478      479      483      495
    1257      8      479      478      477      489
    1258      9      479      480      481      482
    1259     10      479      480      481      491
    1260     10      479      480      481      492
    1261      8      479      483      484      496
    1262     33      480      479      478      490
    1263      4      480      479      483      484
    1264     33      480      479      483      495
    1265     36      480      481      482      493
    1266     36      480      481      482      494
    1267     22      480      481      482      893
    1268      6      481      480      479      483
    1269     12      481      482      893      892
    1270     14      481      482      893      897
    1271     14      481      482      893      898
    1272     25      482      893      892      894
    1273     25      482      893      892      895
    1274     26      482      893      892      896
    1275      5      483      479      478      490
    1276      5      484      476      477      489
    1277     34      485      473      474      487
    1278     34      485      473      474      488
    1279     34      486      473      474      487
    1280     34      486      473      474      488
    1281     32      489      477      478      490
    1282     34      491      481      482      493
    1283     34      491      481      482      494
    1284     21      491      481      482      893
    1285     34      492      481      482      493
    1286     34      492      481      482      494
    1287     21      492      481      482      893
    1288     30      493      482      893      892
    1289     38      493      482      893      897
    1290     38      493      482      893      898
    1291     30      494      482      893      892
    1292     38      494      482      893      897
    1293     38      494      482      893      898
    1294     32      495      483      484      496
    1295      9      497      498      499      500
    1296     25      497      895      892      893
    1297     25      497      895      892      894
    1298     26      497      895      892      896
    1299     12      498      497      895      892
    1300     14      498      497      895      901
    1301     14      498      497      895      902
    1302      6      498      499      500      501
    1303      6      498      499      500      508
    1304     36      499      498      497      509
    1305     36      499      498      497      510
    1306     22      499      498      497      895
    1307      4      499      500      501      502
    1308     33      499      500      501      513
    1309      4      499      500      508      507
    1310     33      499      500      508      520
    1311     10      500      499      498      511
    1312     10      500      499      498      512
    1313      7      500      501      502      503
    1314      8      500      501      502      514
    1315      7      500      508      507      503
    1316      8      500      508      507      519
    1317      3      501      500      508      507
    1318      5      501      500      508      520
    1319      4      501      502      503      504
    1320      3      501      502      503      507
    1321      3      502      501      500      508
    1322      6      502      503      504      505
    1323      3      502      503      507      508
    1324      5      502      503      507      519
    1325      8      503      502      501      513
    1326      9      503      504      505      506
    1327     10      503      504      505      515
    1328     10      503      504      505      516
    1329      8      503      507      508      520
    1330     33      504      503      502      514
    1331      4      504      503      507      508
    1332     33      504      503      507      519
    1333     36      504      505      506      517
    1334     36      504      505      506      518
    1335     22      504      505      506      521
    1336      6      505      504      503      507
    1337     11      505      506      521      522
    1338     14      505      506      521      533
    1339     14      505      506      521      534
    1340     22      506      521      522      523
    1341     21      506      521      522      535
    1342     21      506      521      522      536
    1343      5      507      503      502      514
    1344      5      508      500      501      513
    1345     34      509      497      498      511
    1346     34      509      497      498      512
    1347     30      509      497      895      892
    1348     38      509      497      895      901
    1349     38      509      497      895      902
    1350     34      510      497      498      511
    1351     34      510      497      498      512
    1352     30      510      497      895      892
    1353     38      510      497      895      901
    1354     38      510      497      895      902
    1355     21      511      498      497      895
    1356     21      512      498      497      895
    1357     32      513      501      502      514
    1358     34      515      505      506      517
    1359     34      515      505      506      518
    1360     21      515      505      506      521
    1361     34      516      505      506      517
    1362     34      516      505      506      518
    1363     21      516      505      506      521
    1364     14      517      506      521      522
    1365     38      517      506      521      533
    1366     38      517      506      521      534
    1367     14      518      506      521      522
    1368     38      518      506      521      533
    1369     38      518      506      521      534
    1370     32      519      507      508      520
    1371      9      521      522      523      524
    1372      6      522      523      524      525
    1373      6      522      523      524      532
    1374     36      523      522      521      533
    1375     36      523      522      521      534
    1376      4      523      524      525      526
    1377     33      523      524      525      537
    1378      4      523      524      532      531
    1379     33      523      524      532      544
    1380     10      524      523      522      535
    1381     10      524      523      522      536
    1382      7      524      525      526      527
    1383      8      524      525      526      538
    1384      7      524      532      531      527
    1385      8      524      532      531      543
    1386      3      525      524      532      531
    1387      5      525      524      532      544
    1388      4      525      526      527      528
    1389      3      525      526      527      531
    1390      3      526      525      524      532
    1391      6      526      527      528      529
    1392      3      526      527      531      532
    1393      5      526      527      531      543
    1394      8      527      526      525      537
    1395      9      527      528      529      530
    1396     10      527      528      529      539
    1397     10      527      528      529      540
    1398      8      527      531      532      544
    1399     33      528      527      526      538
    1400      4      528      527      531      532
    1401     33      528      527      531      543
    1402     36      528      529      530      541
    1403     36      528      529      530      542
    1404     22      528      529      530      545
    1405      6      529      528      527      531
    1406     11      529      530      545      546
    1407     14      529      530      545      557
    1408     14      529      530      545      558
    1409     22      530      545      546      547
    1410     21      530      545      546      559
    1411     21      530      545      546      560
    1412      5      531      527      526      538
    1413      5      532      524      525      537
    1414     34      533      521      522      535
    1415     34      533      521      522      536
    1416     34      534      521      522      535
    1417     34      534      521      522      536
    1418     32      537      525      526      538
    1419     34      539      529      530      541
    1420     34      539      529      530      542
    1421     21      539      529      530      545
    1422     34      540      529      530      541
    1423     34      540      529      530      542
    1424     21      540      529      530      545
    1425     14      541      530      545      546
    1426     38      541      530      545      557
    1427     38      541      530      545      558
    1428     14      542      530      545      546
    1429     38      542      530      545      557
    1430     38      542      530      545      558
    1431     32      543      531      532      544
    1432      9      545      546      547      548
    1433      6      546      547      548      549
    1434      6      546      547      548      556
    1435     36      547      546      545      557
    1436     36      547      546      545      558
    1437      4      547      548      549      550
    1438     33      547      548      549      561
    1439      4      547      548      556      555
    1440     33      547      548      556      568
    1441     10      548      547      546      559
    1442     10      548      547      546      560
    1443      7      548      549      550      551
    1444      8      548      549      550      562
    1445      7      548      556      555      551
    1446      8      548      556      555      567
    1447      3      549      548      556      555
    1448      5      549      548      556      568
    1449      4      549      550      551      552
    1450      3      549      550      551      555
    1451      3      550      549      548      556
    1452      6      550      551      552      553
    1453      3      550      551      555      556
    1454      5      550      551      555      567
    1455      8      551      550      549      561
    1456      9      551      552      553      554
    1457     10      551      552      553      563
    1458     10      551      552      553      564
    1459      8      551      555      556      568
    1460     33      552      551      550      562
    1461      4      552      551      555      556
    1462     33      552      551      555      567
    1463     36      552      553      554      565
    1464     36      552      553      554      566
    1465     22      552      553      554      569
    1466      6      553      552      551      555
    1467     11      553      554      569      570
    1468     14      553      554      569      581
    1469     14      553      554      569      582
    1470     22      554      569      570      571
    1471     21      554      569      570      583
    1472     21      554      569      570      584
    1473      5      555      551      550      562
    1474      5      556      548      549      561
    1475     34      557      545      546      559
    1476     34      557      545      546      560
    1477     34      558      545      546      559
    1478     34      558      545      546      560
    1479     32      561      549      550      562
    1480     34      563      553      554      565
    1481     34      563      553      554      566
    1482     21      563      553      554      569
    1483     34      564      553      554      565
    1484     34      564      553      554      566
    1485     21      564      553      554      569
    1486     14      565      554      569      570
    1487     38      565      554      569      581
    1488     38      565      554      569      582
    1489     14      566      554      569      570
    1490     38      566      554      569      581
    1491     38      566      554      569      582
    1492     32      567      555      556      568
    1493      9      569      570      571      572
    1494      6      570      571      572      573
    1495      6      570      571      572      580
    1496     36      571      570      569      581
    1497     36      571      570      569      582
    1498      4      571      572      573      574
    1499     33      571      572      573      585
    1500      4      571      572      580      579
    1501     33      571      572      580      592
    1502     10      572      571      570      583
    1503     10      572      571      570      584
    1504      7      572      573      574      575
    1505      8      572      573      574      586
    1506      7      572      580      579      575
    1507      8      572      580      579      591
    1508      3      573      572      580      579
    1509      5      573      572      580      592
    1510      4      573      574      575      576
    1511      3      573      574      575      579
    1512      3      574      573      572      580
    1513      6      574      575      576      577
    1514      3      574      575      579      580
    1515      5      574      575      579      591
    1516      8      575      574      573      585
    1517      9      575      576      577      578
    1518     10      575      576      577      587
    1519     10      575      576      577      588
    1520      8      575      579      580      592
    1521     33      576      575      574      586
    1522      4      576      575      579      580
    1523     33      576      575      579      591
    1524     36      576      577      578      589
    1525     36      576      577      578      590
    1526     22      576      577      578      593
    1527      6      577      576      575      579
    1528     11      577      578      593      594
    1529     14      577      578      593      605
    1530     14      577      578      593      606
    1531     22      578      593      594      595
    1532     21      578      593      594      607
    1533     21      578      593      594      608
    1534      5      579      575      574      586
    1535      5      580      572      573      585
    1536     34      581      569      570      583
    1537     34      581      569      570      584
    1538     34      582      569      570      583
    1539     34      582      569      570      584
    1540     32      585      573      574      586
    1541     34      587      577      578      589
    1542     34      587      577      578      590
    1543     21      587      577      578      593
    1544     34      588      577      578      589
    1545     34      588      577      578      590
    1546     21      588      577      578      593
    1547     14      589      578      593      594
    1548     38      589      578      593      605
    1549     38      589      578      593      606
    1550     14      590      578      593      594
    1551     38      590      578      593      605
    1552     38      590      578      593      606
    1553     32      591      579      580      592
    1554      9      593      594      595      596
    1555      6      594      595      596      597
    1556      6      594      595      596      604
    1557     36      595      594      593      605
    1558     36      595      594      593      606
    1559      4      595      596      597      598
    1560     33      595      596      597      609
    1561      4      595      596      604      603
    1562     33      595      596      604      616
    1563     10      596      595      594      607
    1564     10      596      595      594      608
    1565      7      596      597      598      599
    1566      8      596      597      598      610
    1567      7      596      604      603      599
    1568      8      596      604      603      615
    1569      3      597      596      604      603
    1570      5      597      596      604      616
    1571      4      597      598      599      600
    1572      3      597      598      599      603
    1573      3      598      597      596      604
    1574      6      598      599      600      601
    1575      3      598      599      603      604
    1576      5      598      599      603      615
    1577      8      599      598      597      609
    1578      9      599      600      601      602
    1579     10      599      600      601      611
    1580     10      599      600      601      612
    1581      8      599      603      604      616
    1582     33      600      599      598      610
    1583      4      600      599      603      604
    1584     33      600      599      603      615
    1585     36      600      601      602      613
    1586     36      600      601      602      614
    1587     22      600      601      602      617
    1588      6      601      600      599      603
    1589     11      601      602      617      618
    1590     14      601      602      617      629
    1591     14      601      602      617      630
    1592     22      602      617      618      619
    1593     21      602      617      618      631
    1594     21      602      617      618      632
    1595      5      603      599      598      610
    1596      5      604      596      597      609
    1597     34      605      593      594      607
    1598     34      605      593      594      608
    1599     34      606      593      594      607
    1600     34      606      593      594      608
    1601     32      609      597      598      610
    1602     34      611      601      602      613
    1603     34      611      601      602      614
    1604     21      611      601      602      617
    1605     34      612      601      602      613
    1606     34      612      601      602      614
    1607     21      612      601      602      617
    1608     14      613      602      617      618
    1609     38      613      602      617      629
    1610     38      613      602      617      630
    1611     14      614      602      617      618
    1612     38      614      602      617      629
    1613     38      614      602      617      630
    1614     32      615      603      604      616
    1615      9      617      618      619      620
    1616      6      618      619      620      621
    1617      6      618      619      620      628
    1618     36      619      618      617      629
    1619     36      619      618      617      630
    1620      4      619      620      621      622
    1621     33      619      620      621      633
    1622      4      619      620      628      627
    1623     33      619      620      628      640
    1624     10      620      619      618      631
    1625     10      620      619      618      632
    1626      7      620      621      622      623
    1627      8      620      621      622      634
    1628      7      620      628      627      623
    1629      8      620      628      627      639
    1630      3      621      620      628      627
    1631      5      621      620      628      640
    1632      4      621      622      623      624
    1633      3      621      622      623      627
    1634      3      622      621      620      628
    1635      6      622      623      624      625
    1636      3      622      623      627      628
    1637      5      622      623      627      639
    1638      8      623      622      621      633
    1639      9      623      624      625      626
    1640     10      623      624      625      635
    1641     10      623      624      625      636
    1642      8      623      627      628      640
    1643     33      624      623      622      634
    1644      4      624      623      627      628
    1645     33      624      623      627      639
    1646     36      624      625      626      637
    1647     36      624      625      626      638
    1648     22      624      625      626      641
    1649      6      625      624      623      627
    1650     11      625      626      641      642
    1651     14      625      626      641      653
    1652     14      625      626      641      654
    1653     22      626      641      642      643
    1654     21      626      641      642      655
    1655     21      626      641      642      656
    1656      5      627      623      622      634
    1657      5      628      620      621      633
    1658     34      629      617      618      631
    1659     34      629      617      618      632
    1660     34      630      617      618      631
    1661     34      630      617      618      632
    1662     32      633      621      622      634
    1663     34      635      625      626      637
    1664     34      635      625      626      638
    1665     21      635      625      626      641
    1666     34      636      625      626      637
    1667     34      636      625      626      638
    1668     21      636      625      626      641
    1669     14      637      626      641      642
    1670     38      637      626      641      653
    1671     38      637      626      641      654
    1672     14      638      626      641      642
    1673     38      638      626      641      653
    1674     38      638      626      641      654
    1675     32      639      627      628      640
    1676      9      641      642      643      644
    1677      6      642      643      644      645
    1678      6      642      643      644      652
    1679     36      643      642      641      653
    1680     36      643      642      641      654
    1681      4      643      644      645      646
    1682     33      643      644      645      657
    1683      4      643      644      652      651
    1684     33      643      644      652      664
    1685     10      644      643      642      655
    1686     10      644      643      642      656
    1687      7      644      645      646      647
    1688      8      644      645      646      658
    1689      7      644      652      651      647
    1690      8      644      652      651      663
    1691      3      645      644      652      651
    1692      5      645      644      652      664
    1693      4      645      646      647      648
    1694      3      645      646      647      651
    1695      3      646      645      644      652
    1696      6      646      647      648      649
    1697      3      646      647      651      652
    1698      5      646      647      651      663
    1699      8      647      646      645      657
    1700      9      647      648      649      650
    1701     10      647      648      649      659
    1702     10      647      648      649      660
    1703      8      647      651      652      664
    1704     33      648      647      646      658
    1705      4      648      647      651      652
    1706     33      648      647      651      663
    1707     36      648      649      650      661
    1708     36      648      649      650      662
    1709     22      648      649      650      665
    1710      6      649      648      647      651
    1711     11      649      650      665      666
    1712     14      649      650      665      677
    1713     14      649      650      665      678
    1714     22      650      665      666      667
    1715     21      650      665      666      679
    1716     21      650      665      666      680
    1717      5      651      647      646      658
    1718      5      652      644      645      657
    1719     34      653      641      642      655
    1720     34      653      641      642      656
    1721     34      654      641      642      655
    1722     34      654      641      642      656
    1723     32      657      645      646      658
    1724     34      659      649      650      661
    1725     34      659      649      650      662
    1726     21      659      649      650      665
    1727     34      660      649      650      661
    1728     34      660      649      650      662
    1729     21      660      649      650      665
    1730     14      661      650      665      666
    1731     38      661      650      665      677
    1732     38      661      650      665      678
    1733     14      662      650      665      666
    1734     38      662      650      665      677
    1735     38      662      650      665      678
    1736     32      663      651      652      664
    1737      9      665      666      667      668
    1738      6      666      667      668      669
    1739      6      666      667      668      676
    1740     36      667      666      665      677
    1741     36      667      666      665      678
    1742      4      667      668      669      670
    1743     33      667      668      669      681
    1744      4      667      668      676      675
    1745     33      667      668      676      688
    1746     10      668      667      666      679
    1747     10      668      667      666      680
    1748      7      668      669      670      671
    1749      8      668      669      670      682
    1750      7      668      676      675      671
    1751      8      668      676      675      687
    1752      3      669      668      676      675
    1753      5      669      668      676      688
    1754      4      669      670      671      672
    1755      3      669      670      671      675
    1756      3      670      669      668      676
    1757      6      670      671      672      673
    1758      3      670      671      675      676
    1759      5      670      671      675      687
    1760      8      671      670      669      681
    1761      9      671      672      673      674
    1762     10      671      672      673      683
    1763     10      671      672      673      684
    1764      8      671      675      676      688
    1765     33      672      671      670      682
    1766      4      672      671      675      676
    1767     33      672      671      675      687
    1768     36      672      673      674      685
    1769     36      672      673      674      686
    1770     22      672      673      674      689
    1771      6      673      672      671      675
    1772     11      673      674      689      690
    1773     14      673      674      689      701
    1774     14      673      674      689      702
    1775     22      674      689      690      691
    1776     21      674      689      690      703
    1777     21      674      689      690      704
    1778      5      675      671      670      682
    1779      5      676      668      669      681
    1780     34      677      665      666      679
    1781     34      677      665      666      680
    1782     34      678      665      666      679
    1783     34      678      665      666      680
    1784     32      681      669      670      682
    1785     34      683      673      674      685
    1786     34      683      673      674      686
    1787     21      683      673      674      689
    1788     34      684      673      674      685
    1789     34      684      673      674      686
    1790     21      684      673      674      689
    1791     14      685      674      689      690
    1792     38      685      674      689      701
    1793     38      685      674      689      702
    1794     14      686      674      689      690
    1795     38      686      674      689      701
    1796     38      686      674      689      702
    1797     32      687      675      676      688
    1798      9      689      690      691      692
    1799      6      690      691      692      693
    1800      6      690      691      692      700
    1801     36      691      690      689      701
    1802     36      691      690      689      702
    1803      4      691      692      693      694
    1804     33      691      692      693      705
    1805      4      691      692      700      699
    1806     33      691      692      700      712
    1807     10      692      691      690      703
    1808     10      692      691      690      704
    1809      7      692      693      694      695
    1810      8      692      693      694      706
    1811      7      692      700      699      695
    1812      8      692      700      699      711
    1813      3      693      692      700      699
    1814      5      693      692      700      712
    1815      4      693      694      695      696
    1816      3      693      694      695      699
    1817      3      694      693      692      700
    1818      6      694      695      696      697
    1819      3      694      695      699      700
    1820      5      694      695      699      711
    1821      8      695      694      693      705
    1822      9      695      696      697      698
    1823     10      695      696      697      707
    1824     10      695      696      697      708
    1825      8      695      699      700      712
    1826     33      696      695      694      706
    1827      4      696      695      699      700
    1828     33      696      695      699      711
    1829     36      696      697      698      709
    1830     36      696      697      698      710
    1831     22      696      697      698      904
    1832      6      697      696      695      699
    1833     12      697      698      904      903
    1834     14      697      698      904      908
    1835     14      697      698      904      909
    1836     25      698      904      903      905
    1837     25      698      904      903      906
    1838     26      698      904      903      907
    1839      5      699      695      694      706
    1840      5      700      692      693      705
    1841     34      701      689      690      703
    1842     34      701      689      690      704
    1843     34      702      689      690      703
    1844     34      702      689      690      704
    1845     32      705      693      694      706
    1846     34      707      697      698      709
    1847     34      707      697      698      710
    1848     21      707      697      698      904
    1849     34      708      697      698      709
    1850     34      708      697      698      710
    1851     21      708      697      698      904
    1852     30      709      698      904      903
    1853     38      709      698      904      908
    1854     38      709      698      904      909
    1855     30      710      698      904      903
    1856     38      710      698      904      908
    1857     38      710      698      904      909
    1858     32      711      699      700      712
    1859      9      713      714      715      716
    1860     25      713      906      903      904
    1861     25      713      906      903      905
    1862     26      713      906      903      907
    1863     12      714      713      906      903
    1864     14      714      713      906      912
    1865     14      714      713      906      913
    1866      6      714      715      716      717
    1867      6      714      715      716      724
    1868     36      715      714      713      725
    1869     36      715      714      713      726
    1870     22      715      714      713      906
    1871      4      715      716      717      718
    1872     33      715      716      717      729
    1873      4      715      716      724      723
    1874     33      715      716      724      736
    1875     10      716      715      714      727
    1876     10      716      715      714      728
    1877      7      716      717      718      719
    1878      8      716      717      718      730
    1879      7      716      724      723      719
    1880      8      716      724      723      735
    1881      3      717      716      724      723
    1882      5      717      716      724      736
    1883      4      717      718      719      720
    1884      3      717      718      719      723
    1885      3      718      717      716      724
    1886      6      718      719      720      721
    1887      3      718      719      723      724
    1888      5      718      719      723      735
    1889      8      719      718      717      729
    1890      9      719      720      721      722
    1891     10      719      720      721      731
    1892     10      719      720      721      732
    1893      8      719      723      724      736
    1894     33      720      719      718      730
    1895      4      720      719      723      724
    1896     33      720      719      723      735
    1897     36      720      721      722      733
    1898     36      720      721      722      734
    1899     22      720      721      722      737
    1900      6      721      720      719      723
    1901     11      721      722      737      738
    1902     14      721      722      737      749
    1903     14      721      722      737      750
    1904     22      722      737      738      739
    1905     21      722      737      738      751
    1906     21      722      737      738      752
    1907      5      723      719      718      730
    1908      5      724      716      717      729
    1909     34      725      713      714      727
    1910     34      725      713      714      728
    1911     30      725      713      906      903
    1912     38      725      713      906      912
    1913     38      725      713      906      913
    1914     34      726      713      714      727
    1915     34      726      713      714      728
    1916     30      726      713      906      903
    1917     38      726      713      906      912
    1918     38      726      713      906      913
    1919     21      727      714      713      906
    1920     21      728      714      713      906
    1921     32      729      717      718      730
    1922     34      731      721      722      733
    1923     34      731      721      722      734
    1924     21      731      721      722      737
    1925     34      732      721      722      733
    1926     34      732      721      722      734
    1927     21      732      721      722      737
    1928     14      733      722      737      738
    1929     38      733      722      737      749
    1930     38      733      722      737      750
    1931     14      734      722      737      738
    1932     38      734      722      737      749
    1933     38      734      722      737      750
    1934     32      735      723      724      736
    1935      9      737      738      739      740
    1936      6      738      739      740      741
    1937      6      738      739      740      748
    1938     36      739      738      737      749
    1939     36      739      738      737      750
    1940      4      739      740      741      742
    1941     33      739      740      741      753
    1942      4      739      740      748      747
    1943     33      739      740      748      760
    1944     10      740      739      738      751
    1945     10      740      739      738      752
    1946      7      740      741      742      743
    1947      8      740      741      742      754
    1948      7      740      748      747      743
    1949      8      740      748      747      759
    1950      3      741      740      748      747
    1951      5      741      740      748      760
    1952      4      741      742      743      744
    1953      3      741      742      743      747
    1954      3      742      741      740      748
    1955      6      742      743      744      745
    1956      3      742      743      747      748
    1957      5      742      743      747      759
    1958      8      743      742      741      753
    1959      9      743      744      745      746
    1960     10      743      744      745      755
    1961     10      743      744      745      756
    1962      8      743      747      748      760
    1963     33      744      743      742      754
    1964      4      744      743      747      748
    1965     33      744      743      747      759
    1966     36      744      745      746      757
    1967     36      744      745      746      758
    1968     22      744      745      746      761
    1969      6      745      744      743      747
    1970     11      745      746      761      762
    1971     14      745      746      761      773
    1972     14      745      746      761      774
    1973     22      746      761      762      763
    1974     21      746      761      762      775
    1975     21      746      761      762      776
    1976      5      747      743      742      754
    1977      5      748      740      741      753
    1978     34      749      737      738      751
    1979     34      749      737      738      752
    1980     34      750      737      738      751
    1981     34      750      737      738      752
    1982     32      753      741      742      754
    1983     34      755      745      746      757
    1984     34      755      745      746      758
    1985     21      755      745      746      761
    1986     34      756      745      746      757
    1987     34      756      745      746      758
    1988     21      756      745      746      761
    1989     14      757      746      761      762
    1990     38      757      746      761      773
    1991     38      757      746      761      774
    1992     14      758      746      761      762
    1993     38      758      746      761      773
    1994     38      758      746      761      774
    1995     32      759      747      748      760
    1996      9      761      762      763      764
    1997      6      762      763      764      765
    1998      6      762      763      764      772
    1999     36      763      762      761      773
    2000     36      763      762      761      774
    2001      4      763      764      765      766
    2002     33      763      764      765      777
    2003      4      763      764      772      771
    2004     33      763      764      772      784
    2005     10      764      763      762      775
    2006     10      764      763      762      776
    2007      7      764      765      766      767
    2008      8      764      765      766      778
    2009      7      764      772      771      767
    2010      8      764      772      771      783
    2011      3      765      764      772      771
    2012      5      765      764      772      784
    2013      4      765      766      767      768
    2014      3      765      766      767      771
    2015      3      766      765      764      772
    2016      6      766      767      768      769
    2017      3      766      767      771      772
    2018      5      766      767      771      783
    2019      8      767      766      765      777
    2020      9      767      768      769      770
    2021     10      767      768      769      779
    2022     10      767      768      769      780
    2023      8      767      771      772      784
    2024     33      768      767      766      778
    2025      4      768      767      771      772
    2026     33      768      767      771      783
    2027     36      768      769      770      781
    2028     36      768      769      770      782
    2029     22      768      769      770      785
    2030      6      769      768      767      771
    2031     11      769      770      785      786
    2032     14      769      770      785      797
    2033     14      769      770      785      798
    2034     22      770      785      786      787
    2035     21      770      785      786      799
    2036     21      770      785      786      800
    2037      5      771      767      766      778
    2038      5      772      764      765      777
    2039     34      773      761      762      775
    2040     34      773      761      762      776
    2041     34      774      761      762      775
    2042     34      774      761      762      776
    2043     32      777      765      766      778
    2044     34      779      769      770      781
    2045     34      779      769      770      782
    2046     21      779      769      770      785
    2047     34      780      769      770      781
    2048     34      780      769      770      782
    2049     21      780      769      770      785
    2050     14      781      770      785      786
    2051     38      781      770      785      797
    2052     38      781      770      785      798
    2053     14      782      770      785      786
    2054     38      782      770      785      797
    2055     38      782      770      785      798
    2056     32      783      771      772      784
    2057      9      785      786      787      788
    2058      6      786      787      788      789
    2059      6      786      787      788      796
    2060     36      787      786      785      797
    2061     36      787      786      785      798
    2062      4      787      788      789      790
    2063     33      787      788      789      801
    2064      4      787      788      796      795
    2065     33      787      788      796      808
    2066     10      788      787      786      799
    2067     10      788      787      786      800
    2068      7      788      789      790      791
    2069      8      788      789      790      802
    2070      7      788      796      795      791
    2071      8      788      796      795      807
    2072      3      789      788      796      795
    2073      5      789      788      796      808
    2074      4      789      790      791      792
    2075      3      789      790      791      795
    2076      3      790      789      788      796
    2077      6      790      791      792      793
    2078      3      790      791      795      796
    2079      5      790      791      795      807
    2080      8      791      790      789      801
    2081      9      791      792      793      794
    2082     10      791      792      793      803
    2083     10      791      792      793      804
    2084      8      791      795      796      808
    2085     33      792      791      790      802
    2086      4      792      791      795      796
    2087     33      792      791      795      807
    2088     36      792      793      794      805
    2089     36      792      793      794      806
    2090     22      792      793      794      809
    2091      6      793      792      791      795
    2092     11      793      794      809      810
    2093     14      793      794      809      821
    2094     14      793      794      809      822
    2095     22      794      809      810      811
    2096     21      794      809      810      823
    2097     21      794      809      810      824
    2098      5      795      791      790      802
    2099      5      796      788      789      801
    2100     34      797      785      786      799
    2101     34      797      785      786      800
    2102     34      798      785      786      799
    2103     34      798      785      786      800
    2104     32      801      789      790      802
    2105     34      803      793      794      805
    2106     34      803      793      794      806
    2107     21      803      793      794      809
    2108     34      804      793      794      805
    2109     34      804      793      794      806
    2110     21      804      793      794      809
    2111     14      805      794      809      810
    2112     38      805      794      809      821
    2113     38      805      794      809      822
    2114     14      806      794      809      810
    2115     38      806      794      809      821
    2116     38      806      794      809      822
    2117     32      807      795      796      808
    2118      9      809      810      811      812
    2119      6      810      811      812      813
    2120      6      810      811      812      820
    2121     36      811      810      809      821
    2122     36      811      810      809      822
    2123      4      811      812      813      814
    2124     33      811      812      813      825
    2125      4      811      812      820      819
    2126     33      811      812      820      832
    2127     10      812      811      810      823
    2128     10      812      811      810      824
    2129      7      812      813      814      815
    2130      8      812      813      814      826
    2131      7      812      820      819      815
    2132      8      812      820      819      831
    2133      3      813      812      820      819
    2134      5      813      812      820      832
    2135      4      813      814      815      816
    2136      3      813      814      815      819
    2137      3      814      813      812      820
    2138      6      814      815      816      817
    2139      3      814      815      819      820
    2140      5      814      815      819      831
    2141      8      815      814      813      825
    2142      9      815      816      817      818
    2143     10      815      816      817      827
    2144     10      815      816      817      828
    2145      8      815      819      820      832
    2146     33      816      815      814      826
    2147      4      816      815      819      820
    2148     33      816      815      819      831
    2149     36      816      817      818      829
    2150     36      816      817      818      830
    2151     22      816      817      818      833
    2152      6      817      816      815      819
    2153     11      817      818      833      834
    2154     14      817      818      833      845
    2155     14      817      818      833      846
    2156     22      818      833      834      835
    2157     21      818      833      834      847
    2158     21      818      833      834      848
    2159      5      819      815      814      826
    2160      5      820      812      813      825
    2161     34      821      809      810      823
    2162     34      821      809      810      824
    2163     34      822      809      810      823
    2164     34      822      809      810      824
    2165     32      825      813      814      826
    2166     34      827      817      818      829
    2167     34      827      817      818      830
    2168     21      827      817      818      833
    2169     34      828      817      818      829
    2170     34      828      817      818      830
    2171     21      828      817      818      833
    2172     14      829      818      833      834
    2173     38      829      818      833      845
    2174     38      829      818      833      846
    2175     14      830      818      833      834
    2176     38      830      818      833      845
    2177     38      830      818      833      846
    2178     32      831      819      820      832
    2179      9      833      834      835      836
    2180      6      834      835      836      837
    2181      6      834      835      836      844
    2182     36      835      834      833      845
    2183     36      835      834      833      846
    2184      4      835      836      837      838
    2185     33      835      836      837      849
    2186      4      835      836      844      843
    2187     33      835      836      844      856
    2188     10      836      835      834      847
    2189     10      836      835      834      848
    2190      7      836      837      838      839
    2191      8      836      837      838      850
    2192      7      836      844      843      839
    2193      8      836      844      843      855
    2194      3      837      836      844      843
    2195      5      837      836      844      856
    2196      4      837      838      839      840
    2197      3      837      838      839      843
    2198      3      838      837      836      844
    2199      6      838      839      840      841
    2200      3      838      839      843      844
    2201      5      838      839      843      855
    2202      8      839      838      837      849
    2203      9      839      840      841      842
    2204     10      839      840      841      851
    2205     10      839      840      841      852
    2206      8      839      843      844      856
    2207     33      840      839      838      850
    2208      4      840      839      843      844
    2209     33      840      839      843      855
    2210     36      840      841      842      853
    2211     36      840      841      842      854
    2212     22      840      841      842      857
    2213      6      841      840      839      843
    2214     11      841      842      857      858
    2215     14      841      842      857      869
    2216     14      841      842      857      870
    2217     22      842      857      858      859
    2218     21      842      857      858      871
    2219     21      842      857      858      872
    2220      5      843      839      838      850
    2221      5      844      836      837      849
    2222     34      845      833      834      847
    2223     34      845      833      834      848
    2224     34      846      833      834      847
    2225     34      846      833      834      848
    2226     32      849      837      838      850
    2227     34      851      841      842      853
    2228     34      851      841      842      854
    2229     21      851      841      842      857
    2230     34      852      841      842      853
    2231     34      852      841      842      854
    2232     21      852      841      842      857
    2233     14      853      842      857      858
    2234     38      853      842      857      869
    2235     38      853      842      857      870
    2236     14      854      842      857      858
    2237     38      854      842      857      869
    2238     38      854      842      857      870
    2239     32      855      843      844      856
    2240      9      857      858      859      860
    2241      6      858      859      860      861
    2242      6      858      859      860      868
    2243     36      859      858      857      869
    2244     36      859      858      857      870
    2245      4      859      860      861      862
    2246     33      859      860      861      873
    2247      4      859      860      868      867
    2248     33      859      860      868      880
    2249     10      860      859      858      871
    2250     10      860      859      858      872
    2251      7      860      861      862      863
    2252      8      860      861      862      874
    2253      7      860      868      867      863
    2254      8      860      868      867      879
    2255      3      861      860      868      867
    2256      5      861      860      868      880
    2257      4      861      862      863      864
    2258      3      861      862      863      867
    2259      3      862      861      860      868
    2260      6      862      863      864      865
    2261      3      862      863      867      868
    2262      5      862      863      867      879
    2263      8      863      862      861      873
    2264      9      863      864      865      866
    2265     10      863      864      865      875
    2266     10      863      864      865      876
    2267      8      863      867      868      880
    2268     33      864      863      862      874
    2269      4      864      863      867      868
    2270     33      864      863      867      879
    2271     36      864      865      866      877
    2272     36      864      865      866      878
    2273      6      865      864      863      867
    2274      5      867      863      862      874
    2275      5      868      860      861      873
    2276     34      869      857      858      871
    2277     34      869      857      858      872
    2278     34      870      857      858      871
    2279     34      870      857      858      872
    2280     32      873      861      862      874
    2281     34      875      865      866      877
    2282     34      875      865      866      878
    2283     34      876      865      866      877
    2284     34      876      865      866      878
    2285     32      879      867      868      880
    2286     16      881      883      914      915
    2287     30      881      883      914      919
    2288     30      881      883      914      920
    2289     28      882      881      883      888
    2290     28      882      881      883      889
    2291     25      882      881      883      914
    2292     28      882      881      884      890
    2293     28      882      881      884      891
    2294     28      883      881      882      886
    2295     28      883      881      882      887
    2296     28      883      881      884      890
    2297     28      883      881      884      891
    2298     24      883      914      915      916
    2299     23      883      914      915      921
    2300     23      883      914      915      922
    2301     28      884      881      882      886
    2302     28      884      881      882      887
    2303     28      884      881      883      888
    2304     28      884      881      883      889
    2305     25      884      881      883      914
    2306     39      885      881      882      886
    2307     39      885      881      882      887
    2308     39      885      881      883      888
    2309     39      885      881      883      889
    2310     26      885      881      883      914
    2311     39      885      881      884      890
    2312     39      885      881      884      891
    2313     18      888      883      914      915
    2314     38      888      883      914      919
    2315     38      888      883      914      920
    2316     18      889      883      914      915
    2317     38      889      883      914      919
    2318     38      889      883      914      920
    2319     16      892      894      992      993
    2320     30      892      894      992      997
    2321     30      892      894      992      998
    2322     28      893      892      894      899
    2323     28      893      892      894      900
    2324     25      893      892      894      992
    2325     28      893      892      895      901
    2326     28      893      892      895      902
    2327     28      894      892      893      897
    2328     28      894      892      893      898
    2329     28      894      892      895      901
    2330     28      894      892      895      902
    2331     24      894      992      993      994
    2332     23      894      992      993      999
    2333     23      894      992      993     1000
    2334     28      895      892      893      897
    2335     28      895      892      893      898
    2336     28      895      892      894      899
    2337     28      895      892      894      900
    2338     25      895      892      894      992
    2339     39      896      892      893      897
    2340     39      896      892      893      898
    2341     39      896      892      894      899
    2342     39      896      892      894      900
    2343     26      896      892      894      992
    2344     39      896      892      895      901
    2345     39      896      892      895      902
    2346     18      899      894      992      993
    2347     38      899      894      992      997
    2348     38      899      894      992      998
    2349     18      900      894      992      993
    2350     38      900      894      992      997
    2351     38      900      894      992      998
    2352     16      903      905     1083     1084
    2353     30      903      905     1083     1088
    2354     30      903      905     1083     1089
    2355     28      904      903      905      910
    2356     28      904      903      905      911
    2357     25      904      903      905     1083
    2358     28      904      903      906      912
    2359     28      904      903      906      913
    2360     28      905      903      904      908
    2361     28      905      903      904      909
    2362     28      905      903      906      912
    2363     28      905      903      906      913
    2364     24      905     1083     1084     1085
    2365     23      905     1083     1084     1090
    2366     23      905     1083     1084     1091
    2367     28      906      903      904      908
    2368     28      906      903      904      909
    2369     28      906      903      905      910
    2370     28      906      903      905      911
    2371     25      906      903      905     1083
    2372     39      907      903      904      908
    2373     39      907      903      904      909
    2374     39      907      903      905      910
    2375     39      907      903      905      911
    2376     26      907      903      905     1083
    2377     39      907      903      906      912
    2378     39      907      903      906      913
    2379     18      910      905     1083     1084
    2380     38      910      905     1083     1088
    2381     38      910      905     1083     1089
    2382     18      911      905     1083     1084
    2383     38      911      905     1083     1088
    2384     38      911      905     1083     1089
    2385     19      914      915      916      917
    2386     19      915      916      917      918
    2387     20      915      916      917      923
    2388     20      915      916      917      924
    2389     37      916      915      914      919
    2390     37      916      915      914      920
    2391     37      916      917      918      925
    2392     37      916      917      918      926
    2393     24      916      917      918      927
    2394     20      917      916      915      921
    2395     20      917      916      915      922
    2396     15      917      918      927      928
    2397     18      917      918      927      932
    2398     18      917      918      927      933
    2399     24      918      927      928      929
    2400     23      918      927      928      934
    2401     23      918      927      928      935
    2402     35      919      914      915      921
    2403     35      919      914      915      922
    2404     35      920      914      915      921
    2405     35      920      914      915      922
    2406     35      923      917      918      925
    2407     35      923      917      918      926
    2408     23      923      917      918      927
    2409     35      924      917      918      925
    2410     35      924      917      918      926
    2411     23      924      917      918      927
    2412     18      925      918      927      928
    2413     38      925      918      927      932
    2414     38      925      918      927      933
    2415     18      926      918      927      928
    2416     38      926      918      927      932
    2417     38      926      918      927      933
    2418     19      927      928      929      930
    2419     19      928      929      930      931
    2420     20      928      929      930      936
    2421     20      928      929      930      937
    2422     37      929      928      927      932
    2423     37      929      928      927      933
    2424     37      929      930      931      938
    2425     37      929      930      931      939
    2426     24      929      930      931      940
    2427     20      930      929      928      934
    2428     20      930      929      928      935
    2429     15      930      931      940      941
    2430     18      930      931      940      945
    2431     18      930      931      940      946
    2432     24      931      940      941      942
    2433     23      931      940      941      947
    2434     23      931      940      941      948
    2435     35      932      927      928      934
    2436     35      932      927      928      935
    2437     35      933      927      928      934
    2438     35      933      927      928      935
    2439     35      936      930      931      938
    2440     35      936      930      931      939
    2441     23      936      930      931      940
    2442     35      937      930      931      938
    2443     35      937      930      931      939
    2444     23      937      930      931      940
    2445     18      938      931      940      941
    2446     38      938      931      940      945
    2447     38      938      931      940      946
    2448     18      939      931      940      941
    2449     38      939      931      940      945
    2450     38      939      931      940      946
    2451     19      940      941      942      943
    2452     19      941      942      943      944
    2453     20      941      942      943      949
    2454     20      941      942      943      950
    2455     37      942      941      940      945
    2456     37      942      941      940      946
    2457     37      942      943      944      951
    2458     37      942      943      944      952
    2459     24      942      943      944      953
    2460     20      943      942      941      947
    2461     20      943      942      941      948
    2462     15      943      944      953      954
    2463     18      943      944      953      958
    2464     18      943      944      953      959
    2465     24      944      953      954      955
    2466     23      944      953      954      960
    2467     23      944      953      954      961
    2468     35      945      940      941      947
    2469     35      945      940      941      948
    2470     35      946      940      941      947
    2471     35      946      940      941      948
    2472     35      949      943      944      951
    2473     35      949      943      944      952
    2474     23      949      943      944      953
    2475     35      950      943      944      951
    2476     35      950      943      944      952
    2477     23      950      943      944      953
    2478     18      951      944      953      954
    2479     38      951      944      953      958
    2480     38      951      944      953      959
    2481     18      952      944      953      954
    2482     38      952      944      953      958
    2483     38      952      944      953      959
    2484     19      953      954      955      956
    2485     19      954      955      956      957
    2486     20      954      955      956      962
    2487     20      954      955      956      963
    2488     37      955      954      953      958
    2489     37      955      954      953      959
    2490     37      955      956      957      964
    2491     37      955      956      957      965
    2492     24      955      956      957      966
    2493     20      956      955      954      960
    2494     20      956      955      954      961
    2495     15      956      957      966      967
    2496     18      956      957      966      971
    2497     18      956      957      966      972
    2498     24      957      966      967      968
    2499     23      957      966      967      973
    2500     23      957      966      967      974
    2501     35      958      953      954      960
    2502     35      958      953      954      961
    2503     35      959      953      954      960
    2504     35      959      953      954      961
    2505     35      962      956      957      964
    2506     35      962      956      957      965
    2507     23      962      956      957      966
    2508     35      963      956      957      964
    2509     35      963      956      957      965
    2510     23      963      956      957      966
    2511     18      964      957      966      967
    2512     38      964      957      966      971
    2513     38      964      957      966      972
    2514     18      965      957      966      967
    2515     38      965      957      966      971
    2516     38      965      957      966      972
    2517     19      966      967      968      969
    2518     19      967      968      969      970
    2519     20      967      968      969      975
    2520     20      967      968      969      976
    2521     37      968      967      966      971
    2522     37      968      967      966      972
    2523     37      968      969      970      977
    2524     37      968      969      970      978
    2525     24      968      969      970      979
    2526     20      969      968      967      973
    2527     20      969      968      967      974
    2528     15      969      970      979      980
    2529     18      969      970      979      984
    2530     18      969      970      979      985
    2531     24      970      979      980      981
    2532     23      970      979      980      986
    2533     23      970      979      980      987
    2534     35      971      966      967      973
    2535     35      971      966      967      974
    2536     35      972      966      967      973
    2537     35      972      966      967      974
    2538     35      975      969      970      977
    2539     35      975      969      970      978
    2540     23      975      969      970      979
    2541     35      976      969      970      977
    2542     35      976      969      970      978
    2543     23      976      969      970      979
    2544     18      977      970      979      980
    2545     38      977      970      979      984
    2546     38      977      970      979      985
    2547     18      978      970      979      980
    2548     38      978      970      979      984
    2549     38      978      970      979      985
    2550     19      979      980      981      982
    2551     19      980      981      982      983
    2552     20      980      981      982      988
    2553     20      980      981      982      989
    2554     37      981      980      979      984
    2555     37      981      980      979      985
    2556     37      981      982      983      990
    2557     37      981      982      983      991
    2558     20      982      981      980      986
    2559     20      982      981      980      987
    2560     35      984      979      980      986
    2561     35      984      979      980      987
    2562     35      985      979      980      986
    2563     35      985      979      980      987
    2564     35      988      982      983      990
    2565     35      988      982      983      991
    2566     35      989      982      983      990
    2567     35      989      982      983      991
    2568     19      992      993      994      995
    2569     19      993      994      995      996
    2570     20      993      994      995     1001
    2571     20      993      994      995     1002
    2572     37      994      993      992      997
    2573     37      994      993      992      998
    2574     37      994      995      996     1003
    2575     37      994      995      996     1004
    2576     24      994      995      996     1005
    2577     20      995      994      993      999
    2578     20      995      994      993     1000
    2579     15      995      996     1005     1006
    2580     18      995      996     1005     1010
    2581     18      995      996     1005     1011
    2582     24      996     1005     1006     1007
    2583     23      996     1005     1006     1012
    2584     23      996     1005     1006     1013
    2585     35      997      992      993      999
    2586     35      997      992      993     1000
    2587     35      998      992      993      999
    2588     35      998      992      993     1000
    2589     35     1001      995      996     1003
    2590     35     1001      995      996     1004
    2591     23     1001      995      996     1005
    2592     35     1002      995      996     1003
    2593     35     1002      995      996     1004
    2594     23     1002      995      996     1005
    2595     18     1003      996     1005     1006
    2596     38     1003      996     1005     1010
    2597     38     1003      996     1005     1011
    2598     18     1004      996     1005     1006
    2599     38     1004      996     1005     1010
    2600     38     1004      996     1005     1011
    2601     19     1005     1006     1007     1008
    2602     19     1006     1007     1008     1009
    2603     20     1006     1007     1008     1014
    2604     20     1006     1007     1008     1015
    2605     37     1007     1006     1005     1010
    2606     37     1007     1006     1005     1011
    2607     37     1007     1008     1009     1016
    2608     37     1007     1008     1009     1017
    2609     24     1007     1008     1009     1018
    2610     20     1008     1007     1006     1012
    2611     20     1008     1007     1006     1013
    2612     15     1008     1009     1018     1019
    2613     18     1008     1009     1018     1023
    2614     18     1008     1009     1018     1024
    2615     24     1009     1018     1019     1020
    2616     23     1009     1018     1019     1025
    2617     23     1009     1018     1019     1026
    2618     35     1010     1005     1006     1012
    2619     35     1010     1005     1006     1013
    2620     35     1011     1005     1006     1012
    2621     35     1011     1005     1006     1013
    2622     35     1014     1008     1009     1016
    2623     35     1014     1008     1009     1017
    2624     23     1014     1008     1009     1018
    2625     35     1015     1008     1009     1016
    2626     35     1015     1008     1009     1017
    2627     23     1015     1008     1009     1018
    2628     18     1016     1009     1018     1019
    2629     38     1016     1009     1018     1023
    2630     38     1016     1009     1018     1024
    2631     18     1017     1009     1018     1019
    2632     38     1017     1009     1018     1023
    2633     38     1017     1009     1018     1024
    2634     19     1018     1019     1020     1021
    2635     19     1019     1020     1021     1022
    2636     20     1019     1020     1021     1027
    2637     20     1019     1020     1021     1028
    2638     37     1020     1019     1018     1023
    2639     37     1020     1019     1018     1024
    2640     37     1020     1021     1022     1029
    2641     37     1020     1021     1022     1030
    2642     24     1020     1021     1022     1031
    2643     20     1021     1020     1019     1025
    2644     20     1021     1020     1019     1026
    2645     15     1021     1022     1031     1032
    2646     18     1021     1022     1031     1036
    2647     18     1021     1022     1031     1037
    2648     24     1022     1031     1032     1033
    2649     23     1022     1031     1032     1038
    2650     23     1022     1031     1032     1039
    2651     35     1023     1018     1019     1025
    2652     35     1023     1018     1019     1026
    2653     35     1024     1018     1019     1025
    2654     35     1024     1018     1019     1026
    2655     35     1027     1021     1022     1029
    2656     35     1027     1021     1022     1030
    2657     23     1027     1021     1022     1031
    2658     35     1028     1021     1022     1029
    2659     35     1028     1021     1022     1030
    2660     23     1028     1021     1022     1031
    2661     18     1029     1022     1031     1032
    2662     38     1029     1022     1031     1036
    2663     38     1029     1022     1031     1037
    2664     18     1030     1022     1031     1032
    2665     38     1030     1022     1031     1036
    2666     38     1030     1022     1031     1037
    2667     19     1031     1032     1033     1034
    2668     19     1032     1033     1034     1035
    2669     20     1032     1033     1034     1040
    2670     20     1032     1033     1034     1041
    2671     37     1033     1032     1031     1036
    2672     37     1033     1032     1031     1037
    2673     37     1033     1034     1035     1042
    2674     37     1033     1034     1035     1043
    2675     24     1033     1034     1035     1044
    2676     20     1034     1033     1032     1038
    2677     20     1034     1033     1032     1039
    2678     15     1034     1035     1044     1045
    2679     18     1034     1035     1044     1049
    2680     18     1034     1035     1044     1050
    2681     24     1035     1044     1045     1046
    2682     23     1035     1044     1045     1051
    2683     23     1035     1044     1045     1052
    2684     35     1036     1031     1032     1038
    2685     35     1036     1031     1032     1039
    2686     35     1037     1031     1032     1038
    2687     35     1037     1031     1032     1039
    2688     35     1040     1034     1035     1042
    2689     35     1040     1034     1035     1043
    2690     23     1040     1034     1035     1044
    2691     35     1041     1034     1035     1042
    2692     35     1041     1034     1035     1043
    2693     23     1041     1034     1035     1044
    2694     18     1042     1035     1044     1045
    2695     38     1042     1035     1044     1049
    2696     38     1042     1035     1044     1050
    2697     18     1043     1035     1044     1045
    2698     38     1043     1035     1044     1049
    2699     38     1043     1035     1044     1050
    2700     19     1044     1045     1046     1047
    2701     19     1045     1046     1047     1048
    2702     20     1045     1046     1047     1053
    2703     20     1045     1046     1047     1054
    2704     37     1046     1045     1044     1049
    2705     37     1046     1045     1044     1050
    2706     37     1046     1047     1048     1055
    2707     37     1046     1047     1048     1056
    2708     24     1046     1047     1048     1057
    2709     20     1047     1046     1045     1051
    2710     20     1047     1046     1045     1052
    2711     15     1047     1048     1057     1058
    2712     18     1047     1048     1057     1062
    2713     18     1047     1048     1057     1063
    2714     24     1048     1057     1058     1059
    2715     23     1048     1057     1058     1064
    2716     23     1048     1057     1058     1065
    2717     35     1049     1044     1045     1051
    2718     35     1049     1044     1045     1052
    2719     35     1050     1044     1045     1051
    2720     35     1050     1044     1045     1052
    2721     35     1053     1047     1048     1055
    2722     35     1053     1047     1048     1056
    2723     23     1053     1047     1048     1057
    2724     35     1054     1047     1048     1055
    2725     35     1054     1047     1048     1056
    2726     23     1054     1047     1048     1057
    2727     18     1055     1048     1057     1058
    2728     38     1055     1048     1057     1062
    2729     38     1055     1048     1057     1063
    2730     18     1056     1048     1057     1058
    2731     38     1056     1048     1057     1062
    2732     38     1056     1048     1057     1063
    2733     19     1057     1058     1059     1060
    2734     19     1058     1059     1060     1061
    2735     20     1058     1059     1060     1066
    2736     20     1058     1059     1060     1067
    2737     37     1059     1058     1057     1062
    2738     37     1059     1058     1057     1063
    2739     37     1059     1060     1061     1068
    2740     37     1059     1060     1061     1069
    2741     24     1059     1060     1061     1070
    2742     20     1060     1059     1058     1064
    2743     20     1060     1059     1058     1065
    2744     15     1060     1061     1070     1071
    2745     18     1060     1061     1070     1075
    2746     18     1060     1061     1070     1076
    2747     24     1061     1070     1071     1072
    2748     23     1061     1070     1071     1077
    2749     23     1061     1070     1071     1078
    2750     35     1062     1057     1058     1064
    2751     35     1062     1057     1058     1065
    2752     35     1063     1057     1058     1064
    2753     35     1063     1057     1058     1065
    2754     35     1066     1060     1061     1068
    2755     35     1066     1060     1061     1069
    2756     23     1066     1060     1061     1070
    2757     35     1067     1060     1061     1068
    2758     35     1067     1060     1061     1069
    2759     23     1067     1060     1061     1070
    2760     18     1068     1061     1070     1071
    2761     38     1068     1061     1070     1075
    2762     38     1068     1061     1070     1076
    2763     18     1069     1061     1070     1071
    2764     38     1069     1061     1070     1075
    2765     38     1069     1061     1070     1076
    2766     19     1070     1071     1072     1073
    2767     19     1071     1072     1073     1074
    2768     20     1071     1072     1073     1079
    2769     20     1071     1072     1073     1080
    2770     37     1072     1071     1070     1075
    2771     37     1072     1071     1070     1076
    2772     37     1072     1073     1074     1081
    2773     37     1072     1073     1074     1082
    2774     20     1073     1072     1071     1077
    2775     20     1073     1072     1071     1078
    2776     35     1075     1070     1071     1077
    2777     35     1075     1070     1071     1078
    2778     35     1076     1070     1071     1077
    2779     35     1076     1070     1071     1078
    2780     35     1079     1073     1074     1081
    2781     35     1079     1073     1074     1082
    2782     35     1080     1073     1074     1081
    2783     35     1080     1073     1074     1082
    2784     19     1083     1084     1085     1086
    2785     19     1084     1085     1086     1087
    2786     20     1084     1085     1086     1092
    2787     20     1084     1085     1086     1093
    2788     37     1085     1084     1083     1088
    2789     37     1085     1084     1083     1089
    2790     37     1085     1086     1087     1094
    2791     37     1085     1086     1087     1095
    2792     20     1086     1085     1084     1090
    2793     20     1086     1085     1084     1091
    2794     35     1088     1083     1084     1090
    2795     35     1088     1083     1084     1091
    2796     35     1089     1083     1084     1090
    2797     35     1089     1083     1084     1091
    2798     35     1092     1086     1087     1094
    2799     35     1092     1086     1087     1095
    2800     35     1093     1086     1087     1094
    2801     35     1093     1086     1087     1095

Impropers

       1      2       43       44       45       52
       2      1       44       45       46       57
       3      1       45       46       47       58
       4      2       46       47       48       51
       5      1       47       51       52       63
       6      1       44       52       51       64
       7      2       67       68       69       76
       8      1       68       69       70       81
       9      1       69       70       71       82
      10      2       70       71       72       75
      11      1       71       75       76       87
      12      1       68       76       75       88
      13      2       91       92       93      100
      14      1       92       93       94      105
      15      1       93       94       95      106
      16      2       94       95       96       99
      17      1       95       99      100      111
      18      1       92      100       99      112
      19      2      115      116      117      124
      20      1      116      117      118      129
      21      1      117      118      119      130
      22      2      118      119      120      123
      23      1      119      123      124      135
      24      1      116      124      123      136
      25      2      139      140      141      148
      26      1      140      141      142      153
      27      1      141      142      143      154
      28      2      142      143      144      147
      29      1      143      147      148      159
      30      1      140      148      147      160
      31      2      163      164      165      172
      32      1      164      165      166      177
      33      1      165      166      167      178
      34      2      166      167      168      171
      35      1      167      171      172      183
      36      1      164      172      171      184
      37      2      187      188      189      196
      38      1      188      189      190      201
      39      1      189      190      191      202
      40      2      190      191      192      195
      41      1      191      195      196      207
      42      1      188      196      195      208
      43      2      211      212      213      220
      44      1      212      213      214      225
      45      1      213      214      215      226
      46      2      214      215      216      219
      47      1      215      219      220      231
      48      1      212      220      219      232
      49      2      235      236      237      244
      50      1      236      237      238      249
      51      1      237      238      239      250
      52      2      238      239      240      243
      53      1      239      243      244      255
      54      1      236      244      243      256
      55      2      259      260      261      268
      56      1      260      261      262      273
      57      1      261      262      263      274
      58      2      262      263      264      267
      59      1      263      267      268      279
      60      1      260      268      267      280
      61      2      283      284      285      292
      62      1      284      285      286      297
      63      1      285      286      287      298
      64      2      286      287      288      291
      65      1      287      291      292      303
      66      1      284      292      291      304
      67      2      307      308      309      316
      68      1      308      309      310      321
      69      1      309      310      311      322
      70      2      310      311      312      315
      71      1      311      315      316      327
      72      1      308      316      315      328
      73      2      331      332      333      340
      74      1      332      333      334      345
      75      1      333      334      335      346
      76      2      334      335      336      339
      77      1      335      339      340      351
      78      1      332      340      339      352
      79      2      355      356      357      364
      80      1      356      357      358      369
      81      1      357      358      359      370
      82      2      358      359      360      363
      83      1      359      363      364      375
      84      1      356      364      363      376
      85      2      379      380      381      388
      86      1      380      381      382      393
      87      1      381      382      383      394
      88      2      382      383      384      387
      89      1      383      387      388      399
      90      1      380      388      387      400
      91      2      403      404      405      412
      92      1      404      405      406      417
      93      1      405      406      407      418
      94      2      406      407      408      411
      95      1      407      411      412      423
      96      1      404      412      411      424
      97      2      427      428      429      436
      98      1      428      429      430      441
      99      1      429      430      431      442
     100      2      430      431      432      435
     101      1      431      435      436      447
     102      1      428      436      435      448
     103      2      451      452      453      460
     104      1      452      453      454      465
     105      1      453      454      455      466
     106      2      454      455      456      459
     107      1      455      459      460      471
     108      1      452      460      459      472
     109      2      475      476      477      484
     110      1      476      477      478      489
     111      1      477      478      479      490
     112      2      478      479      480      483
     113      1      479      483      484      495
     114      1      476      484      483      496
     115      2      499      500      501      508
     116      1      500      501      502      513
     117      1      501      502      503      514
     118      2      502      503      504      507
     119      1      503      507      508      519
     120      1      500      508      507      520
     121      2      523      524      525      532
     122      1      524      525      526      537
     123      1      525      526      527      538
     124      2      526      527      528      531
     125      1      527      531      532      543
     126      1      524      532      531      544
     127      2      547      548      549      556
     128      1      548      549      550      561
     129      1      549      550      551      562
     130      2      550      551      552      555
     131      1      551      555      556      567
     132      1      548      556      555      568
     133      2      571      572      573      580
     134      1      572      573      574      585
     135      1      573      574      575      586
     136      2      574      575      576      579
     137      1      575      579      580      591
     138      1      572      580      579      592
     139      2      595      596      597      604
     140      1      596      597      598      609
     141      1      597      598      599      610
     142      2      598      599      600      603
     143      1      599      603      604      615
     144      1      596      604      603      616
     145      2      619      620      621      628
     146      1      620      621      622      633
     147      1      621      622      623      634
     148      2      622      623      624      627
     149      1      623      627      628      639
     150      1      620      628      627      640
     151      2      643      644      645      652
     152      1      644      645      646      657
     153      1      645      646      647      658
     154      2      646      647      648      651
     155      1      647      651      652      663
     156      1      644      652      651      664
     157      2      667      668      669      676
     158      1      668      669      670      681
     159      1      669      670      671      682
     160      2      670      671      672      675
     161      1      671      675      676      687
     162      1      668      676      675      688
     163      2      691      692      693      700
     164      1      692      693      694      705
     165      1      693      694      695      706
     166      2      694      695      696      699
     167      1      695      699      700      711
     168      1      692      700      699      712
     169      2      715      716      717      724
     170      1      716      717      718      729
     171      1      717      718      719      730
     172      2      718      719      720      723
     173      1      719      723      724      735
     174      1      716      724      723      736
     175      2      739      740      741      748
     176      1      740      741      742      753
     177      1      741      742      743      754
     178      2      742      743      744      747
     179      1      743      747      748      759
     180      1      740      748      747      760
     181      2      763      764      765      772
     182      1      764      765      766      777
     183      1      765      766      767      778
     184      2      766      767      768      771
     185      1      767      771      772      783
     186      1      764      772      771      784
     187      2      787      788      789      796
     188      1      788      789      790      801
     189      1      789      790      791      802
     190      2      790      791      792      795
     191      1      791      795      796      807
     192      1      788      796      795      808
     193      2      811      812      813      820
     194      1      812      813      814      825
     195      1      813      814      815      826
     196      2      814      815      816      819
     197      1      815      819      820      831
     198      1      812      820      819      832
     199      2      835      836      837      844
     200      1      836      837      838      849
     201      1      837      838      839      850
     202      2      838      839      840      843
     203      1      839      843      844      855
     204      1      836      844      843      856
     205      2      859      860      861      868
     206      1      860      861      862      873
     207      1      861      862      863      874
     208      2      862      863      864      867
     209      1      863      867      868      879
     210      1      860      868      867      880

