LAMMPS data file generated by GM 1-hop + monomer-charge pipeline

    1032 atoms
    1075 bonds
    1892 angles
    2623 dihedrals
     258 impropers

       7 atom types
       9 bond types
      14 angle types
      17 dihedral types
       2 improper types

  -63.678100    60.112300 xlo xhi
  -48.551700    58.644600 ylo yhi
  -63.358700    58.939800 zlo zhi

Masses

       1    12.011000
       2    12.011000
       3    12.011000
       4    12.011000
       5     1.008000
       6     1.008000
       7    15.999000

Pair Coeffs

       1     0.070000     3.550000
       2     0.070000     3.550000
       3     0.066000     3.500000
       4     0.066000     3.500000
       5     0.030000     2.420000
       6     0.030000     2.500000
       7     0.140000     2.900000

Bond Coeffs

       1   469.000000     1.400000
       2   469.000000     1.400000
       3   367.000000     1.080000
       4   450.000000     1.364000
       5   268.000000     1.529000
       6   340.000000     1.090000
       7   320.000000     1.410000
       8   268.000000     1.529000
       9   340.000000     1.090000

Angle Coeffs

       1    63.000000   120.000000
       2    35.000000   120.000000
       3    63.000000   120.000000
       4    70.000000   120.000000
       5    35.000000   120.000000
       6    75.000000   111.000000
       7    58.350000   112.700000
       8    37.500000   110.700000
       9    37.500000   110.700000
      10    50.000000   109.500000
      11    37.500000   110.700000
      12    33.000000   107.800000
      13    35.000000   109.500000
      14    33.000000   107.800000

Dihedral Coeffs

       1     0.000000     7.250000     0.000000     0.000000
       2     0.000000     7.250000     0.000000     0.000000
       3     0.000000     7.250000     0.000000     0.000000
       4     0.000000     3.370000     0.000000     0.300000
       5     0.000000     7.250000     0.000000     0.000000
       6     0.000000     7.250000     0.000000     0.000000
       7     0.250000    -0.250000     0.500000     0.000000
       8     0.000000     0.000000     0.760000     0.000000
       9     0.850000    -0.200000     0.200000     0.000000
      10     0.000000     0.000000     0.300000     0.000000
      11     0.000000     0.000000     0.300000     0.000000
      12     1.300000    -0.500000     0.000000     0.000000
      13     0.000000     7.250000     0.000000     0.000000
      14     0.000000     7.250000     0.000000     0.000000
      15     0.000000     0.000000     0.300000     0.000000
      16     0.000000     0.000000     0.300000     0.000000
      17     0.000000     0.000000     0.300000     0.000000

Improper Coeffs

       1     2.500000   -1    2
       2     2.500000   -1    2

Atoms

       1    1      4  -0.18770333    -8.854300     2.273100   -41.058300
       2    1      3  -0.02450133    -8.290700     3.613000   -40.545700
       3    1      7  -0.31219133    -8.734900     4.700100   -41.497300
       4    1      2   0.05622167    -8.368000     6.082100   -41.005600
       5    1      1  -0.15013933    -8.567300     6.458300   -39.524600
       6    1      1  -0.14512533    -8.209400     7.875700   -39.033200
       7    1      2   0.07780067    -7.645100     8.914600   -40.021600
       8    1      7  -0.35497233    -7.211200    10.279000   -39.534400
       9    1      3   0.01045667    -8.241500    11.355600   -39.793500
      10    1      4  -0.18808133    -9.390200    11.292500   -38.768100
      11    1      1  -0.14512533    -7.446200     8.535900   -41.501300
      12    1      1  -0.15013933    -7.804900     7.121400   -41.992100
      13    1      6   0.10392067    -8.435300     2.040600   -42.092700
      14    1      6   0.10392067    -9.987800     2.374000   -41.126300
      15    1      6   0.10321667    -8.717300     3.827300   -39.510300
      16    1      6   0.10321667    -7.152900     3.570100   -40.490800
      17    1      5   0.17262267    -8.981000     5.688500   -38.792500
      18    1      5   0.16739167    -8.353500     8.151900   -37.936600
      19    1      6   0.09804667    -8.649200    11.248500   -40.852700
      20    1      6   0.09804667    -7.735200    12.371500   -39.687500
      21    1      6   0.11155167    -9.924600    10.288100   -38.841300
      22    1      6   0.11155167    -8.956500    11.417200   -37.721200
      23    1      5   0.16739167    -7.024000     9.301600   -42.232700
      24    1      5   0.17262267    -7.654800     6.844300   -43.087600
      25    1      4  -0.18770333    -8.532700     1.115700   -40.092800
      26    1      3  -0.02450133    -7.026200     0.801100   -40.005300
      27    1      7  -0.31219133    -6.511800     0.343400   -41.350300
      28    1      2   0.05622167    -5.219300    -0.414700   -41.151000
      29    1      1  -0.15013933    -4.567500    -0.468000   -39.756900
      30    1      1  -0.14512533    -3.305800    -1.322000   -39.527600
      31    1      2   0.07780067    -2.694000    -2.123200   -40.692700
      32    1      7  -0.35497233    -1.493900    -3.009800   -40.452400
      33    1      3   0.01045667    -1.254800    -3.891800   -41.655800
      34    1      4  -0.18808133    -0.096700    -4.866700   -41.363500
      35    1      1  -0.14512533    -3.327400    -2.045600   -42.094300
      36    1      1  -0.15013933    -4.589200    -1.190300   -42.323700
      37    1      6   0.10392067    -9.065300     0.176800   -40.459800
      38    1      6   0.10392067    -8.925300     1.384300   -39.057000
      39    1      6   0.10321667    -6.441800     1.712600   -39.648500
      40    1      6   0.10321667    -6.887100    -0.050700   -39.260500
      41    1      5   0.17262267    -5.028500     0.112600   -38.890800
      42    1      5   0.16739167    -2.830800    -1.369900   -38.492600
      43    1      6   0.09804667    -0.995300    -3.242100   -42.555800
      44    1      6   0.09804667    -2.200000    -4.488600   -41.879700
      45    1      6   0.11155167     0.849500    -4.276000   -41.128000
      46    1      6   0.11155167     0.084500    -5.531100   -42.272000
      47    1      5   0.16739167    -2.868600    -2.629600   -42.959500
      48    1      5   0.17262267    -5.064700    -1.143700   -43.358700
      49    1      4  -0.18770333    -0.474200    -5.742800   -40.153900
      50    1      3  -0.02450133     0.658800    -6.730700   -39.811600
      51    1      7  -0.31219133     0.928300    -7.670100   -40.964100
      52    1      2   0.05622167     1.966200    -8.672800   -40.517500
      53    1      1  -0.15013933     2.380700    -8.733600   -39.036200
      54    1      1  -0.14512533     3.449400    -9.743200   -38.575000
      55    1      2   0.07780067     4.109500   -10.687900   -39.596300
      56    1      7  -0.35497233     5.191000   -11.642800   -39.148400
      57    1      3   0.01045667     5.538700   -12.626300   -40.240700
      58    1      4  -0.18808133     6.824200   -13.370100   -39.829600
      59    1      1  -0.14512533     3.683900   -10.639500   -41.075800
      60    1      1  -0.15013933     2.614100    -9.629000   -41.537500
      61    1      6   0.10392067    -1.423300    -6.327000   -40.393800
      62    1      6   0.10392067    -0.664200    -5.068000   -39.254800
      63    1      6   0.10321667     1.609600    -6.151800   -39.566100
      64    1      6   0.10321667     0.350200    -7.345800   -38.902600
      65    1      5   0.17262267     1.897300    -8.029000   -38.281100
      66    1      5   0.16739167     3.757900    -9.785000   -37.478400
      67    1      6   0.09804667     5.733000   -12.057000   -41.209000
      68    1      6   0.09804667     4.681300   -13.361500   -40.395600
      69    1      6   0.11155167     7.648000   -12.597500   -39.675000
      70    1      6   0.11155167     7.139300   -14.097200   -40.649200
      71    1      5   0.16739167     4.166800   -11.345200   -41.830000
      72    1      5   0.17262267     2.303900    -9.587500   -42.633700
      73    1      4  -0.18770333     6.614600   -14.142100   -38.513100
      74    1      3  -0.02450133     7.970500   -14.719700   -38.063500
      75    1      7  -0.31219133     8.546600   -15.659400   -39.095900
      76    1      2   0.05622167    10.006800   -15.840200   -38.754200
      77    1      1  -0.15013933    10.541400   -15.335400   -37.401300
      78    1      1  -0.14512533    12.053600   -15.356500   -37.114900
      79    1      2   0.07780067    13.032400   -15.874400   -38.184800
      80    1      7  -0.35497233    14.522100   -15.751100   -37.966200
      81    1      3   0.01045667    15.287400   -16.984000   -38.384200
      82    1      4  -0.18808133    15.069600   -18.133400   -37.383300
      83    1      1  -0.14512533    12.490600   -16.472200   -39.496500
      84    1      1  -0.15013933    10.976400   -16.449600   -39.784700
      85    1      6   0.10392067     5.850000   -14.974100   -38.663700
      86    1      6   0.10392067     6.241400   -13.421600   -37.712300
      87    1      6   0.10321667     8.694500   -13.850300   -37.924100
      88    1      6   0.10321667     7.855600   -15.270400   -37.071900
      89    1      5   0.17262267     9.819300   -14.919900   -36.623100
      90    1      5   0.16739167    12.451100   -14.960700   -36.122600
      91    1      6   0.09804667    16.398500   -16.729100   -38.392300
      92    1      6   0.09804667    14.966800   -17.304000   -39.430400
      93    1      6   0.11155167    15.383300   -17.789100   -36.342900
      94    1      6   0.11155167    15.714600   -19.018800   -37.697700
      95    1      5   0.16739167    13.211800   -16.904200   -40.266700
      96    1      5   0.17262267    10.577400   -16.859600   -40.770800
      97    1      4  -0.18770333    13.596400   -18.577300   -37.355800
      98    1      3  -0.02450133    13.403000   -19.705700   -36.323000
      99    1      7  -0.31219133    14.289400   -20.891800   -36.626900
     100    1      2   0.05622167    15.732200   -20.550200   -36.335000
     101    1      1  -0.15013933    16.075100   -19.590000   -35.181300
     102    1      1  -0.14512533    17.543800   -19.228700   -34.888300
     103    1      2   0.07780067    18.671700   -19.827100   -35.750500
     104    1      7  -0.35497233    20.113400   -19.471900   -35.465700
     105    1      3   0.01045667    20.806700   -20.662500   -34.846300
     106    1      4  -0.18808133    22.290200   -20.352300   -34.562800
     107    1      1  -0.14512533    18.327300   -20.775900   -36.914200
     108    1      1  -0.15013933    16.857900   -21.135400   -37.207900
     109    1      6   0.10392067    13.301200   -18.951000   -38.391500
     110    1      6   0.10392067    12.934800   -17.694000   -37.070600
     111    1      6   0.10321667    13.654600   -19.317500   -35.281000
     112    1      6   0.10321667    12.312400   -20.036800   -36.348000
     113    1      5   0.17262267    15.240800   -19.143700   -34.545600
     114    1      5   0.16739167    17.796200   -18.518600   -34.032800
     115    1      6   0.09804667    20.739600   -21.546700   -35.562800
     116    1      6   0.09804667    20.285400   -20.931100   -33.868700
     117    1      6   0.11155167    22.776900   -21.270900   -34.094800
     118    1      6   0.11155167    22.823000   -20.097400   -35.537800
     119    1      5   0.16739167    19.160200   -21.213000   -37.558200
     120    1      5   0.17262267    16.604000   -21.836000   -38.070700
     121    1      4  -0.18770333    22.413000   -19.166300   -33.587400
     122    1      3  -0.02450133    23.897700   -18.912800   -33.257200
     123    1      7  -0.31219133    24.468700   -20.153100   -32.611700
     124    1      2   0.05622167    25.907900   -19.963600   -32.188700
     125    1      1  -0.15013933    26.329800   -20.287500   -30.743000
     126    1      1  -0.14512533    27.809600   -20.182100   -30.328700
     127    1      2   0.07780067    28.868800   -19.746000   -31.358000
     128    1      7  -0.35497233    30.334100   -19.765400   -30.987600
     129    1      3   0.01045667    30.982100   -18.400200   -30.966900
     130    1      4  -0.18808133    30.497900   -17.546700   -29.778800
     131    1      1  -0.14512533    28.438300   -19.362000   -32.786800
     132    1      1  -0.15013933    26.958100   -19.471200   -33.202300
     133    1      6   0.10392067    21.956300   -18.235800   -34.061800
     134    1      6   0.10392067    21.855700   -19.412500   -32.623900
     135    1      6   0.10321667    24.473700   -18.674900   -34.211900
     136    1      6   0.10321667    23.980000   -18.036300   -32.533100
     137    1      5   0.17262267    25.548200   -20.622700   -29.983900
     138    1      5   0.16739167    28.123000   -20.443100   -29.264200
     139    1      6   0.09804667    30.770000   -17.858900   -31.947500
     140    1      6   0.09804667    32.107400   -18.545600   -30.858400
     141    1      6   0.11155167    30.707000   -18.099400   -28.804100
     142    1      6   0.11155167    31.071700   -16.562900   -29.784400
     143    1      5   0.16739167    29.218300   -19.016300   -33.543000
     144    1      5   0.17262267    26.643200   -19.203000   -34.264500
     145    1      4  -0.18770333    28.993200   -17.243200   -29.889900
     146    1      3  -0.02450133    28.513700   -16.397300   -28.693000
     147    1      7  -0.31219133    29.234400   -15.070900   -28.615200
     148    1      2   0.05622167    30.678100   -15.266300   -28.218800
     149    1      1  -0.15013933    31.024300   -16.032400   -26.928400
     150    1      1  -0.14512533    32.497800   -16.248400   -26.532000
     151    1      2   0.07780067    33.622200   -15.710100   -27.435000
     152    1      7  -0.35497233    35.067500   -15.955500   -27.079800
     153    1      3   0.01045667    35.865100   -14.712100   -27.389200
     154    1      4  -0.18808133    35.665500   -13.648500   -26.293500
     155    1      1  -0.14512533    33.275900   -14.922900   -28.711400
     156    1      1  -0.15013933    31.803900   -14.703800   -29.106100
     157    1      6   0.10392067    28.796000   -16.675900   -30.858600
     158    1      6   0.10392067    28.412300   -18.223000   -29.903000
     159    1      6   0.10321667    27.397800   -16.200700   -28.817300
     160    1      6   0.10321667    28.685900   -16.972200   -27.723700
     161    1      5   0.17262267    30.190000   -16.441900   -26.267900
     162    1      5   0.16739167    32.754700   -16.815000   -25.576700
     163    1      6   0.09804667    35.546300   -14.300500   -28.403500
     164    1      6   0.09804667    36.972000   -14.981900   -27.423600
     165    1      6   0.11155167    36.025100   -14.076700   -25.300300
     166    1      6   0.11155167    36.292200   -12.731600   -26.550900
     167    1      5   0.16739167    34.110900   -14.509400   -29.368300
     168    1      5   0.17262267    31.547500   -14.130200   -30.057300
     169    1      4  -0.18770333    34.197000   -13.213700   -26.134100
     170    1      3  -0.02450133    34.193500   -12.168600   -25.003100
     171    1      7  -0.31219133    35.101400   -11.037300   -25.422100
     172    1      2   0.05622167    35.594400   -10.269800   -24.218900
     173    1      1  -0.15013933    34.597000    -9.693700   -23.196200
     174    1      1  -0.14512533    35.116500    -8.947900   -21.952700
     175    1      2   0.07780067    36.632600    -8.784800   -21.729500
     176    1      7  -0.35497233    37.147100    -8.054100   -20.513500
     177    1      3   0.01045667    38.495600    -7.453400   -20.833100
     178    1      4  -0.18808133    38.997000    -6.684400   -19.597100
     179    1      1  -0.14512533    37.627600    -9.343100   -22.761500
     180    1      1  -0.15013933    37.108200   -10.088000   -24.004600
     181    1      6   0.10392067    33.813300   -12.753000   -27.103600
     182    1      6   0.10392067    33.550300   -14.108600   -25.849200
     183    1      6   0.10321667    33.141500   -11.780100   -24.799100
     184    1      6   0.10321667    34.612000   -12.656700   -24.061600
     185    1      5   0.17262267    33.476000    -9.823400   -23.357300
     186    1      5   0.16739167    34.379700    -8.519900   -21.195500
     187    1      6   0.09804667    38.387100    -6.732700   -21.709700
     188    1      6   0.09804667    39.233700    -8.278300   -21.106400
     189    1      6   0.11155167    39.113000    -7.403600   -18.720200
     190    1      6   0.11155167    39.998300    -6.188800   -19.823300
     191    1      5   0.16739167    38.748700    -9.207900   -22.603500
     192    1      5   0.17262267    37.845700   -10.509700   -24.764800
     193    1      4  -0.18770333    37.941800    -5.618500   -19.251900
     194    1      3  -0.02450133    38.346900    -4.817500   -18.000700
     195    1      7  -0.31219133    37.242700    -3.826100   -17.723800
     196    1      2   0.05622167    37.511400    -3.010300   -16.482000
     197    1      1  -0.15013933    36.416300    -2.868900   -15.409400
     198    1      1  -0.14512533    36.658800    -1.986500   -14.172400
     199    1      2   0.07780067    37.997500    -1.243800   -14.005900
     200    1      7  -0.35497233    38.215100    -0.353700   -12.804900
     201    1      3   0.01045667    37.861300     1.068300   -13.172600
     202    1      4  -0.18808133    37.846300     1.950200   -11.909000
     203    1      1  -0.14512533    39.111600    -1.421700   -15.054800
     204    1      1  -0.15013933    38.868800    -2.306600   -16.293900
     205    1      6   0.10392067    37.821800    -4.906700   -20.134200
     206    1      6   0.10392067    36.947600    -6.139200   -19.051500
     207    1      6   0.10321667    39.328300    -4.268100   -18.187100
     208    1      6   0.10321667    38.462300    -5.523600   -17.113200
     209    1      5   0.17262267    35.420600    -3.408800   -15.536900
     210    1      5   0.16739167    35.843900    -1.874800   -13.383200
     211    1      6   0.09804667    36.822500     1.084000   -13.641600
     212    1      6   0.09804667    38.621400     1.469400   -13.921800
     213    1      6   0.11155167    38.873200     1.941500   -11.413900
     214    1      6   0.11155167    37.567000     3.018400   -12.192900
     215    1      5   0.16739167    40.112300    -0.892600   -14.919900
     216    1      5   0.17262267    39.688500    -2.431900   -17.076400
     217    1      4  -0.18770333    36.791400     1.382100   -10.941400
     218    1      3  -0.02450133    36.681000     2.230400    -9.659200
     219    1      7  -0.31219133    36.263100     3.643700    -9.991900
     220    1      2   0.05622167    35.885500     4.356000    -8.713000
     221    1      1  -0.15013933    34.820200     3.743700    -7.785700
     222    1      1  -0.14512533    34.421000     4.466000    -6.485300
     223    1      2   0.07780067    35.092600     5.799100    -6.104800
     224    1      7  -0.35497233    34.706000     6.495400    -4.818700
     225    1      3   0.01045667    34.397100     7.956700    -5.048400
     226    1      4  -0.18808133    33.954400     8.604900    -3.720200
     227    1      1  -0.14512533    36.156700     6.414400    -7.034100
     228    1      1  -0.15013933    36.555800     5.691900    -8.336000
     229    1      6   0.10392067    35.778300     1.371600   -11.463800
     230    1      6   0.10392067    37.080900     0.315000   -10.663400
     231    1      6   0.10321667    35.888500     1.764200    -8.985000
     232    1      6   0.10321667    37.680700     2.245500    -9.111600
     233    1      5   0.17262267    34.324600     2.755100    -8.061800
     234    1      5   0.16739167    33.629800     4.011900    -5.801300
     235    1      6   0.09804667    33.556400     8.050900    -5.812700
     236    1      6   0.09804667    35.328500     8.483100    -5.441900
     237    1      6   0.11155167    34.790500     8.505200    -2.951900
     238    1      6   0.11155167    33.723100     9.708400    -3.889300
     239    1      5   0.16739167    36.651300     7.403200    -6.757500
     240    1      5   0.17262267    37.345600     6.146000    -9.021500
     241    1      4  -0.18770333    32.691800     7.888100    -3.204200
     242    1      3  -0.02450133    32.202600     8.473100    -1.862800
     243    1      7  -0.31219133    31.827900     9.931200    -1.996200
     244    1      2   0.05622167    31.148400    10.400800    -0.728100
     245    1      1  -0.15013933    29.694100     9.983900    -0.437600
     246    1      1  -0.14512533    28.990800    10.469200     0.844900
     247    1      2   0.07780067    29.738100    11.377000     1.840500
     248    1      7  -0.35497233    29.061400    11.811900     3.123200
     249    1      3   0.01045667    28.512500    13.216000     3.007000
     250    1      4  -0.18808133    27.814300    13.644100     4.316200
     251    1      1  -0.14512533    31.191000    11.800200     1.547900
     252    1      1  -0.15013933    31.895000    11.314600     0.262900
     253    1      6   0.10392067    31.863000     7.989600    -3.980300
     254    1      6   0.10392067    32.933600     6.783700    -3.058000
     255    1      6   0.10321667    31.280100     7.890600    -1.531800
     256    1      6   0.10321667    33.017500     8.362100    -1.073500
     257    1      5   0.17262267    29.137500     9.313500    -1.172500
     258    1      5   0.16739167    27.916900    10.152800     1.059700
     259    1      6   0.09804667    27.761300    13.256400     2.150500
     260    1      6   0.09804667    29.371500    13.933000     2.788600
     261    1      6   0.11155167    28.561600    13.605200     5.176200
     262    1      6   0.11155167    27.424600    14.709400     4.202300
     263    1      5   0.16739167    31.747900    12.469800     2.283700
     264    1      5   0.17262267    32.969000    11.630800     0.047400
     265    1      4  -0.18770333    26.630700    12.704500     4.620600
     266    1      3  -0.02450133    25.893000    13.108900     5.915900
     267    1      7  -0.31219133    25.306000    14.497800     5.800900
     268    1      2   0.05622167    24.410700    14.807500     6.982900
     269    1      1  -0.15013933    22.989500    15.355200     6.747500
     270    1      1  -0.14512533    22.064400    15.652700     7.944700
     271    1      2   0.07780067    22.556500    15.401500     9.382800
     272    1      7  -0.35497233    21.637700    15.666700    10.558000
     273    1      3   0.01045667    21.332200    17.143500    10.666900
     274    1      4  -0.18808133    20.461800    17.474000    11.899900
     275    1      1  -0.14512533    23.981100    14.860500     9.619300
     276    1      1  -0.15013933    24.906000    14.562100     8.421300
     277    1      6   0.10392067    25.895500    12.739000     3.750100
     278    1      6   0.10392067    27.026800    11.641600     4.734300
     279    1      6   0.10321667    25.043700    12.369200     6.092400
     280    1      6   0.10321667    26.612100    13.072200     6.799700
     281    1      5   0.17262267    22.620000    15.538500     5.684800
     282    1      5   0.16739167    21.013100    16.055700     7.765300
     283    1      6   0.09804667    20.794800    17.487000     9.722100
     284    1      6   0.09804667    22.318700    17.707400    10.759100
     285    1      6   0.11155167    20.999800    17.132800    12.845400
     286    1      6   0.11155167    20.314100    18.603600    11.941400
     287    1      5   0.16739167    24.350500    14.676300    10.681900
     288    1      5   0.17262267    25.956500    14.156800     8.599700
     289    1      4  -0.18770333    19.072100    16.807300    11.832900
     290    1      3  -0.02450133    18.219100    17.226200    13.051600
     291    1      7  -0.31219133    16.846800    16.596400    12.956100
     292    1      2   0.05622167    15.910800    16.992000    14.080300
     293    1      1  -0.15013933    15.136300    18.323300    14.012500
     294    1      1  -0.14512533    14.089500    18.667100    15.092000
     295    1      2   0.07780067    13.814300    17.681100    16.244400
     296    1      7  -0.35497233    12.735500    17.976500    17.265800
     297    1      3   0.01045667    12.016000    16.679700    17.561400
     298    1      4  -0.18808133    10.926400    16.785700    18.652100
     299    1      1  -0.14512533    14.612900    16.366500    16.331600
     300    1      1  -0.15013933    15.662100    16.023800    15.253000
     301    1      6   0.10392067    18.544800    17.144400    10.880100
     302    1      6   0.10392067    19.192400    15.673800    11.817000
     303    1      6   0.10321667    18.109800    18.361000    13.059600
     304    1      6   0.10321667    18.730300    16.887500    14.012500
     305    1      5   0.17262267    15.325400    19.047700    13.153100
     306    1      5   0.16739167    13.509600    19.646700    15.030300
     307    1      6   0.09804667    12.792800    15.919600    17.906200
     308    1      6   0.09804667    11.536200    16.302100    16.598800
     309    1      6   0.11155167    10.486800    15.744000    18.797600
     310    1      6   0.11155167    11.391500    17.132600    19.633500
     311    1      5   0.16739167    14.418600    15.639800    17.188500
     312    1      5   0.17262267    16.241200    15.043600    15.313400
     313    1      4  -0.18770333     9.775000    17.737100    18.266100
     314    1      3  -0.02450133     8.646100    17.635400    19.316100
     315    1      7  -0.31219133     7.491900    18.537300    18.939100
     316    1      2   0.05622167     6.229300    18.205300    19.707500
     317    1      1  -0.15013933     5.199900    19.309000    20.022200
     318    1      1  -0.14512533     3.852100    18.946700    20.681000
     319    1      2   0.07780067     3.535100    17.480100    21.033200
     320    1      7  -0.35497233     2.157800    17.091300    21.529400
     321    1      3   0.01045667     2.145300    16.737300    22.998800
     322    1      4  -0.18808133     0.903600    15.879500    23.325400
     323    1      1  -0.14512533     4.601200    16.391100    20.798400
     324    1      1  -0.15013933     5.948000    16.754400    20.139900
     325    1      6   0.10392067    10.163700    18.806500    18.195900
     326    1      6   0.10392067     9.353900    17.419400    17.255500
     327    1      6   0.10321667     9.037000    17.923400    20.347500
     328    1      6   0.10321667     8.275800    16.557400    19.342000
     329    1      5   0.17262267     5.424100    20.391500    19.743500
     330    1      5   0.16739167     3.080900    19.761100    20.884600
     331    1      6   0.09804667     2.165100    17.682600    23.635800
     332    1      6   0.09804667     3.071300    16.111500    23.223300
     333    1      6   0.11155167     0.935000    14.957300    22.656100
     334    1      6   0.11155167     0.953200    15.547500    24.414900
     335    1      5   0.16739167     4.383100    15.310600    21.089900
     336    1      5   0.17262267     6.725900    15.943400    19.949100
     337    1      4  -0.18770333    -0.440600    16.601900    23.097800
     338    1      3  -0.02450133    -0.610200    17.771800    24.085700
     339    1      7  -0.31219133    -1.951800    18.444300    23.890700
     340    1      2   0.05622167    -3.122300    17.520600    24.154800
     341    1      1  -0.15013933    -4.096400    17.817100    25.313000
     342    1      1  -0.14512533    -5.323000    16.910900    25.545900
     343    1      2   0.07780067    -5.574400    15.701500    24.624900
     344    1      7  -0.35497233    -6.776400    14.806900    24.842500
     345    1      3   0.01045667    -8.046200    15.576000    25.133800
     346    1      4  -0.18808133    -9.230700    14.587500    25.198400
     347    1      1  -0.14512533    -4.597200    15.402400    23.471600
     348    1      1  -0.15013933    -3.371500    16.308100    23.238800
     349    1      6   0.10392067    -1.285800    15.859000    23.279700
     350    1      6   0.10392067    -0.499100    16.980300    22.024100
     351    1      6   0.10321667     0.223500    18.529800    23.912400
     352    1      6   0.10321667    -0.543800    17.375700    25.152500
     353    1      5   0.17262267    -3.914100    18.713100    25.993900
     354    1      5   0.16739167    -6.044600    17.136000    26.399300
     355    1      6   0.09804667    -8.232700    16.329000    24.298500
     356    1      6   0.09804667    -7.942000    16.126700    26.126600
     357    1      6   0.11155167    -9.312700    14.049700    24.196500
     358    1      6   0.11155167    -9.042400    13.821900    26.021700
     359    1      5   0.16739167    -4.780500    14.508300    22.788600
     360    1      5   0.17262267    -2.649700    16.082400    22.385400
     361    1      4  -0.18770333   -10.557900    15.321500    25.481600
     362    1      3  -0.02450133   -11.735500    14.322800    25.478400
     363    1      7  -0.31219133   -13.031300    15.055100    25.747200
     364    1      2   0.05622167   -14.240100    14.152500    25.618200
     365    1      1  -0.15013933   -14.988100    13.671200    26.877300
     366    1      1  -0.14512533   -16.266400    12.819000    26.739500
     367    1      2   0.07780067   -16.802900    12.450900    25.342400
     368    1      7  -0.35497233   -18.064000    11.624800    25.200900
     369    1      3   0.01045667   -19.250700    12.550300    25.059400
     370    1      4  -0.18808133   -20.564500    11.790300    24.777200
     371    1      1  -0.14512533   -16.040300    12.910800    24.085100
     372    1      1  -0.15013933   -14.762800    13.761900    24.222600
     373    1      6   0.10392067   -10.733800    16.102400    24.669900
     374    1      6   0.10392067   -10.495900    15.838600    26.495700
     375    1      6   0.10321667   -11.572200    13.530100    26.281200
     376    1      6   0.10321667   -11.793500    13.820800    24.456500
     377    1      5   0.17262267   -14.601200    13.953400    27.912000
     378    1      5   0.16739167   -16.818800    12.466800    27.672300
     379    1      6   0.09804667   -19.364800    13.153900    26.019800
     380    1      6   0.09804667   -19.053000    13.264400    24.193100
     381    1      6   0.11155167   -20.472400    11.207000    23.802100
     382    1      6   0.11155167   -21.404600    12.554500    24.678500
     383    1      5   0.16739167   -16.425700    12.626400    23.050700
     384    1      5   0.17262267   -14.209000    14.110800    23.289300
     385    1      4  -0.18770333   -20.915400    10.817600    25.919600
     386    1      3  -0.02450133   -22.294500    10.173100    25.663600
     387    1      7  -0.31219133   -22.320600     9.392900    24.369500
     388    1      2   0.05622167   -23.706000     8.823200    24.152900
     389    1      1  -0.15013933   -24.425600     8.086600    25.298200
     390    1      1  -0.14512533   -25.851200     7.537500    25.089500
     391    1      2   0.07780067   -26.563200     7.731000    23.736300
     392    1      7  -0.35497233   -27.984100     7.246200    23.551600
     393    1      3   0.01045667   -28.465400     7.544300    22.149700
     394    1      4  -0.18808133   -29.991900     7.338400    22.054000
     395    1      1  -0.14512533   -25.837500     8.452600    22.584800
     396    1      1  -0.15013933   -24.410600     8.999100    22.793800
     397    1      6   0.10392067   -20.962100    11.397400    26.900000
     398    1      6   0.10392067   -20.112600    10.011900    25.995800
     399    1      6   0.10321667   -23.081100    10.996600    25.611500
     400    1      6   0.10321667   -22.547000     9.470400    26.525100
     401    1      5   0.17262267   -23.905200     7.952200    26.303500
     402    1      5   0.16739167   -26.382900     6.996800    25.940800
     403    1      6   0.09804667   -28.232700     8.634300    21.910300
     404    1      6   0.09804667   -27.926700     6.871800    21.403300
     405    1      6   0.11155167   -30.349100     7.617000    21.007800
     406    1      6   0.11155167   -30.493700     8.023100    22.814900
     407    1      5   0.16739167   -26.360200     8.590900    21.581000
     408    1      5   0.17262267   -23.877900     9.539600    21.943300
     409    1      4  -0.18770333   -30.402900     5.882300    22.349000
     410    1      3  -0.02450133   -31.942900     5.792300    22.342200
     411    1      7  -0.31219133   -32.518400     6.190100    21.001500
     412    1      2   0.05622167   -32.989300     4.987100    20.213900
     413    1      1  -0.15013933   -33.047300     3.599900    20.880200
     414    1      1  -0.14512533   -33.588600     2.388200    20.095200
     415    1      2   0.07780067   -34.069100     2.561100    18.640700
     416    1      7  -0.35497233   -34.604400     1.372400    17.872900
     417    1      3   0.01045667   -34.820500     1.738000    16.422300
     418    1      4  -0.18808133   -35.303100     0.514300    15.614800
     419    1      1  -0.14512533   -33.988600     3.943900    17.966900
     420    1      1  -0.15013933   -33.448500     5.155100    18.752500
     421    1      6   0.10392067   -30.020500     5.588400    23.381900
     422    1      6   0.10392067   -29.960800     5.183600    21.564100
     423    1      6   0.10321667   -32.337400     6.512300    23.133200
     424    1      6   0.10321667   -32.278100     4.734000    22.601300
     425    1      5   0.17262267   -32.699000     3.471200    21.958100
     426    1      5   0.16739167   -33.636900     1.363300    20.591900
     427    1      6   0.09804667   -35.596300     2.570400    16.354200
     428    1      6   0.09804667   -33.835200     2.107700    15.983900
     429    1      6   0.11155167   -34.523100    -0.314200    15.683400
     430    1      6   0.11155167   -35.438900     0.814300    14.523500
     431    1      5   0.16739167   -34.332100     4.071800    16.887400
     432    1      5   0.17262267   -33.397600     6.179100    18.254000
     433    1      4  -0.18770333   -36.646700    -0.002500    16.164500
     434    1      3  -0.02450133   -37.140800    -1.223900    15.360600
     435    1      7  -0.31219133   -37.360700    -0.860900    13.909800
     436    1      2   0.05622167   -37.968700    -2.028500    13.163900
     437    1      1  -0.15013933   -37.976100    -3.431600    13.798900
     438    1      1  -0.14512533   -38.629800    -4.612800    13.054800
     439    1      2   0.07780067   -39.283900    -4.392000    11.676500
     440    1      7  -0.35497233   -39.935200    -5.549900    10.953900
     441    1      3   0.01045667   -39.634600    -5.507300     9.473300
     442    1      4  -0.18808133   -40.303300    -6.707600     8.772500
     443    1      1  -0.14512533   -39.264100    -2.992200    11.034600
     444    1      1  -0.15013933   -38.610900    -1.810200    11.779900
     445    1      6   0.10392067   -37.423800     0.828800    16.097300
     446    1      6   0.10392067   -36.510400    -0.302100    17.256000
     447    1      6   0.10321667   -38.128200    -1.581200    15.804200
     448    1      6   0.10321667   -36.374400    -2.065200    15.428100
     449    1      5   0.17262267   -37.501000    -3.595500    14.821900
     450    1      5   0.16739167   -38.634200    -5.650800    13.526200
     451    1      6   0.09804667   -40.037500    -4.535700     9.033700
     452    1      6   0.09804667   -38.506900    -5.555400     9.314500
     453    1      6   0.11155167   -39.901700    -7.678400     9.215300
     454    1      6   0.11155167   -40.078300    -6.680700     7.655200
     455    1      5   0.16739167   -39.736900    -2.828900    10.010200
     456    1      5   0.17262267   -38.605800    -0.772400    11.307800
     457    1      4  -0.18770333   -41.825000    -6.636300     8.993200
     458    1      3  -0.02450133   -42.569200    -7.824400     8.350200
     459    1      7  -0.31219133   -42.410300    -7.865000     6.847600
     460    1      2   0.05622167   -41.076800    -8.441900     6.434200
     461    1      1  -0.15013933   -40.155900    -9.087700     7.485200
     462    1      1  -0.14512533   -38.812900    -9.707100     7.055600
     463    1      2   0.07780067   -38.387300    -9.673200     5.575900
     464    1      7  -0.35497233   -37.061500   -10.260700     5.156300
     465    1      3   0.01045667   -37.118600   -10.775700     3.736500
     466    1      4  -0.18808133   -37.953200   -12.067700     3.635600
     467    1      1  -0.14512533   -39.313800    -9.039700     4.522500
     468    1      1  -0.15013933   -40.655700    -8.417900     4.952700
     469    1      6   0.10392067   -42.220900    -5.663900     8.549700
     470    1      6   0.10392067   -42.027600    -6.643900    10.115000
     471    1      6   0.10321667   -43.678100    -7.703600     8.585100
     472    1      6   0.10321667   -42.200000    -8.806200     8.796900
     473    1      5   0.17262267   -40.468000    -9.105000     8.581700
     474    1      5   0.16739167   -38.131200   -10.185600     7.833900
     475    1      6   0.09804667   -37.558900    -9.973100     3.056800
     476    1      6   0.09804667   -36.056500   -11.014500     3.398400
     477    1      6   0.11155167   -37.498100   -12.857900     4.319800
     478    1      6   0.11155167   -37.916400   -12.435900     2.557900
     479    1      5   0.16739167   -39.004900    -9.029300     3.425000
     480    1      5   0.17262267   -41.340100    -7.945300     4.173100
     481    1      4  -0.18770333   -39.422800   -11.835200     4.035900
     482    1      3  -0.02450133   -40.229700   -13.149900     3.970500
     483    1      7  -0.31219133   -40.251000   -13.744900     2.580100
     484    1      2   0.05622167   -38.860400   -14.182300     2.188600
     485    1      1  -0.15013933   -37.923100   -14.792900     3.246100
     486    1      1  -0.14512533   -36.464000   -15.123900     2.882300
     487    1      2   0.07780067   -35.944800   -14.851100     1.458000
     488    1      7  -0.35497233   -34.481900   -15.047000     1.138000
     489    1      3   0.01045667   -34.190400   -16.211700     0.220200
     490    1      4  -0.18808133   -34.473300   -17.564100     0.901800
     491    1      1  -0.14512533   -36.899200   -14.296500     0.384600
     492    1      1  -0.15013933   -38.356500   -13.957000     0.751200
     493    1      6   0.10392067   -39.886900   -11.064600     3.335500
     494    1      6   0.10392067   -39.458000   -11.440700     5.104800
     495    1      6   0.10321667   -41.302000   -12.931300     4.289800
     496    1      6   0.10321667   -39.771800   -13.907800     4.688800
     497    1      5   0.17262267   -38.302700   -14.976000     4.305100
     498    1      5   0.16739167   -35.762400   -15.553900     3.671400
     499    1      6   0.09804667   -33.080900   -16.176300    -0.039300
     500    1      6   0.09804667   -34.801100   -16.121300    -0.738200
     501    1      6   0.11155167   -33.892600   -17.618900     1.881200
     502    1      6   0.11155167   -34.121400   -18.397400     0.208400
     503    1      5   0.16739167   -36.521400   -14.114900    -0.675600
     504    1      5   0.17262267   -39.056800   -13.523000    -0.036800
     505    1      4  -0.18770333   -35.976300   -17.764900     1.169000
     506    1      3  -0.02450133   -36.226400   -19.115300     1.871700
     507    1      7  -0.31219133   -35.674300   -20.270800     1.068200
     508    1      2   0.05622167   -34.166800   -20.230800     1.141800
     509    1      1  -0.15013933   -33.481500   -19.694600     2.411800
     510    1      1  -0.14512533   -31.946700   -19.585900     2.471000
     511    1      2   0.07780067   -31.097400   -20.015100     1.261600
     512    1      7  -0.35497233   -29.594200   -19.892000     1.318600
     513    1      3   0.01045667   -28.906600   -21.209800     1.046000
     514    1      4  -0.18808133   -29.253300   -22.265900     2.114300
     515    1      1  -0.14512533   -31.781000   -20.574600    -0.000100
     516    1      1  -0.15013933   -33.316900   -20.676100    -0.062600
     517    1      6   0.10392067   -36.530400   -17.748100     0.172900
     518    1      6   0.10392067   -36.367900   -16.925900     1.832300
     519    1      6   0.10321667   -35.722600   -19.111200     2.894500
     520    1      6   0.10321667   -37.350200   -19.251700     2.006500
     521    1      5   0.17262267   -34.112700   -19.365600     3.302700
     522    1      5   0.16739167   -31.440200   -19.183300     3.409400
     523    1      6   0.09804667   -27.780700   -21.032400     1.066400
     524    1      6   0.09804667   -29.206900   -21.596000     0.016200
     525    1      6   0.11155167   -28.984800   -21.863600     3.146600
     526    1      6   0.11155167   -28.644400   -23.206900     1.906500
     527    1      5   0.16739167   -31.149500   -20.907000    -0.889300
     528    1      5   0.17262267   -33.823300   -21.076000    -1.002200
     529    1      4  -0.18770333   -30.747300   -22.638400     2.070300
     530    1      3  -0.02450133   -31.080400   -23.717300     3.119500
     531    1      7  -0.31219133   -30.254100   -24.964700     2.906500
     532    1      2   0.05622167   -28.847600   -24.736700     3.408400
     533    1      1  -0.15013933   -28.557100   -23.566700     4.365600
     534    1      1  -0.14512533   -27.134300   -23.352100     4.911000
     535    1      2   0.07780067   -26.000800   -24.311300     4.502700
     536    1      7  -0.35497233   -24.622800   -24.145800     5.096800
     537    1      3   0.01045667   -23.842100   -25.423700     4.903000
     538    1      4  -0.18808133   -22.517100   -25.328300     5.682000
     539    1      1  -0.14512533   -26.285400   -25.468800     3.527400
     540    1      1  -0.15013933   -27.708000   -25.677700     2.975200
     541    1      6   0.10392067   -30.995200   -23.038600     1.032100
     542    1      6   0.10392067   -31.384400   -21.718400     2.282300
     543    1      6   0.10321667   -30.881700   -23.314800     4.167600
     544    1      6   0.10321667   -32.184800   -23.981900     3.020000
     545    1      5   0.17262267   -29.397400   -22.859100     4.670200
     546    1      5   0.16739167   -26.921700   -22.489100     5.624900
     547    1      6   0.09804667   -23.637600   -25.585200     3.793000
     548    1      6   0.09804667   -24.448900   -26.299200     5.308600
     549    1      6   0.11155167   -21.925400   -26.294500     5.555800
     550    1      6   0.11155167   -21.902900   -24.448800     5.296200
     551    1      5   0.16739167   -25.444900   -26.175700     3.221200
     552    1      5   0.17262267   -27.919300   -26.535800     2.255300
     553    1      4  -0.18770333   -22.853800   -25.117000     7.169700
     554    1      3  -0.02450133   -21.568400   -25.025000     8.012900
     555    1      7  -0.31219133   -20.771800   -26.302500     7.895000
     556    1      2   0.05622167   -19.614600   -26.213100     8.860400
     557    1      1  -0.15013933   -19.720200   -25.296300    10.092700
     558    1      1  -0.14512533   -18.540800   -25.187900    11.075400
     559    1      2   0.07780067   -17.249800   -25.987700    10.820500
     560    1      7  -0.35497233   -16.092100   -25.875100    11.783200
     561    1      3   0.01045667   -15.270100   -27.141500    11.771400
     562    1      4  -0.18808133   -14.076200   -26.953400    12.726200
     563    1      1  -0.14512533   -17.145100   -26.910000     9.591700
     564    1      1  -0.15013933   -18.326300   -27.018400     8.607400
     565    1      6   0.10392067   -23.449600   -24.151700     7.283600
     566    1      6   0.10392067   -23.481800   -25.993500     7.539700
     567    1      6   0.10321667   -20.934400   -24.147100     7.656700
     568    1      6   0.10321667   -21.852100   -24.865500     9.105600
     569    1      5   0.17262267   -20.673400   -24.698100    10.275900
     570    1      5   0.16739167   -18.621000   -24.512300    11.990000
     571    1      6   0.09804667   -14.890200   -27.339900    10.715000
     572    1      6   0.09804667   -15.909600   -28.019000    12.118600
     573    1      6   0.11155167   -13.430500   -27.892900    12.736500
     574    1      6   0.11155167   -13.452900   -26.067100    12.372200
     575    1      5   0.16739167   -16.192800   -27.509500     9.408200
     576    1      5   0.17262267   -18.246100   -27.695000     7.693300
     577    1      4  -0.18770333   -14.603100   -26.671200    14.145300
     578    1      3  -0.02450133   -13.422300   -26.400200    15.096300
     579    1      7  -0.31219133   -12.495300   -27.590300    15.155400
     580    1      2   0.05622167   -11.356000   -27.233200    16.079200
     581    1      1  -0.15013933   -11.591100   -26.244900    17.236000
     582    1      1  -0.14512533   -10.419700   -25.830800    18.146600
     583    1      2   0.07780067    -9.010400   -26.397900    17.893600
     584    1      7  -0.35497233    -7.855600   -25.973000    18.769100
     585    1      3   0.01045667    -6.995600   -27.171500    19.091500
     586    1      4  -0.18808133    -5.767800   -26.719800    19.905600
     587    1      1  -0.14512533    -8.779100   -27.403500    16.750700
     588    1      1  -0.15013933    -9.951300   -27.817600    15.839100
     589    1      6   0.10392067   -15.276300   -25.751600    14.118100
     590    1      6   0.10392067   -15.202300   -27.567600    14.515500
     591    1      6   0.10321667   -12.841000   -25.494800    14.720000
     592    1      6   0.10321667   -13.818700   -26.182200    16.142800
     593    1      5   0.17262267   -12.631700   -25.814500    17.414000
     594    1      5   0.16739167   -10.593700   -25.098600    19.002800
     595    1      6   0.09804667    -6.647300   -27.657600    18.120600
     596    1      6   0.09804667    -7.602900   -27.923100    19.696100
     597    1      6   0.11155167    -5.119900   -27.625000    20.151500
     598    1      6   0.11155167    -5.161800   -25.974900    19.291100
     599    1      5   0.16739167    -7.739000   -27.835900    16.574700
     600    1      5   0.17262267    -9.777900   -28.551700    14.984000
     601    1      4  -0.18770333    -6.223100   -26.046000    21.213700
     602    1      3  -0.02450133    -4.984600   -25.591900    22.010400
     603    1      7  -0.31219133    -4.128900   -26.792600    22.336900
     604    1      2   0.05622167    -2.885100   -26.359400    23.077000
     605    1      1  -0.15013933    -2.999200   -25.708200    24.468400
     606    1      1  -0.14512533    -1.725900   -25.286200    25.229400
     607    1      2   0.07780067    -0.339800   -25.517000    24.597700
     608    1      7  -0.35497233     0.913100   -25.102800    25.333600
     609    1      3   0.01045667     1.182300   -26.050200    26.478800
     610    1      4  -0.18808133     2.594200   -25.788000    27.037700
     611    1      1  -0.14512533    -0.228500   -26.158600    23.202400
     612    1      1  -0.15013933    -1.499400   -26.580800    22.443300
     613    1      6   0.10392067    -6.870300   -25.140500    20.967300
     614    1      6   0.10392067    -6.826700   -26.787300    21.834900
     615    1      6   0.10321667    -4.381400   -24.855600    21.383100
     616    1      6   0.10321667    -5.314500   -25.087200    22.977900
     617    1      5   0.17262267    -4.025000   -25.540000    24.936200
     618    1      5   0.16739167    -1.809100   -24.804900    26.259700
     619    1      6   0.09804667     1.134200   -27.122700    26.095600
     620    1      6   0.09804667     0.399200   -25.902400    27.294000
     621    1      6   0.11155167     2.810800   -26.512700    27.890700
     622    1      6   0.11155167     3.353400   -25.950800    26.203000
     623    1      5   0.16739167     0.796100   -26.322900    22.731200
     624    1      5   0.17262267    -1.414700   -27.059600    21.412000
     625    1      4  -0.18770333     2.722700   -24.342700    27.553200
     626    1      3  -0.02450133     4.172100   -24.118700    28.025900
     627    1      7  -0.31219133     4.513200   -25.082000    29.137900
     628    1      2   0.05622167     5.990600   -24.980100    29.437500
     629    1      1  -0.15013933     6.479200   -24.795700    30.886700
     630    1      1  -0.14512533     7.989400   -24.720700    31.187700
     631    1      2   0.07780067     9.010200   -24.819100    30.037200
     632    1      7  -0.35497233    10.495000   -24.793200    30.322100
     633    1      3   0.01045667    10.992500   -23.372100    30.443200
     634    1      4  -0.18808133    11.251200   -23.023900    31.920800
     635    1      1  -0.14512533     8.517800   -24.986300    28.587400
     636    1      1  -0.15013933     7.010800   -25.063000    28.287600
     637    1      6   0.10392067     2.486700   -23.616600    26.706600
     638    1      6   0.10392067     1.996800   -24.171900    28.415400
     639    1      6   0.10321667     4.876800   -24.301000    27.148500
     640    1      6   0.10321667     4.299400   -23.048300    28.397000
     641    1      5   0.17262267     5.724500   -24.722200    31.738000
     642    1      5   0.16739167     8.348800   -24.599000    32.262100
     643    1      6   0.09804667    10.219400   -22.662200    29.998200
     644    1      6   0.09804667    11.974100   -23.267900    29.873000
     645    1      6   0.11155167    12.055700   -23.720900    32.327800
     646    1      6   0.11155167    11.608700   -21.944500    32.001500
     647    1      5   0.16739167     9.271400   -25.058600    27.735400
     648    1      5   0.17262267     6.649100   -25.187100    27.213800
     649    1      4  -0.18770333     9.961900   -23.207700    32.739900
     650    1      3  -0.02450133    10.189700   -22.843500    34.220200
     651    1      7  -0.31219133    11.252400   -23.720600    34.839800
     652    1      2   0.05622167    12.607500   -23.385600    34.265100
     653    1      1  -0.15013933    12.985200   -21.917500    33.997300
     654    1      1  -0.14512533    14.378800   -21.570500    33.439700
     655    1      2   0.07780067    15.386700   -22.693200    33.133200
     656    1      7  -0.35497233    16.780400   -22.350300    32.662800
     657    1      3   0.01045667    17.781700   -23.373200    33.151200
     658    1      4  -0.18808133    17.955500   -23.347100    34.684600
     659    1      1  -0.14512533    14.989200   -24.164600    33.352100
     660    1      1  -0.15013933    13.601700   -24.511100    33.923800
     661    1      6   0.10392067     9.145900   -22.537100    32.311200
     662    1      6   0.10392067     9.633800   -24.296600    32.667600
     663    1      6   0.10321667    10.507500   -21.751800    34.304400
     664    1      6   0.10321667     9.211000   -22.995300    34.784600
     665    1      5   0.17262267    12.236700   -21.086900    34.220000
     666    1      5   0.16739167    14.666200   -20.481700    33.261300
     667    1      6   0.09804667    18.791800   -23.151700    32.671100
     668    1      6   0.09804667    17.435000   -24.410600    32.829800
     669    1      6   0.11155167    18.724300   -24.135300    34.975600
     670    1      6   0.11155167    18.323900   -22.320300    35.015500
     671    1      5   0.16739167    15.731800   -24.995700    33.112500
     672    1      5   0.17262267    13.312800   -25.599600    34.101100
     673    1      4  -0.18770333    16.620900   -23.666900    35.381900
     674    1      3  -0.02450133    16.751000   -23.721800    36.915700
     675    1      7  -0.31219133    17.679700   -24.830900    37.351800
     676    1      2   0.05622167    19.134400   -24.445300    37.223600
     677    1      1  -0.15013933    19.731300   -23.397900    38.181400
     678    1      1  -0.14512533    21.235600   -23.073500    38.128600
     679    1      2   0.07780067    22.142500   -23.791700    37.113600
     680    1      7  -0.35497233    23.616500   -23.469900    37.060900
     681    1      3   0.01045667    24.050600   -23.208700    35.637700
     682    1      4  -0.18808133    23.395900   -21.933100    35.070700
     683    1      1  -0.14512533    21.539300   -24.810300    36.128000
     684    1      1  -0.15013933    20.036100   -25.142600    36.187800
     685    1      6   0.10392067    15.861400   -22.861800    35.110400
     686    1      6   0.10392067    16.244600   -24.678300    35.014500
     687    1      6   0.10321667    17.121400   -22.723200    37.322300
     688    1      6   0.10321667    15.715900   -23.937800    37.341500
     689    1      5   0.17262267    19.060900   -22.872900    38.939800
     690    1      5   0.16739167    21.677400   -22.303500    38.843500
     691    1      6   0.09804667    23.764100   -24.102300    34.990300
     692    1      6   0.09804667    25.182900   -23.077500    35.616600
     693    1      6   0.11155167    23.691100   -21.032100    35.703800
     694    1      6   0.11155167    23.764800   -21.780700    34.003200
     695    1      5   0.16739167    22.207200   -25.321800    35.358500
     696    1      5   0.17262267    19.592800   -25.908800    35.469800
     697    1      4  -0.18770333    21.862100   -22.070800    35.057800
     698    1      3  -0.02450133    21.199100   -20.824400    34.444400
     699    1      7  -0.31219133    21.662900   -20.630600    33.021100
     700    1      2   0.05622167    23.073000   -20.091800    32.983400
     701    1      1  -0.15013933    23.556000   -19.124000    34.079600
     702    1      1  -0.14512533    24.938900   -18.454900    33.958500
     703    1      2   0.07780067    25.834900   -18.761700    32.744500
     704    1      7  -0.35497233    27.063200   -17.926300    32.480200
     705    1      3   0.01045667    27.036200   -17.518100    31.023200
     706    1      4  -0.18808133    25.824800   -16.624900    30.670400
     707    1      1  -0.14512533    25.406200   -19.831200    31.722900
     708    1      1  -0.15013933    24.022100   -20.493700    31.840200
     709    1      6   0.10392067    21.574600   -22.987200    34.443600
     710    1      6   0.10392067    21.479600   -22.194300    36.123400
     711    1      6   0.10321667    20.069700   -20.981100    34.448500
     712    1      6   0.10321667    21.456200   -19.898300    35.057700
     713    1      5   0.17262267    22.877500   -18.880100    34.962900
     714    1      5   0.16739167    25.280200   -17.703600    34.745100
     715    1      6   0.09804667    27.994600   -16.953000    30.774600
     716    1      6   0.09804667    26.987900   -18.465100    30.390300
     717    1      6   0.11155167    25.878800   -15.644100    31.249100
     718    1      6   0.11155167    25.849000   -16.403200    29.552300
     719    1      5   0.16739167    26.094300   -20.096100    30.853300
     720    1      5   0.17262267    23.688700   -21.258300    31.063400
     721    1      4  -0.18770333    24.506500   -17.343400    31.016900
     722    1      3  -0.02450133    23.253100   -16.562400    30.586300
     723    1      7  -0.31219133    23.202800   -16.445400    29.083000
     724    1      2   0.05622167    24.064400   -15.311200    28.586000
     725    1      1  -0.15013933    24.412500   -14.139900    29.522300
     726    1      1  -0.14512533    25.108100   -12.888400    28.957700
     727    1      2   0.07780067    25.461500   -12.818500    27.459800
     728    1      7  -0.35497233    25.894600   -11.512500    26.843300
     729    1      3   0.01045667    25.091200   -11.320700    25.575400
     730    1      4  -0.18808133    23.573800   -11.193700    25.840300
     731    1      1  -0.14512533    25.244400   -14.047700    26.559400
     732    1      1  -0.15013933    24.542000   -15.296100    27.123200
     733    1      6   0.10392067    24.487500   -18.359000    30.500100
     734    1      6   0.10392067    24.455400   -17.491400    32.144500
     735    1      6   0.10321667    23.231900   -15.528600    31.066700
     736    1      6   0.10321667    22.342200   -17.157100    30.927000
     737    1      5   0.17262267    24.120000   -14.183400    30.623200
     738    1      5   0.16739167    25.322700   -11.998500    29.637000
     739    1      6   0.09804667    25.451100   -10.376300    25.048000
     740    1      6   0.09804667    25.271800   -12.218500    24.896300
     741    1      6   0.11155167    23.369000   -10.275200    26.483900
     742    1      6   0.11155167    23.039200   -11.075800    24.840300
     743    1      5   0.16739167    25.558200   -14.014900    25.463800
     744    1      5   0.17262267    24.341600   -16.192400    26.447800
     745    1      4  -0.18770333    23.023700   -12.442400    26.556800
     746    1      3  -0.02450133    21.499900   -12.396200    26.775600
     747    1      7  -0.31219133    20.753700   -12.402400    25.462900
     748    1      2   0.05622167    20.727000   -11.036800    24.821400
     749    1      1  -0.15013933    21.268900    -9.812400    25.582200
     750    1      1  -0.14512533    21.136100    -8.405300    24.968400
     751    1      2   0.07780067    20.461300    -8.226200    23.595700
     752    1      7  -0.35497233    20.219100    -6.843800    23.040800
     753    1      3   0.01045667    18.806400    -6.848500    22.507200
     754    1      4  -0.18808133    18.402000    -5.466000    21.962700
     755    1      1  -0.14512533    19.966900    -9.456200    22.813900
     756    1      1  -0.15013933    20.104600   -10.862300    23.424200
     757    1      6   0.10392067    23.273600   -13.368900    25.941500
     758    1      6   0.10392067    23.516800   -12.525000    27.579700
     759    1      6   0.10321667    21.211000   -11.477300    27.385400
     760    1      6   0.10321667    21.207400   -13.335800    27.351200
     761    1      5   0.17262267    21.756100    -9.946700    26.604600
     762    1      5   0.16739167    21.520600    -7.496100    25.538200
     763    1      6   0.09804667    18.725600    -7.622500    21.673800
     764    1      6   0.09804667    18.095900    -7.133300    23.351900
     765    1      6   0.11155167    18.470100    -4.691000    22.796000
     766    1      6   0.11155167    19.089700    -5.168000    21.103700
     767    1      5   0.16739167    19.482000    -9.322800    21.790700
     768    1      5   0.17262267    19.726000   -11.772200    22.851300
     769    1      4  -0.18770333    16.948300    -5.564600    21.463400
     770    1      3  -0.02450133    16.454800    -4.209000    20.924400
     771    1      7  -0.31219133    15.026700    -4.377000    20.462900
     772    1      2   0.05622167    14.462300    -3.070600    19.957700
     773    1      1  -0.15013933    14.102300    -1.951400    20.952300
     774    1      1  -0.14512533    13.470900    -0.642000    20.442800
     775    1      2   0.07780067    13.195100    -0.453600    18.939500
     776    1      7  -0.35497233    12.562500     0.824800    18.442800
     777    1      3   0.01045667    11.062200     0.711500    18.575200
     778    1      4  -0.18808133    10.385500     2.019700    18.123000
     779    1      1  -0.14512533    13.577800    -1.563000    17.942000
     780    1      1  -0.15013933    14.208700    -2.872600    18.451800
     781    1      6   0.10392067    16.889000    -6.344200    20.633700
     782    1      6   0.10392067    16.279300    -5.884800    22.329100
     783    1      6   0.10321667    17.107400    -3.878700    20.050000
     784    1      6   0.10321667    16.500300    -3.427900    21.753400
     785    1      5   0.17262267    14.296800    -2.095000    22.066400
     786    1      5   0.16739167    13.202000     0.185000    21.180000
     787    1      6   0.09804667    10.689500    -0.152200    17.931200
     788    1      6   0.09804667    10.797700     0.511200    19.665800
     789    1      6   0.11155167    10.756600     2.881500    18.770500
     790    1      6   0.11155167    10.636300     2.228200    17.030700
     791    1      5   0.16739167    13.387700    -1.417200    16.827400
     792    1      5   0.17262267    14.481500    -3.698400    17.714900
     793    1      4  -0.18770333     8.860700     1.875300    18.286600
     794    1      3  -0.02450133     8.152000     3.179100    17.873200
     795    1      7  -0.31219133     8.435700     3.497700    16.424800
     796    1      2   0.05622167     7.695900     4.764800    16.068700
     797    1      1  -0.15013933     7.170700     5.684100    17.186500
     798    1      1  -0.14512533     6.400800     6.970000    16.828700
     799    1      2   0.07780067     6.156500     7.335700    15.352900
     800    1      7  -0.35497233     5.401500     8.595000    15.000200
     801    1      3   0.01045667     4.968100     8.524100    13.555400
     802    1      4  -0.18808133     4.246600     9.828100    13.164800
     803    1      1  -0.14512533     6.669700     6.409100    14.235000
     804    1      1  -0.15013933     7.439900     5.123500    14.592800
     805    1      6   0.10392067     8.622400     1.651600    19.378800
     806    1      6   0.10392067     8.489200     1.016900    17.635000
     807    1      6   0.10321667     8.520300     4.037400    18.526800
     808    1      6   0.10321667     7.027600     3.055700    18.014000
     809    1      5   0.17262267     7.351600     5.412300    18.278900
     810    1      5   0.16739167     6.013000     7.651200    17.656600
     811    1      6   0.09804667     5.886000     8.385300    12.893600
     812    1      6   0.09804667     4.263400     7.639300    13.414000
     813    1      6   0.11155167     3.923400     9.772200    12.073000
     814    1      6   0.11155167     4.955600    10.709700    13.305400
     815    1      5   0.16739167     6.480000     6.676300    13.143200
     816    1      5   0.17262267     7.820000     4.437400    13.765300
     817    1      4  -0.18770333     3.005400    10.024000    14.054900
     818    1      3  -0.02450133     2.292000    11.332000    13.662600
     819    1      7  -0.31219133     1.863800    11.264500    12.215900
     820    1      2   0.05622167     1.156800    12.547300    11.847500
     821    1      1  -0.15013933     0.765300    13.551700    12.947100
     822    1      1  -0.14512533     0.054600    14.867000    12.571600
     823    1      2   0.07780067    -0.258300    15.179000    11.096100
     824    1      7  -0.35497233    -0.951000    16.468400    10.723400
     825    1      3   0.01045667    -1.398000    16.376700     9.284000
     826    1      4  -0.18808133    -2.036900    17.706100     8.838600
     827    1      1  -0.14512533     0.129300    14.171700     9.997800
     828    1      1  -0.15013933     0.839100    12.857800    10.372700
     829    1      6   0.10392067     3.328000    10.079300    15.147000
     830    1      6   0.10392067     2.293800     9.144800    13.912800
     831    1      6   0.10321667     3.003500    12.211200    13.805300
     832    1      6   0.10321667     1.373400    11.478200    14.321600
     833    1      5   0.17262267     1.001700    13.321900    14.038600
     834    1      5   0.16739167    -0.237100    15.610000    13.385700
     835    1      6   0.09804667    -0.494200    16.154800     8.625600
     836    1      6   0.09804667    -2.156700    15.532700     9.176800
     837    1      6   0.11155167    -2.362800    17.621400     7.749500
     838    1      6   0.11155167    -1.273500    18.546500     8.940400
     839    1      5   0.16739167    -0.107500    14.400900     8.906400
     840    1      5   0.17262267     1.129800    12.115000     9.558500
     841    1      4  -0.18770333    -3.265300    18.024600     9.710800
     842    1      3  -0.02450133    -3.894900    19.348600     9.236700
     843    1      7  -0.31219133    -4.312400    19.213000     7.792100
     844    1      2   0.05622167    -4.934000    20.502700     7.312000
     845    1      1  -0.15013933    -5.266500    21.620500     8.317500
     846    1      1  -0.14512533    -5.897400    22.938400     7.825000
     847    1      2   0.07780067    -6.190000    23.138900     6.325900
     848    1      7  -0.35497233    -6.818500    24.422000     5.836500
     849    1      3   0.01045667    -7.237700    24.207900     4.401500
     850    1      4  -0.18808133    -7.865800    25.482500     3.804900
     851    1      1  -0.14512533    -5.855900    22.021700     5.320800
     852    1      1  -0.15013933    -5.225600    20.704200     5.813100
     853    1      6   0.10392067    -4.029400    17.184400     9.611900
     854    1      6   0.10392067    -2.944600    18.119400    10.800600
     855    1      6   0.10321667    -3.132000    20.190100     9.334000
     856    1      6   0.10321667    -4.807600    19.590000     9.875400
     857    1      5   0.17262267    -5.047100    21.472600     9.426500
     858    1      5   0.16739167    -6.147100    23.764600     8.569900
     859    1      6   0.09804667    -6.321600    23.919000     3.787400
     860    1      6   0.09804667    -7.997800    23.359500     4.359100
     861    1      6   0.11155167    -7.107600    26.333500     3.827700
     862    1      6   0.11155167    -8.166100    25.273400     2.725200
     863    1      5   0.16739167    -6.075500    22.170600     4.211900
     864    1      5   0.17262267    -4.975700    19.877400     5.068900
     865    1      4  -0.18770333    -9.118300    25.890000     4.603300
     866    1      3  -0.02450133    -9.768900    27.115800     3.932800
     867    1      7  -0.31219133   -10.153300    26.738000     2.521900
     868    1      2   0.05622167   -10.817000    27.888300     1.801500
     869    1      1  -0.15013933   -11.039500    29.232300     2.521400
     870    1      1  -0.14512533   -11.699000    30.407800     1.772200
     871    1      2   0.07780067   -12.129400    30.240100     0.302000
     872    1      7  -0.35497233   -12.739800    31.396700    -0.455500
     873    1      3   0.01045667   -13.632000    30.832000    -1.536300
     874    1      4  -0.18808133   -13.967600    31.905800    -2.590100
     875    1      1  -0.14512533   -11.932100    28.887800    -0.406300
     876    1      1  -0.15013933   -11.272400    27.714400     0.340800
     877    1      6   0.10392067    -9.863200    25.027000     4.603800
     878    1      6   0.10392067    -8.824200    26.139700     5.675900
     879    1      6   0.10321667    -9.029800    27.983400     3.911700
     880    1      6   0.10321667   -10.701000    27.422100     4.513200
     881    1      5   0.17262267   -10.713000    29.357900     3.606500
     882    1      5   0.16739167   -11.860100    31.403600     2.303300
     883    1      6   0.09804667   -13.074300    29.985800    -2.058600
     884    1      6   0.09804667   -14.587500    30.419900    -1.070800
     885    1      6   0.11155167   -12.993200    32.285100    -3.044300
     886    1      6   0.11155167   -14.604700    31.437600    -3.411500
     887    1      5   0.16739167   -12.267200    28.758800    -1.488300
     888    1      5   0.17262267   -11.117800    26.716900    -0.189200
     889    1      4  -0.18770333   -14.732900    33.100900    -1.991600
     890    1      3  -0.02450133   -14.960000    34.120600    -3.125100
     891    1      7  -0.31219133   -15.765600    33.486200    -4.235200
     892    1      2   0.05622167   -15.665800    34.345100    -5.475000
     893    1      1  -0.15013933   -14.856200    35.653900    -5.437200
     894    1      1  -0.14512533   -14.637800    36.461300    -6.730800
     895    1      2   0.07780067   -15.228900    35.959900    -8.062200
     896    1      7  -0.35497233   -14.879400    36.665700    -9.351900
     897    1      3   0.01045667   -15.371900    35.888500   -10.550800
     898    1      4  -0.18808133   -16.780200    36.356600   -10.962700
     899    1      1  -0.14512533   -16.103700    34.692300    -8.084700
     900    1      1  -0.15013933   -16.321100    33.884800    -6.791800
     901    1      6   0.10392067   -15.732000    32.753500    -1.566500
     902    1      6   0.10392067   -14.109500    33.580200    -1.166100
     903    1      6   0.10321667   -13.944500    34.433600    -3.538100
     904    1      6   0.10321667   -15.507100    35.039800    -2.730900
     905    1      5   0.17262267   -14.397900    36.012300    -4.456700
     906    1      5   0.16739167   -14.016600    37.416800    -6.707100
     907    1      6   0.09804667   -14.670400    36.085900   -11.427400
     908    1      6   0.09804667   -15.372100    34.773800   -10.311100
     909    1      6   0.11155167   -16.733600    37.465800   -11.222000
     910    1      6   0.11155167   -17.119600    35.770300   -11.879400
     911    1      5   0.16739167   -16.570200    34.340000    -9.063700
     912    1      5   0.17262267   -16.948500    32.933600    -6.814000
     913    1      4  -0.18770333   -17.795300    36.159200    -9.824200
     914    1      3  -0.02450133   -19.173700    36.716900   -10.236500
     915    1      7  -0.31219133   -19.772600    35.990400   -11.420900
     916    1      2   0.05622167   -19.009400    36.213300   -12.706900
     917    1      1  -0.15013933   -18.195200    37.504600   -12.912700
     918    1      1  -0.14512533   -17.369300    37.697500   -14.198400
     919    1      2   0.07780067   -17.358500    36.600300   -15.280700
     920    1      7  -0.35497233   -16.466300    36.738800   -16.493100
     921    1      3   0.01045667   -16.776200    35.664500   -17.510400
     922    1      4  -0.18808133   -17.943000    36.084600   -18.424800
     923    1      1  -0.14512533   -18.216500    35.335500   -15.099500
     924    1      1  -0.15013933   -19.033300    35.137100   -13.809100
     925    1      6   0.10392067   -17.427900    36.727700    -8.906700
     926    1      6   0.10392067   -17.880200    35.051000    -9.570200
     927    1      6   0.10321667   -19.073700    37.824400   -10.488100
     928    1      6   0.10321667   -19.882800    36.598200    -9.351800
     929    1      5   0.17262267   -18.188600    38.308300   -12.104500
     930    1      5   0.16739167   -16.751200    38.644600   -14.341700
     931    1      6   0.09804667   -15.858400    35.502500   -18.166800
     932    1      6   0.09804667   -17.027100    34.693800   -16.967700
     933    1      6   0.11155167   -17.647500    37.030400   -18.988500
     934    1      6   0.11155167   -18.152200    35.252000   -19.174300
     935    1      5   0.16739167   -18.233000    34.537000   -15.912900
     936    1      5   0.17262267   -19.651400    34.189700   -13.666900
     937    1      4  -0.18770333   -19.211500    36.376600   -17.605300
     938    1      3  -0.02450133   -20.346400    36.859200   -18.531700
     939    1      7  -0.31219133   -20.792600    35.797100   -19.512000
     940    1      2   0.05622167   -19.735500    35.411300   -20.521000
     941    1      1  -0.15013933   -18.770300    36.472800   -21.080100
     942    1      1  -0.14512533   -17.677400    36.065500   -22.089800
     943    1      2   0.07780067   -17.542700    34.595100   -22.532600
     944    1      7  -0.35497233   -16.377900    34.173000   -23.400100
     945    1      3   0.01045667   -16.539200    34.322600   -24.897100
     946    1      4  -0.18808133   -17.453600    33.252600   -25.527800
     947    1      1  -0.14512533   -18.521500    33.538700   -21.986600
     948    1      1  -0.15013933   -19.616300    33.946900   -20.982700
     949    1      6   0.10392067   -19.537300    35.439900   -17.043100
     950    1      6   0.10392067   -18.972700    37.200700   -16.854500
     951    1      6   0.10321667   -20.001900    37.783200   -19.103600
     952    1      6   0.10321667   -21.241200    37.136600   -17.882100
     953    1      5   0.17262267   -18.858700    37.557400   -20.740400
     954    1      5   0.16739167   -16.954400    36.849500   -22.493100
     955    1      6   0.09804667   -16.924600    35.365800   -25.147100
     956    1      6   0.09804667   -15.505100    34.193900   -25.359300
     957    1      6   0.11155167   -17.076000    32.215400   -25.243400
     958    1      6   0.11155167   -17.420000    33.362200   -26.662200
     959    1      5   0.16739167   -18.427200    32.451500   -22.316200
     960    1      5   0.17262267   -20.336100    33.162200   -20.575900
     961    1      4  -0.18770333   -18.914800    33.420400   -25.080400
     962    1      3  -0.02450133   -19.815900    32.359700   -25.744600
     963    1      7  -0.31219133   -19.753100    32.428200   -27.254600
     964    1      2   0.05622167   -18.637000    31.562200   -27.794100
     965    1      1  -0.15013933   -17.698000    30.824300   -26.823600
     966    1      1  -0.14512533   -16.621400    29.866900   -27.370200
     967    1      2   0.07780067   -16.486100    29.639900   -28.888100
     968    1      7  -0.35497233   -15.440500    28.681500   -29.411800
     969    1      3   0.01045667   -15.223000    28.787600   -30.904100
     970    1      4  -0.18808133   -15.622600    27.461300   -31.581700
     971    1      1  -0.14512533   -17.405200    30.400000   -29.862200
     972    1      1  -0.15013933   -18.479900    31.361800   -29.315200
     973    1      6   0.10392067   -19.274200    34.458000   -25.386400
     974    1      6   0.10392067   -18.984900    33.316900   -23.948700
     975    1      6   0.10321667   -20.888200    32.558600   -25.412600
     976    1      6   0.10321667   -19.508200    31.315100   -25.407300
     977    1      5   0.17262267   -17.805900    30.979500   -25.699200
     978    1      5   0.16739167   -15.928600    29.319400   -26.649200
     979    1      6   0.09804667   -15.834800    29.649000   -31.332700
     980    1      6   0.09804667   -14.115100    28.975700   -31.095900
     981    1      6   0.11155167   -15.038600    26.605100   -31.107200
     982    1      6   0.11155167   -15.388600    27.508900   -32.696400
     983    1      5   0.16739167   -17.294400    30.246100   -30.986300
     984    1      5   0.17262267   -19.168900    31.915300   -30.035500
     985    1      4  -0.18770333   -17.133400    27.233100   -31.399700
     986    1      3  -0.02450133   -17.587600    25.892700   -32.013900
     987    1      7  -0.31219133   -17.247100    25.789500   -33.483800
     988    1      2   0.05622167   -15.926500    25.072900   -33.653900
     989    1      1  -0.15013933   -15.033100    24.808400   -32.428900
     990    1      1  -0.14512533   -13.726100    24.010100   -32.586200
     991    1      2   0.07780067   -13.306900    23.475000   -33.969200
     992    1      7  -0.35497233   -12.013800    22.703400   -34.111200
     993    1      3   0.01045667   -12.047100    21.560200   -35.101600
     994    1      4  -0.18808133   -10.650800    20.908400   -35.044600
     995    1      1  -0.14512533   -14.201200    23.736000   -35.195700
     996    1      1  -0.15013933   -15.508800    24.538500   -35.038300
     997    1      6   0.10392067   -17.691100    28.087100   -31.909000
     998    1      6   0.10392067   -17.384000    27.233500   -30.287500
     999    1      6   0.10321667   -18.718700    25.820200   -31.891600
    1000    1      6   0.10321667   -17.095900    25.024400   -31.462500
    1001    1      5   0.17262267   -15.344900    25.196500   -31.403400
    1002    1      5   0.16739167   -13.066300    23.815300   -31.677200
    1003    1      6   0.09804667   -12.253600    21.957000   -36.150300
    1004    1      6   0.09804667   -12.846200    20.802400   -34.807300
    1005    1      6   0.11155167   -10.465300    20.543000   -33.980900
    1006    1      6   0.11155167    -9.879300    21.708600   -35.297700
    1007    1      5   0.16739167   -13.895900    23.338100   -36.219400
    1008    1      5   0.17262267   -16.172100    24.728400   -35.945900
    1009    1      4  -0.18770333   -10.385900    12.438400   -39.043100
    1010    1      3  -0.02450133   -11.489900    12.437500   -37.968100
    1011    1      7  -0.31219133   -12.515900    13.513500   -38.244200
    1012    1      2   0.05622167   -11.919200    14.902400   -38.284600
    1013    1      1  -0.15013933   -11.468100    15.593300   -36.982800
    1014    1      1  -0.14512533   -10.896900    17.026000   -37.026100
    1015    1      2   0.07780067   -10.774600    17.766000   -38.371900
    1016    1      7  -0.35497233   -10.137000    19.135800   -38.441100
    1017    1      3   0.01045667   -10.636200    20.183500   -37.469900
    1018    1      4  -0.18808133   -10.442500    19.725600   -36.013000
    1019    1      1  -0.14512533   -11.248100    17.081900   -39.668500
    1020    1      1  -0.15013933   -11.814200    15.651400   -39.625700
    1021    1      6   0.10392067    -9.839900    13.438700   -39.010800
    1022    1      6   0.10392067   -10.849800    12.293400   -40.074200
    1023    1      6   0.10321667   -11.019100    12.613500   -36.944900
    1024    1      6   0.10321667   -12.012200    11.424200   -37.972800
    1025    1      5   0.17262267   -11.557500    15.045400   -35.987100
    1026    1      5   0.16739167   -10.555100    17.532300   -36.063600
    1027    1      6   0.09804667   -11.733800    20.428400   -37.657100
    1028    1      6   0.09804667   -10.010200    21.121600   -37.636300
    1029    1      6   0.11155167   -11.157300    18.869200   -35.777500
    1030    1      6   0.11155167    -9.368700    19.365200   -35.885500
    1031    1      5   0.16739167   -11.166500    17.631400   -40.663900
    1032    1      5   0.17262267   -12.158600    15.146900   -40.588000

Bonds

       1      5        1        2
       2      9        1       13
       3      9        1       14
       4      8        1       25
       5      7        2        3
       6      6        2       15
       7      6        2       16
       8      4        3        4
       9      2        4        5
      10      1        5        6
      11      3        5       17
      12      2        6        7
      13      3        6       18
      14      4        7        8
      15      2        7       11
      16      7        8        9
      17      5        9       10
      18      6        9       19
      19      6        9       20
      20      9       10       21
      21      9       10       22
      22      8       10     1009
      23      1       11       12
      24      3       11       23
      25      2       12        4
      26      3       12       24
      27      5       25       26
      28      9       25       37
      29      9       25       38
      30      7       26       27
      31      6       26       39
      32      6       26       40
      33      4       27       28
      34      2       28       29
      35      1       29       30
      36      3       29       41
      37      2       30       31
      38      3       30       42
      39      4       31       32
      40      2       31       35
      41      7       32       33
      42      5       33       34
      43      6       33       43
      44      6       33       44
      45      9       34       45
      46      9       34       46
      47      8       34       49
      48      1       35       36
      49      3       35       47
      50      2       36       28
      51      3       36       48
      52      5       49       50
      53      9       49       61
      54      9       49       62
      55      7       50       51
      56      6       50       63
      57      6       50       64
      58      4       51       52
      59      2       52       53
      60      1       53       54
      61      3       53       65
      62      2       54       55
      63      3       54       66
      64      4       55       56
      65      2       55       59
      66      7       56       57
      67      5       57       58
      68      6       57       67
      69      6       57       68
      70      9       58       69
      71      9       58       70
      72      8       58       73
      73      1       59       60
      74      3       59       71
      75      2       60       52
      76      3       60       72
      77      5       73       74
      78      9       73       85
      79      9       73       86
      80      7       74       75
      81      6       74       87
      82      6       74       88
      83      4       75       76
      84      2       76       77
      85      1       77       78
      86      3       77       89
      87      2       78       79
      88      3       78       90
      89      4       79       80
      90      2       79       83
      91      7       80       81
      92      5       81       82
      93      6       81       91
      94      6       81       92
      95      9       82       93
      96      9       82       94
      97      8       82       97
      98      1       83       84
      99      3       83       95
     100      2       84       76
     101      3       84       96
     102      5       97       98
     103      9       97      109
     104      9       97      110
     105      7       98       99
     106      6       98      111
     107      6       98      112
     108      4       99      100
     109      2      100      101
     110      1      101      102
     111      3      101      113
     112      2      102      103
     113      3      102      114
     114      4      103      104
     115      2      103      107
     116      7      104      105
     117      5      105      106
     118      6      105      115
     119      6      105      116
     120      9      106      117
     121      9      106      118
     122      8      106      121
     123      1      107      108
     124      3      107      119
     125      2      108      100
     126      3      108      120
     127      5      121      122
     128      9      121      133
     129      9      121      134
     130      7      122      123
     131      6      122      135
     132      6      122      136
     133      4      123      124
     134      2      124      125
     135      1      125      126
     136      3      125      137
     137      2      126      127
     138      3      126      138
     139      4      127      128
     140      2      127      131
     141      7      128      129
     142      5      129      130
     143      6      129      139
     144      6      129      140
     145      9      130      141
     146      9      130      142
     147      8      130      145
     148      1      131      132
     149      3      131      143
     150      2      132      124
     151      3      132      144
     152      5      145      146
     153      9      145      157
     154      9      145      158
     155      7      146      147
     156      6      146      159
     157      6      146      160
     158      4      147      148
     159      2      148      149
     160      1      149      150
     161      3      149      161
     162      2      150      151
     163      3      150      162
     164      4      151      152
     165      2      151      155
     166      7      152      153
     167      5      153      154
     168      6      153      163
     169      6      153      164
     170      9      154      165
     171      9      154      166
     172      8      154      169
     173      1      155      156
     174      3      155      167
     175      2      156      148
     176      3      156      168
     177      5      169      170
     178      9      169      181
     179      9      169      182
     180      7      170      171
     181      6      170      183
     182      6      170      184
     183      4      171      172
     184      2      172      173
     185      1      173      174
     186      3      173      185
     187      2      174      175
     188      3      174      186
     189      4      175      176
     190      2      175      179
     191      7      176      177
     192      5      177      178
     193      6      177      187
     194      6      177      188
     195      9      178      189
     196      9      178      190
     197      8      178      193
     198      1      179      180
     199      3      179      191
     200      2      180      172
     201      3      180      192
     202      5      193      194
     203      9      193      205
     204      9      193      206
     205      7      194      195
     206      6      194      207
     207      6      194      208
     208      4      195      196
     209      2      196      197
     210      1      197      198
     211      3      197      209
     212      2      198      199
     213      3      198      210
     214      4      199      200
     215      2      199      203
     216      7      200      201
     217      5      201      202
     218      6      201      211
     219      6      201      212
     220      9      202      213
     221      9      202      214
     222      8      202      217
     223      1      203      204
     224      3      203      215
     225      2      204      196
     226      3      204      216
     227      5      217      218
     228      9      217      229
     229      9      217      230
     230      7      218      219
     231      6      218      231
     232      6      218      232
     233      4      219      220
     234      2      220      221
     235      1      221      222
     236      3      221      233
     237      2      222      223
     238      3      222      234
     239      4      223      224
     240      2      223      227
     241      7      224      225
     242      5      225      226
     243      6      225      235
     244      6      225      236
     245      9      226      237
     246      9      226      238
     247      8      226      241
     248      1      227      228
     249      3      227      239
     250      2      228      220
     251      3      228      240
     252      5      241      242
     253      9      241      253
     254      9      241      254
     255      7      242      243
     256      6      242      255
     257      6      242      256
     258      4      243      244
     259      2      244      245
     260      1      245      246
     261      3      245      257
     262      2      246      247
     263      3      246      258
     264      4      247      248
     265      2      247      251
     266      7      248      249
     267      5      249      250
     268      6      249      259
     269      6      249      260
     270      9      250      261
     271      9      250      262
     272      8      250      265
     273      1      251      252
     274      3      251      263
     275      2      252      244
     276      3      252      264
     277      5      265      266
     278      9      265      277
     279      9      265      278
     280      7      266      267
     281      6      266      279
     282      6      266      280
     283      4      267      268
     284      2      268      269
     285      1      269      270
     286      3      269      281
     287      2      270      271
     288      3      270      282
     289      4      271      272
     290      2      271      275
     291      7      272      273
     292      5      273      274
     293      6      273      283
     294      6      273      284
     295      9      274      285
     296      9      274      286
     297      8      274      289
     298      1      275      276
     299      3      275      287
     300      2      276      268
     301      3      276      288
     302      5      289      290
     303      9      289      301
     304      9      289      302
     305      7      290      291
     306      6      290      303
     307      6      290      304
     308      4      291      292
     309      2      292      293
     310      1      293      294
     311      3      293      305
     312      2      294      295
     313      3      294      306
     314      4      295      296
     315      2      295      299
     316      7      296      297
     317      5      297      298
     318      6      297      307
     319      6      297      308
     320      9      298      309
     321      9      298      310
     322      8      298      313
     323      1      299      300
     324      3      299      311
     325      2      300      292
     326      3      300      312
     327      5      313      314
     328      9      313      325
     329      9      313      326
     330      7      314      315
     331      6      314      327
     332      6      314      328
     333      4      315      316
     334      2      316      317
     335      1      317      318
     336      3      317      329
     337      2      318      319
     338      3      318      330
     339      4      319      320
     340      2      319      323
     341      7      320      321
     342      5      321      322
     343      6      321      331
     344      6      321      332
     345      9      322      333
     346      9      322      334
     347      8      322      337
     348      1      323      324
     349      3      323      335
     350      2      324      316
     351      3      324      336
     352      5      337      338
     353      9      337      349
     354      9      337      350
     355      7      338      339
     356      6      338      351
     357      6      338      352
     358      4      339      340
     359      2      340      341
     360      1      341      342
     361      3      341      353
     362      2      342      343
     363      3      342      354
     364      4      343      344
     365      2      343      347
     366      7      344      345
     367      5      345      346
     368      6      345      355
     369      6      345      356
     370      9      346      357
     371      9      346      358
     372      8      346      361
     373      1      347      348
     374      3      347      359
     375      2      348      340
     376      3      348      360
     377      5      361      362
     378      9      361      373
     379      9      361      374
     380      7      362      363
     381      6      362      375
     382      6      362      376
     383      4      363      364
     384      2      364      365
     385      1      365      366
     386      3      365      377
     387      2      366      367
     388      3      366      378
     389      4      367      368
     390      2      367      371
     391      7      368      369
     392      5      369      370
     393      6      369      379
     394      6      369      380
     395      9      370      381
     396      9      370      382
     397      8      370      385
     398      1      371      372
     399      3      371      383
     400      2      372      364
     401      3      372      384
     402      5      385      386
     403      9      385      397
     404      9      385      398
     405      7      386      387
     406      6      386      399
     407      6      386      400
     408      4      387      388
     409      2      388      389
     410      1      389      390
     411      3      389      401
     412      2      390      391
     413      3      390      402
     414      4      391      392
     415      2      391      395
     416      7      392      393
     417      5      393      394
     418      6      393      403
     419      6      393      404
     420      9      394      405
     421      9      394      406
     422      8      394      409
     423      1      395      396
     424      3      395      407
     425      2      396      388
     426      3      396      408
     427      5      409      410
     428      9      409      421
     429      9      409      422
     430      7      410      411
     431      6      410      423
     432      6      410      424
     433      4      411      412
     434      2      412      413
     435      1      413      414
     436      3      413      425
     437      2      414      415
     438      3      414      426
     439      4      415      416
     440      2      415      419
     441      7      416      417
     442      5      417      418
     443      6      417      427
     444      6      417      428
     445      9      418      429
     446      9      418      430
     447      8      418      433
     448      1      419      420
     449      3      419      431
     450      2      420      412
     451      3      420      432
     452      5      433      434
     453      9      433      445
     454      9      433      446
     455      7      434      435
     456      6      434      447
     457      6      434      448
     458      4      435      436
     459      2      436      437
     460      1      437      438
     461      3      437      449
     462      2      438      439
     463      3      438      450
     464      4      439      440
     465      2      439      443
     466      7      440      441
     467      5      441      442
     468      6      441      451
     469      6      441      452
     470      9      442      453
     471      9      442      454
     472      8      442      457
     473      1      443      444
     474      3      443      455
     475      2      444      436
     476      3      444      456
     477      5      457      458
     478      9      457      469
     479      9      457      470
     480      7      458      459
     481      6      458      471
     482      6      458      472
     483      4      459      460
     484      2      460      461
     485      1      461      462
     486      3      461      473
     487      2      462      463
     488      3      462      474
     489      4      463      464
     490      2      463      467
     491      7      464      465
     492      5      465      466
     493      6      465      475
     494      6      465      476
     495      9      466      477
     496      9      466      478
     497      8      466      481
     498      1      467      468
     499      3      467      479
     500      2      468      460
     501      3      468      480
     502      5      481      482
     503      9      481      493
     504      9      481      494
     505      7      482      483
     506      6      482      495
     507      6      482      496
     508      4      483      484
     509      2      484      485
     510      1      485      486
     511      3      485      497
     512      2      486      487
     513      3      486      498
     514      4      487      488
     515      2      487      491
     516      7      488      489
     517      5      489      490
     518      6      489      499
     519      6      489      500
     520      9      490      501
     521      9      490      502
     522      8      490      505
     523      1      491      492
     524      3      491      503
     525      2      492      484
     526      3      492      504
     527      5      505      506
     528      9      505      517
     529      9      505      518
     530      7      506      507
     531      6      506      519
     532      6      506      520
     533      4      507      508
     534      2      508      509
     535      1      509      510
     536      3      509      521
     537      2      510      511
     538      3      510      522
     539      4      511      512
     540      2      511      515
     541      7      512      513
     542      5      513      514
     543      6      513      523
     544      6      513      524
     545      9      514      525
     546      9      514      526
     547      8      514      529
     548      1      515      516
     549      3      515      527
     550      2      516      508
     551      3      516      528
     552      5      529      530
     553      9      529      541
     554      9      529      542
     555      7      530      531
     556      6      530      543
     557      6      530      544
     558      4      531      532
     559      2      532      533
     560      1      533      534
     561      3      533      545
     562      2      534      535
     563      3      534      546
     564      4      535      536
     565      2      535      539
     566      7      536      537
     567      5      537      538
     568      6      537      547
     569      6      537      548
     570      9      538      549
     571      9      538      550
     572      8      538      553
     573      1      539      540
     574      3      539      551
     575      2      540      532
     576      3      540      552
     577      5      553      554
     578      9      553      565
     579      9      553      566
     580      7      554      555
     581      6      554      567
     582      6      554      568
     583      4      555      556
     584      2      556      557
     585      1      557      558
     586      3      557      569
     587      2      558      559
     588      3      558      570
     589      4      559      560
     590      2      559      563
     591      7      560      561
     592      5      561      562
     593      6      561      571
     594      6      561      572
     595      9      562      573
     596      9      562      574
     597      8      562      577
     598      1      563      564
     599      3      563      575
     600      2      564      556
     601      3      564      576
     602      5      577      578
     603      9      577      589
     604      9      577      590
     605      7      578      579
     606      6      578      591
     607      6      578      592
     608      4      579      580
     609      2      580      581
     610      1      581      582
     611      3      581      593
     612      2      582      583
     613      3      582      594
     614      4      583      584
     615      2      583      587
     616      7      584      585
     617      5      585      586
     618      6      585      595
     619      6      585      596
     620      9      586      597
     621      9      586      598
     622      8      586      601
     623      1      587      588
     624      3      587      599
     625      2      588      580
     626      3      588      600
     627      5      601      602
     628      9      601      613
     629      9      601      614
     630      7      602      603
     631      6      602      615
     632      6      602      616
     633      4      603      604
     634      2      604      605
     635      1      605      606
     636      3      605      617
     637      2      606      607
     638      3      606      618
     639      4      607      608
     640      2      607      611
     641      7      608      609
     642      5      609      610
     643      6      609      619
     644      6      609      620
     645      9      610      621
     646      9      610      622
     647      8      610      625
     648      1      611      612
     649      3      611      623
     650      2      612      604
     651      3      612      624
     652      5      625      626
     653      9      625      637
     654      9      625      638
     655      7      626      627
     656      6      626      639
     657      6      626      640
     658      4      627      628
     659      2      628      629
     660      1      629      630
     661      3      629      641
     662      2      630      631
     663      3      630      642
     664      4      631      632
     665      2      631      635
     666      7      632      633
     667      5      633      634
     668      6      633      643
     669      6      633      644
     670      9      634      645
     671      9      634      646
     672      8      634      649
     673      1      635      636
     674      3      635      647
     675      2      636      628
     676      3      636      648
     677      5      649      650
     678      9      649      661
     679      9      649      662
     680      7      650      651
     681      6      650      663
     682      6      650      664
     683      4      651      652
     684      2      652      653
     685      1      653      654
     686      3      653      665
     687      2      654      655
     688      3      654      666
     689      4      655      656
     690      2      655      659
     691      7      656      657
     692      5      657      658
     693      6      657      667
     694      6      657      668
     695      9      658      669
     696      9      658      670
     697      8      658      673
     698      1      659      660
     699      3      659      671
     700      2      660      652
     701      3      660      672
     702      5      673      674
     703      9      673      685
     704      9      673      686
     705      7      674      675
     706      6      674      687
     707      6      674      688
     708      4      675      676
     709      2      676      677
     710      1      677      678
     711      3      677      689
     712      2      678      679
     713      3      678      690
     714      4      679      680
     715      2      679      683
     716      7      680      681
     717      5      681      682
     718      6      681      691
     719      6      681      692
     720      9      682      693
     721      9      682      694
     722      8      682      697
     723      1      683      684
     724      3      683      695
     725      2      684      676
     726      3      684      696
     727      5      697      698
     728      9      697      709
     729      9      697      710
     730      7      698      699
     731      6      698      711
     732      6      698      712
     733      4      699      700
     734      2      700      701
     735      1      701      702
     736      3      701      713
     737      2      702      703
     738      3      702      714
     739      4      703      704
     740      2      703      707
     741      7      704      705
     742      5      705      706
     743      6      705      715
     744      6      705      716
     745      9      706      717
     746      9      706      718
     747      8      706      721
     748      1      707      708
     749      3      707      719
     750      2      708      700
     751      3      708      720
     752      5      721      722
     753      9      721      733
     754      9      721      734
     755      7      722      723
     756      6      722      735
     757      6      722      736
     758      4      723      724
     759      2      724      725
     760      1      725      726
     761      3      725      737
     762      2      726      727
     763      3      726      738
     764      4      727      728
     765      2      727      731
     766      7      728      729
     767      5      729      730
     768      6      729      739
     769      6      729      740
     770      9      730      741
     771      9      730      742
     772      8      730      745
     773      1      731      732
     774      3      731      743
     775      2      732      724
     776      3      732      744
     777      5      745      746
     778      9      745      757
     779      9      745      758
     780      7      746      747
     781      6      746      759
     782      6      746      760
     783      4      747      748
     784      2      748      749
     785      1      749      750
     786      3      749      761
     787      2      750      751
     788      3      750      762
     789      4      751      752
     790      2      751      755
     791      7      752      753
     792      5      753      754
     793      6      753      763
     794      6      753      764
     795      9      754      765
     796      9      754      766
     797      8      754      769
     798      1      755      756
     799      3      755      767
     800      2      756      748
     801      3      756      768
     802      5      769      770
     803      9      769      781
     804      9      769      782
     805      7      770      771
     806      6      770      783
     807      6      770      784
     808      4      771      772
     809      2      772      773
     810      1      773      774
     811      3      773      785
     812      2      774      775
     813      3      774      786
     814      4      775      776
     815      2      775      779
     816      7      776      777
     817      5      777      778
     818      6      777      787
     819      6      777      788
     820      9      778      789
     821      9      778      790
     822      8      778      793
     823      1      779      780
     824      3      779      791
     825      2      780      772
     826      3      780      792
     827      5      793      794
     828      9      793      805
     829      9      793      806
     830      7      794      795
     831      6      794      807
     832      6      794      808
     833      4      795      796
     834      2      796      797
     835      1      797      798
     836      3      797      809
     837      2      798      799
     838      3      798      810
     839      4      799      800
     840      2      799      803
     841      7      800      801
     842      5      801      802
     843      6      801      811
     844      6      801      812
     845      9      802      813
     846      9      802      814
     847      8      802      817
     848      1      803      804
     849      3      803      815
     850      2      804      796
     851      3      804      816
     852      5      817      818
     853      9      817      829
     854      9      817      830
     855      7      818      819
     856      6      818      831
     857      6      818      832
     858      4      819      820
     859      2      820      821
     860      1      821      822
     861      3      821      833
     862      2      822      823
     863      3      822      834
     864      4      823      824
     865      2      823      827
     866      7      824      825
     867      5      825      826
     868      6      825      835
     869      6      825      836
     870      9      826      837
     871      9      826      838
     872      8      826      841
     873      1      827      828
     874      3      827      839
     875      2      828      820
     876      3      828      840
     877      5      841      842
     878      9      841      853
     879      9      841      854
     880      7      842      843
     881      6      842      855
     882      6      842      856
     883      4      843      844
     884      2      844      845
     885      1      845      846
     886      3      845      857
     887      2      846      847
     888      3      846      858
     889      4      847      848
     890      2      847      851
     891      7      848      849
     892      5      849      850
     893      6      849      859
     894      6      849      860
     895      9      850      861
     896      9      850      862
     897      8      850      865
     898      1      851      852
     899      3      851      863
     900      2      852      844
     901      3      852      864
     902      5      865      866
     903      9      865      877
     904      9      865      878
     905      7      866      867
     906      6      866      879
     907      6      866      880
     908      4      867      868
     909      2      868      869
     910      1      869      870
     911      3      869      881
     912      2      870      871
     913      3      870      882
     914      4      871      872
     915      2      871      875
     916      7      872      873
     917      5      873      874
     918      6      873      883
     919      6      873      884
     920      9      874      885
     921      9      874      886
     922      8      874      889
     923      1      875      876
     924      3      875      887
     925      2      876      868
     926      3      876      888
     927      5      889      890
     928      9      889      901
     929      9      889      902
     930      7      890      891
     931      6      890      903
     932      6      890      904
     933      4      891      892
     934      2      892      893
     935      1      893      894
     936      3      893      905
     937      2      894      895
     938      3      894      906
     939      4      895      896
     940      2      895      899
     941      7      896      897
     942      5      897      898
     943      6      897      907
     944      6      897      908
     945      9      898      909
     946      9      898      910
     947      8      898      913
     948      1      899      900
     949      3      899      911
     950      2      900      892
     951      3      900      912
     952      5      913      914
     953      9      913      925
     954      9      913      926
     955      7      914      915
     956      6      914      927
     957      6      914      928
     958      4      915      916
     959      2      916      917
     960      1      917      918
     961      3      917      929
     962      2      918      919
     963      3      918      930
     964      4      919      920
     965      2      919      923
     966      7      920      921
     967      5      921      922
     968      6      921      931
     969      6      921      932
     970      9      922      933
     971      9      922      934
     972      8      922      937
     973      1      923      924
     974      3      923      935
     975      2      924      916
     976      3      924      936
     977      5      937      938
     978      9      937      949
     979      9      937      950
     980      7      938      939
     981      6      938      951
     982      6      938      952
     983      4      939      940
     984      2      940      941
     985      1      941      942
     986      3      941      953
     987      2      942      943
     988      3      942      954
     989      4      943      944
     990      2      943      947
     991      7      944      945
     992      5      945      946
     993      6      945      955
     994      6      945      956
     995      9      946      957
     996      9      946      958
     997      8      946      961
     998      1      947      948
     999      3      947      959
    1000      2      948      940
    1001      3      948      960
    1002      5      961      962
    1003      9      961      973
    1004      9      961      974
    1005      7      962      963
    1006      6      962      975
    1007      6      962      976
    1008      4      963      964
    1009      2      964      965
    1010      1      965      966
    1011      3      965      977
    1012      2      966      967
    1013      3      966      978
    1014      4      967      968
    1015      2      967      971
    1016      7      968      969
    1017      5      969      970
    1018      6      969      979
    1019      6      969      980
    1020      9      970      981
    1021      9      970      982
    1022      8      970      985
    1023      1      971      972
    1024      3      971      983
    1025      2      972      964
    1026      3      972      984
    1027      5      985      986
    1028      9      985      997
    1029      9      985      998
    1030      7      986      987
    1031      6      986      999
    1032      6      986     1000
    1033      4      987      988
    1034      2      988      989
    1035      1      989      990
    1036      3      989     1001
    1037      2      990      991
    1038      3      990     1002
    1039      4      991      992
    1040      2      991      995
    1041      7      992      993
    1042      5      993      994
    1043      6      993     1003
    1044      6      993     1004
    1045      9      994     1005
    1046      9      994     1006
    1047      8      994     1018
    1048      1      995      996
    1049      3      995     1007
    1050      2      996      988
    1051      3      996     1008
    1052      5     1009     1010
    1053      9     1009     1021
    1054      9     1009     1022
    1055      7     1010     1011
    1056      6     1010     1023
    1057      6     1010     1024
    1058      4     1011     1012
    1059      2     1012     1013
    1060      1     1013     1014
    1061      3     1013     1025
    1062      2     1014     1015
    1063      3     1014     1026
    1064      4     1015     1016
    1065      2     1015     1019
    1066      7     1016     1017
    1067      5     1017     1018
    1068      6     1017     1027
    1069      6     1017     1028
    1070      9     1018     1029
    1071      9     1018     1030
    1072      1     1019     1020
    1073      3     1019     1031
    1074      2     1020     1012
    1075      3     1020     1032

Angles

       1     10        1        2        3
       2      9        1        2       15
       3      9        1        2       16
       4      7        1       25       26
       5     11        1       25       37
       6     11        1       25       38
       7      8        2        1       13
       8      8        2        1       14
       9      7        2        1       25
      10      6        2        3        4
      11     13        3        2       15
      12     13        3        2       16
      13      4        3        4        5
      14      4        3        4       12
      15      1        4        5        6
      16      5        4        5       17
      17      1        4       12       11
      18      5        4       12       24
      19      3        5        4       12
      20      1        5        6        7
      21      2        5        6       18
      22      2        6        5       17
      23      4        6        7        8
      24      3        6        7       11
      25      5        7        6       18
      26      6        7        8        9
      27      1        7       11       12
      28      5        7       11       23
      29      4        8        7       11
      30     10        8        9       10
      31     13        8        9       19
      32     13        8        9       20
      33      8        9       10       21
      34      8        9       10       22
      35      7        9       10     1009
      36      9       10        9       19
      37      9       10        9       20
      38      7       10     1009     1010
      39     11       10     1009     1021
      40     11       10     1009     1022
      41      2       11       12       24
      42      2       12       11       23
      43     14       13        1       14
      44     11       13        1       25
      45     11       14        1       25
      46     12       15        2       16
      47     12       19        9       20
      48     14       21       10       22
      49     11       21       10     1009
      50     11       22       10     1009
      51     10       25       26       27
      52      9       25       26       39
      53      9       25       26       40
      54      8       26       25       37
      55      8       26       25       38
      56      6       26       27       28
      57     13       27       26       39
      58     13       27       26       40
      59      4       27       28       29
      60      4       27       28       36
      61      1       28       29       30
      62      5       28       29       41
      63      1       28       36       35
      64      5       28       36       48
      65      3       29       28       36
      66      1       29       30       31
      67      2       29       30       42
      68      2       30       29       41
      69      4       30       31       32
      70      3       30       31       35
      71      5       31       30       42
      72      6       31       32       33
      73      1       31       35       36
      74      5       31       35       47
      75      4       32       31       35
      76     10       32       33       34
      77     13       32       33       43
      78     13       32       33       44
      79      8       33       34       45
      80      8       33       34       46
      81      7       33       34       49
      82      9       34       33       43
      83      9       34       33       44
      84      7       34       49       50
      85     11       34       49       61
      86     11       34       49       62
      87      2       35       36       48
      88      2       36       35       47
      89     14       37       25       38
      90     12       39       26       40
      91     12       43       33       44
      92     14       45       34       46
      93     11       45       34       49
      94     11       46       34       49
      95     10       49       50       51
      96      9       49       50       63
      97      9       49       50       64
      98      8       50       49       61
      99      8       50       49       62
     100      6       50       51       52
     101     13       51       50       63
     102     13       51       50       64
     103      4       51       52       53
     104      4       51       52       60
     105      1       52       53       54
     106      5       52       53       65
     107      1       52       60       59
     108      5       52       60       72
     109      3       53       52       60
     110      1       53       54       55
     111      2       53       54       66
     112      2       54       53       65
     113      4       54       55       56
     114      3       54       55       59
     115      5       55       54       66
     116      6       55       56       57
     117      1       55       59       60
     118      5       55       59       71
     119      4       56       55       59
     120     10       56       57       58
     121     13       56       57       67
     122     13       56       57       68
     123      8       57       58       69
     124      8       57       58       70
     125      7       57       58       73
     126      9       58       57       67
     127      9       58       57       68
     128      7       58       73       74
     129     11       58       73       85
     130     11       58       73       86
     131      2       59       60       72
     132      2       60       59       71
     133     14       61       49       62
     134     12       63       50       64
     135     12       67       57       68
     136     14       69       58       70
     137     11       69       58       73
     138     11       70       58       73
     139     10       73       74       75
     140      9       73       74       87
     141      9       73       74       88
     142      8       74       73       85
     143      8       74       73       86
     144      6       74       75       76
     145     13       75       74       87
     146     13       75       74       88
     147      4       75       76       77
     148      4       75       76       84
     149      1       76       77       78
     150      5       76       77       89
     151      1       76       84       83
     152      5       76       84       96
     153      3       77       76       84
     154      1       77       78       79
     155      2       77       78       90
     156      2       78       77       89
     157      4       78       79       80
     158      3       78       79       83
     159      5       79       78       90
     160      6       79       80       81
     161      1       79       83       84
     162      5       79       83       95
     163      4       80       79       83
     164     10       80       81       82
     165     13       80       81       91
     166     13       80       81       92
     167      8       81       82       93
     168      8       81       82       94
     169      7       81       82       97
     170      9       82       81       91
     171      9       82       81       92
     172      7       82       97       98
     173     11       82       97      109
     174     11       82       97      110
     175      2       83       84       96
     176      2       84       83       95
     177     14       85       73       86
     178     12       87       74       88
     179     12       91       81       92
     180     14       93       82       94
     181     11       93       82       97
     182     11       94       82       97
     183     10       97       98       99
     184      9       97       98      111
     185      9       97       98      112
     186      8       98       97      109
     187      8       98       97      110
     188      6       98       99      100
     189     13       99       98      111
     190     13       99       98      112
     191      4       99      100      101
     192      4       99      100      108
     193      1      100      101      102
     194      5      100      101      113
     195      1      100      108      107
     196      5      100      108      120
     197      3      101      100      108
     198      1      101      102      103
     199      2      101      102      114
     200      2      102      101      113
     201      4      102      103      104
     202      3      102      103      107
     203      5      103      102      114
     204      6      103      104      105
     205      1      103      107      108
     206      5      103      107      119
     207      4      104      103      107
     208     10      104      105      106
     209     13      104      105      115
     210     13      104      105      116
     211      8      105      106      117
     212      8      105      106      118
     213      7      105      106      121
     214      9      106      105      115
     215      9      106      105      116
     216      7      106      121      122
     217     11      106      121      133
     218     11      106      121      134
     219      2      107      108      120
     220      2      108      107      119
     221     14      109       97      110
     222     12      111       98      112
     223     12      115      105      116
     224     14      117      106      118
     225     11      117      106      121
     226     11      118      106      121
     227     10      121      122      123
     228      9      121      122      135
     229      9      121      122      136
     230      8      122      121      133
     231      8      122      121      134
     232      6      122      123      124
     233     13      123      122      135
     234     13      123      122      136
     235      4      123      124      125
     236      4      123      124      132
     237      1      124      125      126
     238      5      124      125      137
     239      1      124      132      131
     240      5      124      132      144
     241      3      125      124      132
     242      1      125      126      127
     243      2      125      126      138
     244      2      126      125      137
     245      4      126      127      128
     246      3      126      127      131
     247      5      127      126      138
     248      6      127      128      129
     249      1      127      131      132
     250      5      127      131      143
     251      4      128      127      131
     252     10      128      129      130
     253     13      128      129      139
     254     13      128      129      140
     255      8      129      130      141
     256      8      129      130      142
     257      7      129      130      145
     258      9      130      129      139
     259      9      130      129      140
     260      7      130      145      146
     261     11      130      145      157
     262     11      130      145      158
     263      2      131      132      144
     264      2      132      131      143
     265     14      133      121      134
     266     12      135      122      136
     267     12      139      129      140
     268     14      141      130      142
     269     11      141      130      145
     270     11      142      130      145
     271     10      145      146      147
     272      9      145      146      159
     273      9      145      146      160
     274      8      146      145      157
     275      8      146      145      158
     276      6      146      147      148
     277     13      147      146      159
     278     13      147      146      160
     279      4      147      148      149
     280      4      147      148      156
     281      1      148      149      150
     282      5      148      149      161
     283      1      148      156      155
     284      5      148      156      168
     285      3      149      148      156
     286      1      149      150      151
     287      2      149      150      162
     288      2      150      149      161
     289      4      150      151      152
     290      3      150      151      155
     291      5      151      150      162
     292      6      151      152      153
     293      1      151      155      156
     294      5      151      155      167
     295      4      152      151      155
     296     10      152      153      154
     297     13      152      153      163
     298     13      152      153      164
     299      8      153      154      165
     300      8      153      154      166
     301      7      153      154      169
     302      9      154      153      163
     303      9      154      153      164
     304      7      154      169      170
     305     11      154      169      181
     306     11      154      169      182
     307      2      155      156      168
     308      2      156      155      167
     309     14      157      145      158
     310     12      159      146      160
     311     12      163      153      164
     312     14      165      154      166
     313     11      165      154      169
     314     11      166      154      169
     315     10      169      170      171
     316      9      169      170      183
     317      9      169      170      184
     318      8      170      169      181
     319      8      170      169      182
     320      6      170      171      172
     321     13      171      170      183
     322     13      171      170      184
     323      4      171      172      173
     324      4      171      172      180
     325      1      172      173      174
     326      5      172      173      185
     327      1      172      180      179
     328      5      172      180      192
     329      3      173      172      180
     330      1      173      174      175
     331      2      173      174      186
     332      2      174      173      185
     333      4      174      175      176
     334      3      174      175      179
     335      5      175      174      186
     336      6      175      176      177
     337      1      175      179      180
     338      5      175      179      191
     339      4      176      175      179
     340     10      176      177      178
     341     13      176      177      187
     342     13      176      177      188
     343      8      177      178      189
     344      8      177      178      190
     345      7      177      178      193
     346      9      178      177      187
     347      9      178      177      188
     348      7      178      193      194
     349     11      178      193      205
     350     11      178      193      206
     351      2      179      180      192
     352      2      180      179      191
     353     14      181      169      182
     354     12      183      170      184
     355     12      187      177      188
     356     14      189      178      190
     357     11      189      178      193
     358     11      190      178      193
     359     10      193      194      195
     360      9      193      194      207
     361      9      193      194      208
     362      8      194      193      205
     363      8      194      193      206
     364      6      194      195      196
     365     13      195      194      207
     366     13      195      194      208
     367      4      195      196      197
     368      4      195      196      204
     369      1      196      197      198
     370      5      196      197      209
     371      1      196      204      203
     372      5      196      204      216
     373      3      197      196      204
     374      1      197      198      199
     375      2      197      198      210
     376      2      198      197      209
     377      4      198      199      200
     378      3      198      199      203
     379      5      199      198      210
     380      6      199      200      201
     381      1      199      203      204
     382      5      199      203      215
     383      4      200      199      203
     384     10      200      201      202
     385     13      200      201      211
     386     13      200      201      212
     387      8      201      202      213
     388      8      201      202      214
     389      7      201      202      217
     390      9      202      201      211
     391      9      202      201      212
     392      7      202      217      218
     393     11      202      217      229
     394     11      202      217      230
     395      2      203      204      216
     396      2      204      203      215
     397     14      205      193      206
     398     12      207      194      208
     399     12      211      201      212
     400     14      213      202      214
     401     11      213      202      217
     402     11      214      202      217
     403     10      217      218      219
     404      9      217      218      231
     405      9      217      218      232
     406      8      218      217      229
     407      8      218      217      230
     408      6      218      219      220
     409     13      219      218      231
     410     13      219      218      232
     411      4      219      220      221
     412      4      219      220      228
     413      1      220      221      222
     414      5      220      221      233
     415      1      220      228      227
     416      5      220      228      240
     417      3      221      220      228
     418      1      221      222      223
     419      2      221      222      234
     420      2      222      221      233
     421      4      222      223      224
     422      3      222      223      227
     423      5      223      222      234
     424      6      223      224      225
     425      1      223      227      228
     426      5      223      227      239
     427      4      224      223      227
     428     10      224      225      226
     429     13      224      225      235
     430     13      224      225      236
     431      8      225      226      237
     432      8      225      226      238
     433      7      225      226      241
     434      9      226      225      235
     435      9      226      225      236
     436      7      226      241      242
     437     11      226      241      253
     438     11      226      241      254
     439      2      227      228      240
     440      2      228      227      239
     441     14      229      217      230
     442     12      231      218      232
     443     12      235      225      236
     444     14      237      226      238
     445     11      237      226      241
     446     11      238      226      241
     447     10      241      242      243
     448      9      241      242      255
     449      9      241      242      256
     450      8      242      241      253
     451      8      242      241      254
     452      6      242      243      244
     453     13      243      242      255
     454     13      243      242      256
     455      4      243      244      245
     456      4      243      244      252
     457      1      244      245      246
     458      5      244      245      257
     459      1      244      252      251
     460      5      244      252      264
     461      3      245      244      252
     462      1      245      246      247
     463      2      245      246      258
     464      2      246      245      257
     465      4      246      247      248
     466      3      246      247      251
     467      5      247      246      258
     468      6      247      248      249
     469      1      247      251      252
     470      5      247      251      263
     471      4      248      247      251
     472     10      248      249      250
     473     13      248      249      259
     474     13      248      249      260
     475      8      249      250      261
     476      8      249      250      262
     477      7      249      250      265
     478      9      250      249      259
     479      9      250      249      260
     480      7      250      265      266
     481     11      250      265      277
     482     11      250      265      278
     483      2      251      252      264
     484      2      252      251      263
     485     14      253      241      254
     486     12      255      242      256
     487     12      259      249      260
     488     14      261      250      262
     489     11      261      250      265
     490     11      262      250      265
     491     10      265      266      267
     492      9      265      266      279
     493      9      265      266      280
     494      8      266      265      277
     495      8      266      265      278
     496      6      266      267      268
     497     13      267      266      279
     498     13      267      266      280
     499      4      267      268      269
     500      4      267      268      276
     501      1      268      269      270
     502      5      268      269      281
     503      1      268      276      275
     504      5      268      276      288
     505      3      269      268      276
     506      1      269      270      271
     507      2      269      270      282
     508      2      270      269      281
     509      4      270      271      272
     510      3      270      271      275
     511      5      271      270      282
     512      6      271      272      273
     513      1      271      275      276
     514      5      271      275      287
     515      4      272      271      275
     516     10      272      273      274
     517     13      272      273      283
     518     13      272      273      284
     519      8      273      274      285
     520      8      273      274      286
     521      7      273      274      289
     522      9      274      273      283
     523      9      274      273      284
     524      7      274      289      290
     525     11      274      289      301
     526     11      274      289      302
     527      2      275      276      288
     528      2      276      275      287
     529     14      277      265      278
     530     12      279      266      280
     531     12      283      273      284
     532     14      285      274      286
     533     11      285      274      289
     534     11      286      274      289
     535     10      289      290      291
     536      9      289      290      303
     537      9      289      290      304
     538      8      290      289      301
     539      8      290      289      302
     540      6      290      291      292
     541     13      291      290      303
     542     13      291      290      304
     543      4      291      292      293
     544      4      291      292      300
     545      1      292      293      294
     546      5      292      293      305
     547      1      292      300      299
     548      5      292      300      312
     549      3      293      292      300
     550      1      293      294      295
     551      2      293      294      306
     552      2      294      293      305
     553      4      294      295      296
     554      3      294      295      299
     555      5      295      294      306
     556      6      295      296      297
     557      1      295      299      300
     558      5      295      299      311
     559      4      296      295      299
     560     10      296      297      298
     561     13      296      297      307
     562     13      296      297      308
     563      8      297      298      309
     564      8      297      298      310
     565      7      297      298      313
     566      9      298      297      307
     567      9      298      297      308
     568      7      298      313      314
     569     11      298      313      325
     570     11      298      313      326
     571      2      299      300      312
     572      2      300      299      311
     573     14      301      289      302
     574     12      303      290      304
     575     12      307      297      308
     576     14      309      298      310
     577     11      309      298      313
     578     11      310      298      313
     579     10      313      314      315
     580      9      313      314      327
     581      9      313      314      328
     582      8      314      313      325
     583      8      314      313      326
     584      6      314      315      316
     585     13      315      314      327
     586     13      315      314      328
     587      4      315      316      317
     588      4      315      316      324
     589      1      316      317      318
     590      5      316      317      329
     591      1      316      324      323
     592      5      316      324      336
     593      3      317      316      324
     594      1      317      318      319
     595      2      317      318      330
     596      2      318      317      329
     597      4      318      319      320
     598      3      318      319      323
     599      5      319      318      330
     600      6      319      320      321
     601      1      319      323      324
     602      5      319      323      335
     603      4      320      319      323
     604     10      320      321      322
     605     13      320      321      331
     606     13      320      321      332
     607      8      321      322      333
     608      8      321      322      334
     609      7      321      322      337
     610      9      322      321      331
     611      9      322      321      332
     612      7      322      337      338
     613     11      322      337      349
     614     11      322      337      350
     615      2      323      324      336
     616      2      324      323      335
     617     14      325      313      326
     618     12      327      314      328
     619     12      331      321      332
     620     14      333      322      334
     621     11      333      322      337
     622     11      334      322      337
     623     10      337      338      339
     624      9      337      338      351
     625      9      337      338      352
     626      8      338      337      349
     627      8      338      337      350
     628      6      338      339      340
     629     13      339      338      351
     630     13      339      338      352
     631      4      339      340      341
     632      4      339      340      348
     633      1      340      341      342
     634      5      340      341      353
     635      1      340      348      347
     636      5      340      348      360
     637      3      341      340      348
     638      1      341      342      343
     639      2      341      342      354
     640      2      342      341      353
     641      4      342      343      344
     642      3      342      343      347
     643      5      343      342      354
     644      6      343      344      345
     645      1      343      347      348
     646      5      343      347      359
     647      4      344      343      347
     648     10      344      345      346
     649     13      344      345      355
     650     13      344      345      356
     651      8      345      346      357
     652      8      345      346      358
     653      7      345      346      361
     654      9      346      345      355
     655      9      346      345      356
     656      7      346      361      362
     657     11      346      361      373
     658     11      346      361      374
     659      2      347      348      360
     660      2      348      347      359
     661     14      349      337      350
     662     12      351      338      352
     663     12      355      345      356
     664     14      357      346      358
     665     11      357      346      361
     666     11      358      346      361
     667     10      361      362      363
     668      9      361      362      375
     669      9      361      362      376
     670      8      362      361      373
     671      8      362      361      374
     672      6      362      363      364
     673     13      363      362      375
     674     13      363      362      376
     675      4      363      364      365
     676      4      363      364      372
     677      1      364      365      366
     678      5      364      365      377
     679      1      364      372      371
     680      5      364      372      384
     681      3      365      364      372
     682      1      365      366      367
     683      2      365      366      378
     684      2      366      365      377
     685      4      366      367      368
     686      3      366      367      371
     687      5      367      366      378
     688      6      367      368      369
     689      1      367      371      372
     690      5      367      371      383
     691      4      368      367      371
     692     10      368      369      370
     693     13      368      369      379
     694     13      368      369      380
     695      8      369      370      381
     696      8      369      370      382
     697      7      369      370      385
     698      9      370      369      379
     699      9      370      369      380
     700      7      370      385      386
     701     11      370      385      397
     702     11      370      385      398
     703      2      371      372      384
     704      2      372      371      383
     705     14      373      361      374
     706     12      375      362      376
     707     12      379      369      380
     708     14      381      370      382
     709     11      381      370      385
     710     11      382      370      385
     711     10      385      386      387
     712      9      385      386      399
     713      9      385      386      400
     714      8      386      385      397
     715      8      386      385      398
     716      6      386      387      388
     717     13      387      386      399
     718     13      387      386      400
     719      4      387      388      389
     720      4      387      388      396
     721      1      388      389      390
     722      5      388      389      401
     723      1      388      396      395
     724      5      388      396      408
     725      3      389      388      396
     726      1      389      390      391
     727      2      389      390      402
     728      2      390      389      401
     729      4      390      391      392
     730      3      390      391      395
     731      5      391      390      402
     732      6      391      392      393
     733      1      391      395      396
     734      5      391      395      407
     735      4      392      391      395
     736     10      392      393      394
     737     13      392      393      403
     738     13      392      393      404
     739      8      393      394      405
     740      8      393      394      406
     741      7      393      394      409
     742      9      394      393      403
     743      9      394      393      404
     744      7      394      409      410
     745     11      394      409      421
     746     11      394      409      422
     747      2      395      396      408
     748      2      396      395      407
     749     14      397      385      398
     750     12      399      386      400
     751     12      403      393      404
     752     14      405      394      406
     753     11      405      394      409
     754     11      406      394      409
     755     10      409      410      411
     756      9      409      410      423
     757      9      409      410      424
     758      8      410      409      421
     759      8      410      409      422
     760      6      410      411      412
     761     13      411      410      423
     762     13      411      410      424
     763      4      411      412      413
     764      4      411      412      420
     765      1      412      413      414
     766      5      412      413      425
     767      1      412      420      419
     768      5      412      420      432
     769      3      413      412      420
     770      1      413      414      415
     771      2      413      414      426
     772      2      414      413      425
     773      4      414      415      416
     774      3      414      415      419
     775      5      415      414      426
     776      6      415      416      417
     777      1      415      419      420
     778      5      415      419      431
     779      4      416      415      419
     780     10      416      417      418
     781     13      416      417      427
     782     13      416      417      428
     783      8      417      418      429
     784      8      417      418      430
     785      7      417      418      433
     786      9      418      417      427
     787      9      418      417      428
     788      7      418      433      434
     789     11      418      433      445
     790     11      418      433      446
     791      2      419      420      432
     792      2      420      419      431
     793     14      421      409      422
     794     12      423      410      424
     795     12      427      417      428
     796     14      429      418      430
     797     11      429      418      433
     798     11      430      418      433
     799     10      433      434      435
     800      9      433      434      447
     801      9      433      434      448
     802      8      434      433      445
     803      8      434      433      446
     804      6      434      435      436
     805     13      435      434      447
     806     13      435      434      448
     807      4      435      436      437
     808      4      435      436      444
     809      1      436      437      438
     810      5      436      437      449
     811      1      436      444      443
     812      5      436      444      456
     813      3      437      436      444
     814      1      437      438      439
     815      2      437      438      450
     816      2      438      437      449
     817      4      438      439      440
     818      3      438      439      443
     819      5      439      438      450
     820      6      439      440      441
     821      1      439      443      444
     822      5      439      443      455
     823      4      440      439      443
     824     10      440      441      442
     825     13      440      441      451
     826     13      440      441      452
     827      8      441      442      453
     828      8      441      442      454
     829      7      441      442      457
     830      9      442      441      451
     831      9      442      441      452
     832      7      442      457      458
     833     11      442      457      469
     834     11      442      457      470
     835      2      443      444      456
     836      2      444      443      455
     837     14      445      433      446
     838     12      447      434      448
     839     12      451      441      452
     840     14      453      442      454
     841     11      453      442      457
     842     11      454      442      457
     843     10      457      458      459
     844      9      457      458      471
     845      9      457      458      472
     846      8      458      457      469
     847      8      458      457      470
     848      6      458      459      460
     849     13      459      458      471
     850     13      459      458      472
     851      4      459      460      461
     852      4      459      460      468
     853      1      460      461      462
     854      5      460      461      473
     855      1      460      468      467
     856      5      460      468      480
     857      3      461      460      468
     858      1      461      462      463
     859      2      461      462      474
     860      2      462      461      473
     861      4      462      463      464
     862      3      462      463      467
     863      5      463      462      474
     864      6      463      464      465
     865      1      463      467      468
     866      5      463      467      479
     867      4      464      463      467
     868     10      464      465      466
     869     13      464      465      475
     870     13      464      465      476
     871      8      465      466      477
     872      8      465      466      478
     873      7      465      466      481
     874      9      466      465      475
     875      9      466      465      476
     876      7      466      481      482
     877     11      466      481      493
     878     11      466      481      494
     879      2      467      468      480
     880      2      468      467      479
     881     14      469      457      470
     882     12      471      458      472
     883     12      475      465      476
     884     14      477      466      478
     885     11      477      466      481
     886     11      478      466      481
     887     10      481      482      483
     888      9      481      482      495
     889      9      481      482      496
     890      8      482      481      493
     891      8      482      481      494
     892      6      482      483      484
     893     13      483      482      495
     894     13      483      482      496
     895      4      483      484      485
     896      4      483      484      492
     897      1      484      485      486
     898      5      484      485      497
     899      1      484      492      491
     900      5      484      492      504
     901      3      485      484      492
     902      1      485      486      487
     903      2      485      486      498
     904      2      486      485      497
     905      4      486      487      488
     906      3      486      487      491
     907      5      487      486      498
     908      6      487      488      489
     909      1      487      491      492
     910      5      487      491      503
     911      4      488      487      491
     912     10      488      489      490
     913     13      488      489      499
     914     13      488      489      500
     915      8      489      490      501
     916      8      489      490      502
     917      7      489      490      505
     918      9      490      489      499
     919      9      490      489      500
     920      7      490      505      506
     921     11      490      505      517
     922     11      490      505      518
     923      2      491      492      504
     924      2      492      491      503
     925     14      493      481      494
     926     12      495      482      496
     927     12      499      489      500
     928     14      501      490      502
     929     11      501      490      505
     930     11      502      490      505
     931     10      505      506      507
     932      9      505      506      519
     933      9      505      506      520
     934      8      506      505      517
     935      8      506      505      518
     936      6      506      507      508
     937     13      507      506      519
     938     13      507      506      520
     939      4      507      508      509
     940      4      507      508      516
     941      1      508      509      510
     942      5      508      509      521
     943      1      508      516      515
     944      5      508      516      528
     945      3      509      508      516
     946      1      509      510      511
     947      2      509      510      522
     948      2      510      509      521
     949      4      510      511      512
     950      3      510      511      515
     951      5      511      510      522
     952      6      511      512      513
     953      1      511      515      516
     954      5      511      515      527
     955      4      512      511      515
     956     10      512      513      514
     957     13      512      513      523
     958     13      512      513      524
     959      8      513      514      525
     960      8      513      514      526
     961      7      513      514      529
     962      9      514      513      523
     963      9      514      513      524
     964      7      514      529      530
     965     11      514      529      541
     966     11      514      529      542
     967      2      515      516      528
     968      2      516      515      527
     969     14      517      505      518
     970     12      519      506      520
     971     12      523      513      524
     972     14      525      514      526
     973     11      525      514      529
     974     11      526      514      529
     975     10      529      530      531
     976      9      529      530      543
     977      9      529      530      544
     978      8      530      529      541
     979      8      530      529      542
     980      6      530      531      532
     981     13      531      530      543
     982     13      531      530      544
     983      4      531      532      533
     984      4      531      532      540
     985      1      532      533      534
     986      5      532      533      545
     987      1      532      540      539
     988      5      532      540      552
     989      3      533      532      540
     990      1      533      534      535
     991      2      533      534      546
     992      2      534      533      545
     993      4      534      535      536
     994      3      534      535      539
     995      5      535      534      546
     996      6      535      536      537
     997      1      535      539      540
     998      5      535      539      551
     999      4      536      535      539
    1000     10      536      537      538
    1001     13      536      537      547
    1002     13      536      537      548
    1003      8      537      538      549
    1004      8      537      538      550
    1005      7      537      538      553
    1006      9      538      537      547
    1007      9      538      537      548
    1008      7      538      553      554
    1009     11      538      553      565
    1010     11      538      553      566
    1011      2      539      540      552
    1012      2      540      539      551
    1013     14      541      529      542
    1014     12      543      530      544
    1015     12      547      537      548
    1016     14      549      538      550
    1017     11      549      538      553
    1018     11      550      538      553
    1019     10      553      554      555
    1020      9      553      554      567
    1021      9      553      554      568
    1022      8      554      553      565
    1023      8      554      553      566
    1024      6      554      555      556
    1025     13      555      554      567
    1026     13      555      554      568
    1027      4      555      556      557
    1028      4      555      556      564
    1029      1      556      557      558
    1030      5      556      557      569
    1031      1      556      564      563
    1032      5      556      564      576
    1033      3      557      556      564
    1034      1      557      558      559
    1035      2      557      558      570
    1036      2      558      557      569
    1037      4      558      559      560
    1038      3      558      559      563
    1039      5      559      558      570
    1040      6      559      560      561
    1041      1      559      563      564
    1042      5      559      563      575
    1043      4      560      559      563
    1044     10      560      561      562
    1045     13      560      561      571
    1046     13      560      561      572
    1047      8      561      562      573
    1048      8      561      562      574
    1049      7      561      562      577
    1050      9      562      561      571
    1051      9      562      561      572
    1052      7      562      577      578
    1053     11      562      577      589
    1054     11      562      577      590
    1055      2      563      564      576
    1056      2      564      563      575
    1057     14      565      553      566
    1058     12      567      554      568
    1059     12      571      561      572
    1060     14      573      562      574
    1061     11      573      562      577
    1062     11      574      562      577
    1063     10      577      578      579
    1064      9      577      578      591
    1065      9      577      578      592
    1066      8      578      577      589
    1067      8      578      577      590
    1068      6      578      579      580
    1069     13      579      578      591
    1070     13      579      578      592
    1071      4      579      580      581
    1072      4      579      580      588
    1073      1      580      581      582
    1074      5      580      581      593
    1075      1      580      588      587
    1076      5      580      588      600
    1077      3      581      580      588
    1078      1      581      582      583
    1079      2      581      582      594
    1080      2      582      581      593
    1081      4      582      583      584
    1082      3      582      583      587
    1083      5      583      582      594
    1084      6      583      584      585
    1085      1      583      587      588
    1086      5      583      587      599
    1087      4      584      583      587
    1088     10      584      585      586
    1089     13      584      585      595
    1090     13      584      585      596
    1091      8      585      586      597
    1092      8      585      586      598
    1093      7      585      586      601
    1094      9      586      585      595
    1095      9      586      585      596
    1096      7      586      601      602
    1097     11      586      601      613
    1098     11      586      601      614
    1099      2      587      588      600
    1100      2      588      587      599
    1101     14      589      577      590
    1102     12      591      578      592
    1103     12      595      585      596
    1104     14      597      586      598
    1105     11      597      586      601
    1106     11      598      586      601
    1107     10      601      602      603
    1108      9      601      602      615
    1109      9      601      602      616
    1110      8      602      601      613
    1111      8      602      601      614
    1112      6      602      603      604
    1113     13      603      602      615
    1114     13      603      602      616
    1115      4      603      604      605
    1116      4      603      604      612
    1117      1      604      605      606
    1118      5      604      605      617
    1119      1      604      612      611
    1120      5      604      612      624
    1121      3      605      604      612
    1122      1      605      606      607
    1123      2      605      606      618
    1124      2      606      605      617
    1125      4      606      607      608
    1126      3      606      607      611
    1127      5      607      606      618
    1128      6      607      608      609
    1129      1      607      611      612
    1130      5      607      611      623
    1131      4      608      607      611
    1132     10      608      609      610
    1133     13      608      609      619
    1134     13      608      609      620
    1135      8      609      610      621
    1136      8      609      610      622
    1137      7      609      610      625
    1138      9      610      609      619
    1139      9      610      609      620
    1140      7      610      625      626
    1141     11      610      625      637
    1142     11      610      625      638
    1143      2      611      612      624
    1144      2      612      611      623
    1145     14      613      601      614
    1146     12      615      602      616
    1147     12      619      609      620
    1148     14      621      610      622
    1149     11      621      610      625
    1150     11      622      610      625
    1151     10      625      626      627
    1152      9      625      626      639
    1153      9      625      626      640
    1154      8      626      625      637
    1155      8      626      625      638
    1156      6      626      627      628
    1157     13      627      626      639
    1158     13      627      626      640
    1159      4      627      628      629
    1160      4      627      628      636
    1161      1      628      629      630
    1162      5      628      629      641
    1163      1      628      636      635
    1164      5      628      636      648
    1165      3      629      628      636
    1166      1      629      630      631
    1167      2      629      630      642
    1168      2      630      629      641
    1169      4      630      631      632
    1170      3      630      631      635
    1171      5      631      630      642
    1172      6      631      632      633
    1173      1      631      635      636
    1174      5      631      635      647
    1175      4      632      631      635
    1176     10      632      633      634
    1177     13      632      633      643
    1178     13      632      633      644
    1179      8      633      634      645
    1180      8      633      634      646
    1181      7      633      634      649
    1182      9      634      633      643
    1183      9      634      633      644
    1184      7      634      649      650
    1185     11      634      649      661
    1186     11      634      649      662
    1187      2      635      636      648
    1188      2      636      635      647
    1189     14      637      625      638
    1190     12      639      626      640
    1191     12      643      633      644
    1192     14      645      634      646
    1193     11      645      634      649
    1194     11      646      634      649
    1195     10      649      650      651
    1196      9      649      650      663
    1197      9      649      650      664
    1198      8      650      649      661
    1199      8      650      649      662
    1200      6      650      651      652
    1201     13      651      650      663
    1202     13      651      650      664
    1203      4      651      652      653
    1204      4      651      652      660
    1205      1      652      653      654
    1206      5      652      653      665
    1207      1      652      660      659
    1208      5      652      660      672
    1209      3      653      652      660
    1210      1      653      654      655
    1211      2      653      654      666
    1212      2      654      653      665
    1213      4      654      655      656
    1214      3      654      655      659
    1215      5      655      654      666
    1216      6      655      656      657
    1217      1      655      659      660
    1218      5      655      659      671
    1219      4      656      655      659
    1220     10      656      657      658
    1221     13      656      657      667
    1222     13      656      657      668
    1223      8      657      658      669
    1224      8      657      658      670
    1225      7      657      658      673
    1226      9      658      657      667
    1227      9      658      657      668
    1228      7      658      673      674
    1229     11      658      673      685
    1230     11      658      673      686
    1231      2      659      660      672
    1232      2      660      659      671
    1233     14      661      649      662
    1234     12      663      650      664
    1235     12      667      657      668
    1236     14      669      658      670
    1237     11      669      658      673
    1238     11      670      658      673
    1239     10      673      674      675
    1240      9      673      674      687
    1241      9      673      674      688
    1242      8      674      673      685
    1243      8      674      673      686
    1244      6      674      675      676
    1245     13      675      674      687
    1246     13      675      674      688
    1247      4      675      676      677
    1248      4      675      676      684
    1249      1      676      677      678
    1250      5      676      677      689
    1251      1      676      684      683
    1252      5      676      684      696
    1253      3      677      676      684
    1254      1      677      678      679
    1255      2      677      678      690
    1256      2      678      677      689
    1257      4      678      679      680
    1258      3      678      679      683
    1259      5      679      678      690
    1260      6      679      680      681
    1261      1      679      683      684
    1262      5      679      683      695
    1263      4      680      679      683
    1264     10      680      681      682
    1265     13      680      681      691
    1266     13      680      681      692
    1267      8      681      682      693
    1268      8      681      682      694
    1269      7      681      682      697
    1270      9      682      681      691
    1271      9      682      681      692
    1272      7      682      697      698
    1273     11      682      697      709
    1274     11      682      697      710
    1275      2      683      684      696
    1276      2      684      683      695
    1277     14      685      673      686
    1278     12      687      674      688
    1279     12      691      681      692
    1280     14      693      682      694
    1281     11      693      682      697
    1282     11      694      682      697
    1283     10      697      698      699
    1284      9      697      698      711
    1285      9      697      698      712
    1286      8      698      697      709
    1287      8      698      697      710
    1288      6      698      699      700
    1289     13      699      698      711
    1290     13      699      698      712
    1291      4      699      700      701
    1292      4      699      700      708
    1293      1      700      701      702
    1294      5      700      701      713
    1295      1      700      708      707
    1296      5      700      708      720
    1297      3      701      700      708
    1298      1      701      702      703
    1299      2      701      702      714
    1300      2      702      701      713
    1301      4      702      703      704
    1302      3      702      703      707
    1303      5      703      702      714
    1304      6      703      704      705
    1305      1      703      707      708
    1306      5      703      707      719
    1307      4      704      703      707
    1308     10      704      705      706
    1309     13      704      705      715
    1310     13      704      705      716
    1311      8      705      706      717
    1312      8      705      706      718
    1313      7      705      706      721
    1314      9      706      705      715
    1315      9      706      705      716
    1316      7      706      721      722
    1317     11      706      721      733
    1318     11      706      721      734
    1319      2      707      708      720
    1320      2      708      707      719
    1321     14      709      697      710
    1322     12      711      698      712
    1323     12      715      705      716
    1324     14      717      706      718
    1325     11      717      706      721
    1326     11      718      706      721
    1327     10      721      722      723
    1328      9      721      722      735
    1329      9      721      722      736
    1330      8      722      721      733
    1331      8      722      721      734
    1332      6      722      723      724
    1333     13      723      722      735
    1334     13      723      722      736
    1335      4      723      724      725
    1336      4      723      724      732
    1337      1      724      725      726
    1338      5      724      725      737
    1339      1      724      732      731
    1340      5      724      732      744
    1341      3      725      724      732
    1342      1      725      726      727
    1343      2      725      726      738
    1344      2      726      725      737
    1345      4      726      727      728
    1346      3      726      727      731
    1347      5      727      726      738
    1348      6      727      728      729
    1349      1      727      731      732
    1350      5      727      731      743
    1351      4      728      727      731
    1352     10      728      729      730
    1353     13      728      729      739
    1354     13      728      729      740
    1355      8      729      730      741
    1356      8      729      730      742
    1357      7      729      730      745
    1358      9      730      729      739
    1359      9      730      729      740
    1360      7      730      745      746
    1361     11      730      745      757
    1362     11      730      745      758
    1363      2      731      732      744
    1364      2      732      731      743
    1365     14      733      721      734
    1366     12      735      722      736
    1367     12      739      729      740
    1368     14      741      730      742
    1369     11      741      730      745
    1370     11      742      730      745
    1371     10      745      746      747
    1372      9      745      746      759
    1373      9      745      746      760
    1374      8      746      745      757
    1375      8      746      745      758
    1376      6      746      747      748
    1377     13      747      746      759
    1378     13      747      746      760
    1379      4      747      748      749
    1380      4      747      748      756
    1381      1      748      749      750
    1382      5      748      749      761
    1383      1      748      756      755
    1384      5      748      756      768
    1385      3      749      748      756
    1386      1      749      750      751
    1387      2      749      750      762
    1388      2      750      749      761
    1389      4      750      751      752
    1390      3      750      751      755
    1391      5      751      750      762
    1392      6      751      752      753
    1393      1      751      755      756
    1394      5      751      755      767
    1395      4      752      751      755
    1396     10      752      753      754
    1397     13      752      753      763
    1398     13      752      753      764
    1399      8      753      754      765
    1400      8      753      754      766
    1401      7      753      754      769
    1402      9      754      753      763
    1403      9      754      753      764
    1404      7      754      769      770
    1405     11      754      769      781
    1406     11      754      769      782
    1407      2      755      756      768
    1408      2      756      755      767
    1409     14      757      745      758
    1410     12      759      746      760
    1411     12      763      753      764
    1412     14      765      754      766
    1413     11      765      754      769
    1414     11      766      754      769
    1415     10      769      770      771
    1416      9      769      770      783
    1417      9      769      770      784
    1418      8      770      769      781
    1419      8      770      769      782
    1420      6      770      771      772
    1421     13      771      770      783
    1422     13      771      770      784
    1423      4      771      772      773
    1424      4      771      772      780
    1425      1      772      773      774
    1426      5      772      773      785
    1427      1      772      780      779
    1428      5      772      780      792
    1429      3      773      772      780
    1430      1      773      774      775
    1431      2      773      774      786
    1432      2      774      773      785
    1433      4      774      775      776
    1434      3      774      775      779
    1435      5      775      774      786
    1436      6      775      776      777
    1437      1      775      779      780
    1438      5      775      779      791
    1439      4      776      775      779
    1440     10      776      777      778
    1441     13      776      777      787
    1442     13      776      777      788
    1443      8      777      778      789
    1444      8      777      778      790
    1445      7      777      778      793
    1446      9      778      777      787
    1447      9      778      777      788
    1448      7      778      793      794
    1449     11      778      793      805
    1450     11      778      793      806
    1451      2      779      780      792
    1452      2      780      779      791
    1453     14      781      769      782
    1454     12      783      770      784
    1455     12      787      777      788
    1456     14      789      778      790
    1457     11      789      778      793
    1458     11      790      778      793
    1459     10      793      794      795
    1460      9      793      794      807
    1461      9      793      794      808
    1462      8      794      793      805
    1463      8      794      793      806
    1464      6      794      795      796
    1465     13      795      794      807
    1466     13      795      794      808
    1467      4      795      796      797
    1468      4      795      796      804
    1469      1      796      797      798
    1470      5      796      797      809
    1471      1      796      804      803
    1472      5      796      804      816
    1473      3      797      796      804
    1474      1      797      798      799
    1475      2      797      798      810
    1476      2      798      797      809
    1477      4      798      799      800
    1478      3      798      799      803
    1479      5      799      798      810
    1480      6      799      800      801
    1481      1      799      803      804
    1482      5      799      803      815
    1483      4      800      799      803
    1484     10      800      801      802
    1485     13      800      801      811
    1486     13      800      801      812
    1487      8      801      802      813
    1488      8      801      802      814
    1489      7      801      802      817
    1490      9      802      801      811
    1491      9      802      801      812
    1492      7      802      817      818
    1493     11      802      817      829
    1494     11      802      817      830
    1495      2      803      804      816
    1496      2      804      803      815
    1497     14      805      793      806
    1498     12      807      794      808
    1499     12      811      801      812
    1500     14      813      802      814
    1501     11      813      802      817
    1502     11      814      802      817
    1503     10      817      818      819
    1504      9      817      818      831
    1505      9      817      818      832
    1506      8      818      817      829
    1507      8      818      817      830
    1508      6      818      819      820
    1509     13      819      818      831
    1510     13      819      818      832
    1511      4      819      820      821
    1512      4      819      820      828
    1513      1      820      821      822
    1514      5      820      821      833
    1515      1      820      828      827
    1516      5      820      828      840
    1517      3      821      820      828
    1518      1      821      822      823
    1519      2      821      822      834
    1520      2      822      821      833
    1521      4      822      823      824
    1522      3      822      823      827
    1523      5      823      822      834
    1524      6      823      824      825
    1525      1      823      827      828
    1526      5      823      827      839
    1527      4      824      823      827
    1528     10      824      825      826
    1529     13      824      825      835
    1530     13      824      825      836
    1531      8      825      826      837
    1532      8      825      826      838
    1533      7      825      826      841
    1534      9      826      825      835
    1535      9      826      825      836
    1536      7      826      841      842
    1537     11      826      841      853
    1538     11      826      841      854
    1539      2      827      828      840
    1540      2      828      827      839
    1541     14      829      817      830
    1542     12      831      818      832
    1543     12      835      825      836
    1544     14      837      826      838
    1545     11      837      826      841
    1546     11      838      826      841
    1547     10      841      842      843
    1548      9      841      842      855
    1549      9      841      842      856
    1550      8      842      841      853
    1551      8      842      841      854
    1552      6      842      843      844
    1553     13      843      842      855
    1554     13      843      842      856
    1555      4      843      844      845
    1556      4      843      844      852
    1557      1      844      845      846
    1558      5      844      845      857
    1559      1      844      852      851
    1560      5      844      852      864
    1561      3      845      844      852
    1562      1      845      846      847
    1563      2      845      846      858
    1564      2      846      845      857
    1565      4      846      847      848
    1566      3      846      847      851
    1567      5      847      846      858
    1568      6      847      848      849
    1569      1      847      851      852
    1570      5      847      851      863
    1571      4      848      847      851
    1572     10      848      849      850
    1573     13      848      849      859
    1574     13      848      849      860
    1575      8      849      850      861
    1576      8      849      850      862
    1577      7      849      850      865
    1578      9      850      849      859
    1579      9      850      849      860
    1580      7      850      865      866
    1581     11      850      865      877
    1582     11      850      865      878
    1583      2      851      852      864
    1584      2      852      851      863
    1585     14      853      841      854
    1586     12      855      842      856
    1587     12      859      849      860
    1588     14      861      850      862
    1589     11      861      850      865
    1590     11      862      850      865
    1591     10      865      866      867
    1592      9      865      866      879
    1593      9      865      866      880
    1594      8      866      865      877
    1595      8      866      865      878
    1596      6      866      867      868
    1597     13      867      866      879
    1598     13      867      866      880
    1599      4      867      868      869
    1600      4      867      868      876
    1601      1      868      869      870
    1602      5      868      869      881
    1603      1      868      876      875
    1604      5      868      876      888
    1605      3      869      868      876
    1606      1      869      870      871
    1607      2      869      870      882
    1608      2      870      869      881
    1609      4      870      871      872
    1610      3      870      871      875
    1611      5      871      870      882
    1612      6      871      872      873
    1613      1      871      875      876
    1614      5      871      875      887
    1615      4      872      871      875
    1616     10      872      873      874
    1617     13      872      873      883
    1618     13      872      873      884
    1619      8      873      874      885
    1620      8      873      874      886
    1621      7      873      874      889
    1622      9      874      873      883
    1623      9      874      873      884
    1624      7      874      889      890
    1625     11      874      889      901
    1626     11      874      889      902
    1627      2      875      876      888
    1628      2      876      875      887
    1629     14      877      865      878
    1630     12      879      866      880
    1631     12      883      873      884
    1632     14      885      874      886
    1633     11      885      874      889
    1634     11      886      874      889
    1635     10      889      890      891
    1636      9      889      890      903
    1637      9      889      890      904
    1638      8      890      889      901
    1639      8      890      889      902
    1640      6      890      891      892
    1641     13      891      890      903
    1642     13      891      890      904
    1643      4      891      892      893
    1644      4      891      892      900
    1645      1      892      893      894
    1646      5      892      893      905
    1647      1      892      900      899
    1648      5      892      900      912
    1649      3      893      892      900
    1650      1      893      894      895
    1651      2      893      894      906
    1652      2      894      893      905
    1653      4      894      895      896
    1654      3      894      895      899
    1655      5      895      894      906
    1656      6      895      896      897
    1657      1      895      899      900
    1658      5      895      899      911
    1659      4      896      895      899
    1660     10      896      897      898
    1661     13      896      897      907
    1662     13      896      897      908
    1663      8      897      898      909
    1664      8      897      898      910
    1665      7      897      898      913
    1666      9      898      897      907
    1667      9      898      897      908
    1668      7      898      913      914
    1669     11      898      913      925
    1670     11      898      913      926
    1671      2      899      900      912
    1672      2      900      899      911
    1673     14      901      889      902
    1674     12      903      890      904
    1675     12      907      897      908
    1676     14      909      898      910
    1677     11      909      898      913
    1678     11      910      898      913
    1679     10      913      914      915
    1680      9      913      914      927
    1681      9      913      914      928
    1682      8      914      913      925
    1683      8      914      913      926
    1684      6      914      915      916
    1685     13      915      914      927
    1686     13      915      914      928
    1687      4      915      916      917
    1688      4      915      916      924
    1689      1      916      917      918
    1690      5      916      917      929
    1691      1      916      924      923
    1692      5      916      924      936
    1693      3      917      916      924
    1694      1      917      918      919
    1695      2      917      918      930
    1696      2      918      917      929
    1697      4      918      919      920
    1698      3      918      919      923
    1699      5      919      918      930
    1700      6      919      920      921
    1701      1      919      923      924
    1702      5      919      923      935
    1703      4      920      919      923
    1704     10      920      921      922
    1705     13      920      921      931
    1706     13      920      921      932
    1707      8      921      922      933
    1708      8      921      922      934
    1709      7      921      922      937
    1710      9      922      921      931
    1711      9      922      921      932
    1712      7      922      937      938
    1713     11      922      937      949
    1714     11      922      937      950
    1715      2      923      924      936
    1716      2      924      923      935
    1717     14      925      913      926
    1718     12      927      914      928
    1719     12      931      921      932
    1720     14      933      922      934
    1721     11      933      922      937
    1722     11      934      922      937
    1723     10      937      938      939
    1724      9      937      938      951
    1725      9      937      938      952
    1726      8      938      937      949
    1727      8      938      937      950
    1728      6      938      939      940
    1729     13      939      938      951
    1730     13      939      938      952
    1731      4      939      940      941
    1732      4      939      940      948
    1733      1      940      941      942
    1734      5      940      941      953
    1735      1      940      948      947
    1736      5      940      948      960
    1737      3      941      940      948
    1738      1      941      942      943
    1739      2      941      942      954
    1740      2      942      941      953
    1741      4      942      943      944
    1742      3      942      943      947
    1743      5      943      942      954
    1744      6      943      944      945
    1745      1      943      947      948
    1746      5      943      947      959
    1747      4      944      943      947
    1748     10      944      945      946
    1749     13      944      945      955
    1750     13      944      945      956
    1751      8      945      946      957
    1752      8      945      946      958
    1753      7      945      946      961
    1754      9      946      945      955
    1755      9      946      945      956
    1756      7      946      961      962
    1757     11      946      961      973
    1758     11      946      961      974
    1759      2      947      948      960
    1760      2      948      947      959
    1761     14      949      937      950
    1762     12      951      938      952
    1763     12      955      945      956
    1764     14      957      946      958
    1765     11      957      946      961
    1766     11      958      946      961
    1767     10      961      962      963
    1768      9      961      962      975
    1769      9      961      962      976
    1770      8      962      961      973
    1771      8      962      961      974
    1772      6      962      963      964
    1773     13      963      962      975
    1774     13      963      962      976
    1775      4      963      964      965
    1776      4      963      964      972
    1777      1      964      965      966
    1778      5      964      965      977
    1779      1      964      972      971
    1780      5      964      972      984
    1781      3      965      964      972
    1782      1      965      966      967
    1783      2      965      966      978
    1784      2      966      965      977
    1785      4      966      967      968
    1786      3      966      967      971
    1787      5      967      966      978
    1788      6      967      968      969
    1789      1      967      971      972
    1790      5      967      971      983
    1791      4      968      967      971
    1792     10      968      969      970
    1793     13      968      969      979
    1794     13      968      969      980
    1795      8      969      970      981
    1796      8      969      970      982
    1797      7      969      970      985
    1798      9      970      969      979
    1799      9      970      969      980
    1800      7      970      985      986
    1801     11      970      985      997
    1802     11      970      985      998
    1803      2      971      972      984
    1804      2      972      971      983
    1805     14      973      961      974
    1806     12      975      962      976
    1807     12      979      969      980
    1808     14      981      970      982
    1809     11      981      970      985
    1810     11      982      970      985
    1811     10      985      986      987
    1812      9      985      986      999
    1813      9      985      986     1000
    1814      8      986      985      997
    1815      8      986      985      998
    1816      6      986      987      988
    1817     13      987      986      999
    1818     13      987      986     1000
    1819      4      987      988      989
    1820      4      987      988      996
    1821      1      988      989      990
    1822      5      988      989     1001
    1823      1      988      996      995
    1824      5      988      996     1008
    1825      3      989      988      996
    1826      1      989      990      991
    1827      2      989      990     1002
    1828      2      990      989     1001
    1829      4      990      991      992
    1830      3      990      991      995
    1831      5      991      990     1002
    1832      6      991      992      993
    1833      1      991      995      996
    1834      5      991      995     1007
    1835      4      992      991      995
    1836     10      992      993      994
    1837     13      992      993     1003
    1838     13      992      993     1004
    1839      8      993      994     1005
    1840      8      993      994     1006
    1841      7      993      994     1018
    1842      9      994      993     1003
    1843      9      994      993     1004
    1844      7      994     1018     1017
    1845     11      994     1018     1029
    1846     11      994     1018     1030
    1847      2      995      996     1008
    1848      2      996      995     1007
    1849     14      997      985      998
    1850     12      999      986     1000
    1851     12     1003      993     1004
    1852     14     1005      994     1006
    1853     11     1005      994     1018
    1854     11     1006      994     1018
    1855     10     1009     1010     1011
    1856      9     1009     1010     1023
    1857      9     1009     1010     1024
    1858      8     1010     1009     1021
    1859      8     1010     1009     1022
    1860      6     1010     1011     1012
    1861     13     1011     1010     1023
    1862     13     1011     1010     1024
    1863      4     1011     1012     1013
    1864      4     1011     1012     1020
    1865      1     1012     1013     1014
    1866      5     1012     1013     1025
    1867      1     1012     1020     1019
    1868      5     1012     1020     1032
    1869      3     1013     1012     1020
    1870      1     1013     1014     1015
    1871      2     1013     1014     1026
    1872      2     1014     1013     1025
    1873      4     1014     1015     1016
    1874      3     1014     1015     1019
    1875      5     1015     1014     1026
    1876      6     1015     1016     1017
    1877      1     1015     1019     1020
    1878      5     1015     1019     1031
    1879      4     1016     1015     1019
    1880     10     1016     1017     1018
    1881     13     1016     1017     1027
    1882     13     1016     1017     1028
    1883      8     1017     1018     1029
    1884      8     1017     1018     1030
    1885      9     1018     1017     1027
    1886      9     1018     1017     1028
    1887      2     1019     1020     1032
    1888      2     1020     1019     1031
    1889     14     1021     1009     1022
    1890     12     1023     1010     1024
    1891     12     1027     1017     1028
    1892     14     1029     1018     1030

Dihedrals

       1      7        1        2        3        4
       2     12        1       25       26       27
       3     11        1       25       26       39
       4     11        1       25       26       40
       5      9        2        1       25       26
       6     10        2        1       25       37
       7     10        2        1       25       38
       8      4        2        3        4        5
       9      4        2        3        4       12
      10     16        3        2        1       13
      11     16        3        2        1       14
      12     12        3        2        1       25
      13      2        3        4        5        6
      14     14        3        4        5       17
      15      2        3        4       12       11
      16     14        3        4       12       24
      17      8        4        3        2       15
      18      8        4        3        2       16
      19      5        4        5        6        7
      20      6        4        5        6       18
      21      5        4       12       11        7
      22      6        4       12       11       23
      23      1        5        4       12       11
      24      3        5        4       12       24
      25      2        5        6        7        8
      26      1        5        6        7       11
      27      1        6        5        4       12
      28      4        6        7        8        9
      29      1        6        7       11       12
      30      3        6        7       11       23
      31      6        7        6        5       17
      32      7        7        8        9       10
      33      8        7        8        9       19
      34      8        7        8        9       20
      35      6        7       11       12       24
      36     14        8        7        6       18
      37      2        8        7       11       12
      38     14        8        7       11       23
      39     16        8        9       10       21
      40     16        8        9       10       22
      41     12        8        9       10     1009
      42      4        9        8        7       11
      43      9        9       10     1009     1010
      44     10        9       10     1009     1021
      45     10        9       10     1009     1022
      46     12       10     1009     1010     1011
      47     11       10     1009     1010     1023
      48     11       10     1009     1010     1024
      49      3       11        7        6       18
      50      3       12        4        5       17
      51     15       13        1        2       15
      52     15       13        1        2       16
      53     10       13        1       25       26
      54     17       13        1       25       37
      55     17       13        1       25       38
      56     15       14        1        2       15
      57     15       14        1        2       16
      58     10       14        1       25       26
      59     17       14        1       25       37
      60     17       14        1       25       38
      61     11       15        2        1       25
      62     11       16        2        1       25
      63     13       17        5        6       18
      64     15       19        9       10       21
      65     15       19        9       10       22
      66     11       19        9       10     1009
      67     15       20        9       10       21
      68     15       20        9       10       22
      69     11       20        9       10     1009
      70     10       21       10     1009     1010
      71     17       21       10     1009     1021
      72     17       21       10     1009     1022
      73     10       22       10     1009     1010
      74     17       22       10     1009     1021
      75     17       22       10     1009     1022
      76     13       23       11       12       24
      77      7       25       26       27       28
      78      4       26       27       28       29
      79      4       26       27       28       36
      80     16       27       26       25       37
      81     16       27       26       25       38
      82      2       27       28       29       30
      83     14       27       28       29       41
      84      2       27       28       36       35
      85     14       27       28       36       48
      86      8       28       27       26       39
      87      8       28       27       26       40
      88      5       28       29       30       31
      89      6       28       29       30       42
      90      5       28       36       35       31
      91      6       28       36       35       47
      92      1       29       28       36       35
      93      3       29       28       36       48
      94      2       29       30       31       32
      95      1       29       30       31       35
      96      1       30       29       28       36
      97      4       30       31       32       33
      98      1       30       31       35       36
      99      3       30       31       35       47
     100      6       31       30       29       41
     101      7       31       32       33       34
     102      8       31       32       33       43
     103      8       31       32       33       44
     104      6       31       35       36       48
     105     14       32       31       30       42
     106      2       32       31       35       36
     107     14       32       31       35       47
     108     16       32       33       34       45
     109     16       32       33       34       46
     110     12       32       33       34       49
     111      4       33       32       31       35
     112      9       33       34       49       50
     113     10       33       34       49       61
     114     10       33       34       49       62
     115     12       34       49       50       51
     116     11       34       49       50       63
     117     11       34       49       50       64
     118      3       35       31       30       42
     119      3       36       28       29       41
     120     15       37       25       26       39
     121     15       37       25       26       40
     122     15       38       25       26       39
     123     15       38       25       26       40
     124     13       41       29       30       42
     125     15       43       33       34       45
     126     15       43       33       34       46
     127     11       43       33       34       49
     128     15       44       33       34       45
     129     15       44       33       34       46
     130     11       44       33       34       49
     131     10       45       34       49       50
     132     17       45       34       49       61
     133     17       45       34       49       62
     134     10       46       34       49       50
     135     17       46       34       49       61
     136     17       46       34       49       62
     137     13       47       35       36       48
     138      7       49       50       51       52
     139      4       50       51       52       53
     140      4       50       51       52       60
     141     16       51       50       49       61
     142     16       51       50       49       62
     143      2       51       52       53       54
     144     14       51       52       53       65
     145      2       51       52       60       59
     146     14       51       52       60       72
     147      8       52       51       50       63
     148      8       52       51       50       64
     149      5       52       53       54       55
     150      6       52       53       54       66
     151      5       52       60       59       55
     152      6       52       60       59       71
     153      1       53       52       60       59
     154      3       53       52       60       72
     155      2       53       54       55       56
     156      1       53       54       55       59
     157      1       54       53       52       60
     158      4       54       55       56       57
     159      1       54       55       59       60
     160      3       54       55       59       71
     161      6       55       54       53       65
     162      7       55       56       57       58
     163      8       55       56       57       67
     164      8       55       56       57       68
     165      6       55       59       60       72
     166     14       56       55       54       66
     167      2       56       55       59       60
     168     14       56       55       59       71
     169     16       56       57       58       69
     170     16       56       57       58       70
     171     12       56       57       58       73
     172      4       57       56       55       59
     173      9       57       58       73       74
     174     10       57       58       73       85
     175     10       57       58       73       86
     176     12       58       73       74       75
     177     11       58       73       74       87
     178     11       58       73       74       88
     179      3       59       55       54       66
     180      3       60       52       53       65
     181     15       61       49       50       63
     182     15       61       49       50       64
     183     15       62       49       50       63
     184     15       62       49       50       64
     185     13       65       53       54       66
     186     15       67       57       58       69
     187     15       67       57       58       70
     188     11       67       57       58       73
     189     15       68       57       58       69
     190     15       68       57       58       70
     191     11       68       57       58       73
     192     10       69       58       73       74
     193     17       69       58       73       85
     194     17       69       58       73       86
     195     10       70       58       73       74
     196     17       70       58       73       85
     197     17       70       58       73       86
     198     13       71       59       60       72
     199      7       73       74       75       76
     200      4       74       75       76       77
     201      4       74       75       76       84
     202     16       75       74       73       85
     203     16       75       74       73       86
     204      2       75       76       77       78
     205     14       75       76       77       89
     206      2       75       76       84       83
     207     14       75       76       84       96
     208      8       76       75       74       87
     209      8       76       75       74       88
     210      5       76       77       78       79
     211      6       76       77       78       90
     212      5       76       84       83       79
     213      6       76       84       83       95
     214      1       77       76       84       83
     215      3       77       76       84       96
     216      2       77       78       79       80
     217      1       77       78       79       83
     218      1       78       77       76       84
     219      4       78       79       80       81
     220      1       78       79       83       84
     221      3       78       79       83       95
     222      6       79       78       77       89
     223      7       79       80       81       82
     224      8       79       80       81       91
     225      8       79       80       81       92
     226      6       79       83       84       96
     227     14       80       79       78       90
     228      2       80       79       83       84
     229     14       80       79       83       95
     230     16       80       81       82       93
     231     16       80       81       82       94
     232     12       80       81       82       97
     233      4       81       80       79       83
     234      9       81       82       97       98
     235     10       81       82       97      109
     236     10       81       82       97      110
     237     12       82       97       98       99
     238     11       82       97       98      111
     239     11       82       97       98      112
     240      3       83       79       78       90
     241      3       84       76       77       89
     242     15       85       73       74       87
     243     15       85       73       74       88
     244     15       86       73       74       87
     245     15       86       73       74       88
     246     13       89       77       78       90
     247     15       91       81       82       93
     248     15       91       81       82       94
     249     11       91       81       82       97
     250     15       92       81       82       93
     251     15       92       81       82       94
     252     11       92       81       82       97
     253     10       93       82       97       98
     254     17       93       82       97      109
     255     17       93       82       97      110
     256     10       94       82       97       98
     257     17       94       82       97      109
     258     17       94       82       97      110
     259     13       95       83       84       96
     260      7       97       98       99      100
     261      4       98       99      100      101
     262      4       98       99      100      108
     263     16       99       98       97      109
     264     16       99       98       97      110
     265      2       99      100      101      102
     266     14       99      100      101      113
     267      2       99      100      108      107
     268     14       99      100      108      120
     269      8      100       99       98      111
     270      8      100       99       98      112
     271      5      100      101      102      103
     272      6      100      101      102      114
     273      5      100      108      107      103
     274      6      100      108      107      119
     275      1      101      100      108      107
     276      3      101      100      108      120
     277      2      101      102      103      104
     278      1      101      102      103      107
     279      1      102      101      100      108
     280      4      102      103      104      105
     281      1      102      103      107      108
     282      3      102      103      107      119
     283      6      103      102      101      113
     284      7      103      104      105      106
     285      8      103      104      105      115
     286      8      103      104      105      116
     287      6      103      107      108      120
     288     14      104      103      102      114
     289      2      104      103      107      108
     290     14      104      103      107      119
     291     16      104      105      106      117
     292     16      104      105      106      118
     293     12      104      105      106      121
     294      4      105      104      103      107
     295      9      105      106      121      122
     296     10      105      106      121      133
     297     10      105      106      121      134
     298     12      106      121      122      123
     299     11      106      121      122      135
     300     11      106      121      122      136
     301      3      107      103      102      114
     302      3      108      100      101      113
     303     15      109       97       98      111
     304     15      109       97       98      112
     305     15      110       97       98      111
     306     15      110       97       98      112
     307     13      113      101      102      114
     308     15      115      105      106      117
     309     15      115      105      106      118
     310     11      115      105      106      121
     311     15      116      105      106      117
     312     15      116      105      106      118
     313     11      116      105      106      121
     314     10      117      106      121      122
     315     17      117      106      121      133
     316     17      117      106      121      134
     317     10      118      106      121      122
     318     17      118      106      121      133
     319     17      118      106      121      134
     320     13      119      107      108      120
     321      7      121      122      123      124
     322      4      122      123      124      125
     323      4      122      123      124      132
     324     16      123      122      121      133
     325     16      123      122      121      134
     326      2      123      124      125      126
     327     14      123      124      125      137
     328      2      123      124      132      131
     329     14      123      124      132      144
     330      8      124      123      122      135
     331      8      124      123      122      136
     332      5      124      125      126      127
     333      6      124      125      126      138
     334      5      124      132      131      127
     335      6      124      132      131      143
     336      1      125      124      132      131
     337      3      125      124      132      144
     338      2      125      126      127      128
     339      1      125      126      127      131
     340      1      126      125      124      132
     341      4      126      127      128      129
     342      1      126      127      131      132
     343      3      126      127      131      143
     344      6      127      126      125      137
     345      7      127      128      129      130
     346      8      127      128      129      139
     347      8      127      128      129      140
     348      6      127      131      132      144
     349     14      128      127      126      138
     350      2      128      127      131      132
     351     14      128      127      131      143
     352     16      128      129      130      141
     353     16      128      129      130      142
     354     12      128      129      130      145
     355      4      129      128      127      131
     356      9      129      130      145      146
     357     10      129      130      145      157
     358     10      129      130      145      158
     359     12      130      145      146      147
     360     11      130      145      146      159
     361     11      130      145      146      160
     362      3      131      127      126      138
     363      3      132      124      125      137
     364     15      133      121      122      135
     365     15      133      121      122      136
     366     15      134      121      122      135
     367     15      134      121      122      136
     368     13      137      125      126      138
     369     15      139      129      130      141
     370     15      139      129      130      142
     371     11      139      129      130      145
     372     15      140      129      130      141
     373     15      140      129      130      142
     374     11      140      129      130      145
     375     10      141      130      145      146
     376     17      141      130      145      157
     377     17      141      130      145      158
     378     10      142      130      145      146
     379     17      142      130      145      157
     380     17      142      130      145      158
     381     13      143      131      132      144
     382      7      145      146      147      148
     383      4      146      147      148      149
     384      4      146      147      148      156
     385     16      147      146      145      157
     386     16      147      146      145      158
     387      2      147      148      149      150
     388     14      147      148      149      161
     389      2      147      148      156      155
     390     14      147      148      156      168
     391      8      148      147      146      159
     392      8      148      147      146      160
     393      5      148      149      150      151
     394      6      148      149      150      162
     395      5      148      156      155      151
     396      6      148      156      155      167
     397      1      149      148      156      155
     398      3      149      148      156      168
     399      2      149      150      151      152
     400      1      149      150      151      155
     401      1      150      149      148      156
     402      4      150      151      152      153
     403      1      150      151      155      156
     404      3      150      151      155      167
     405      6      151      150      149      161
     406      7      151      152      153      154
     407      8      151      152      153      163
     408      8      151      152      153      164
     409      6      151      155      156      168
     410     14      152      151      150      162
     411      2      152      151      155      156
     412     14      152      151      155      167
     413     16      152      153      154      165
     414     16      152      153      154      166
     415     12      152      153      154      169
     416      4      153      152      151      155
     417      9      153      154      169      170
     418     10      153      154      169      181
     419     10      153      154      169      182
     420     12      154      169      170      171
     421     11      154      169      170      183
     422     11      154      169      170      184
     423      3      155      151      150      162
     424      3      156      148      149      161
     425     15      157      145      146      159
     426     15      157      145      146      160
     427     15      158      145      146      159
     428     15      158      145      146      160
     429     13      161      149      150      162
     430     15      163      153      154      165
     431     15      163      153      154      166
     432     11      163      153      154      169
     433     15      164      153      154      165
     434     15      164      153      154      166
     435     11      164      153      154      169
     436     10      165      154      169      170
     437     17      165      154      169      181
     438     17      165      154      169      182
     439     10      166      154      169      170
     440     17      166      154      169      181
     441     17      166      154      169      182
     442     13      167      155      156      168
     443      7      169      170      171      172
     444      4      170      171      172      173
     445      4      170      171      172      180
     446     16      171      170      169      181
     447     16      171      170      169      182
     448      2      171      172      173      174
     449     14      171      172      173      185
     450      2      171      172      180      179
     451     14      171      172      180      192
     452      8      172      171      170      183
     453      8      172      171      170      184
     454      5      172      173      174      175
     455      6      172      173      174      186
     456      5      172      180      179      175
     457      6      172      180      179      191
     458      1      173      172      180      179
     459      3      173      172      180      192
     460      2      173      174      175      176
     461      1      173      174      175      179
     462      1      174      173      172      180
     463      4      174      175      176      177
     464      1      174      175      179      180
     465      3      174      175      179      191
     466      6      175      174      173      185
     467      7      175      176      177      178
     468      8      175      176      177      187
     469      8      175      176      177      188
     470      6      175      179      180      192
     471     14      176      175      174      186
     472      2      176      175      179      180
     473     14      176      175      179      191
     474     16      176      177      178      189
     475     16      176      177      178      190
     476     12      176      177      178      193
     477      4      177      176      175      179
     478      9      177      178      193      194
     479     10      177      178      193      205
     480     10      177      178      193      206
     481     12      178      193      194      195
     482     11      178      193      194      207
     483     11      178      193      194      208
     484      3      179      175      174      186
     485      3      180      172      173      185
     486     15      181      169      170      183
     487     15      181      169      170      184
     488     15      182      169      170      183
     489     15      182      169      170      184
     490     13      185      173      174      186
     491     15      187      177      178      189
     492     15      187      177      178      190
     493     11      187      177      178      193
     494     15      188      177      178      189
     495     15      188      177      178      190
     496     11      188      177      178      193
     497     10      189      178      193      194
     498     17      189      178      193      205
     499     17      189      178      193      206
     500     10      190      178      193      194
     501     17      190      178      193      205
     502     17      190      178      193      206
     503     13      191      179      180      192
     504      7      193      194      195      196
     505      4      194      195      196      197
     506      4      194      195      196      204
     507     16      195      194      193      205
     508     16      195      194      193      206
     509      2      195      196      197      198
     510     14      195      196      197      209
     511      2      195      196      204      203
     512     14      195      196      204      216
     513      8      196      195      194      207
     514      8      196      195      194      208
     515      5      196      197      198      199
     516      6      196      197      198      210
     517      5      196      204      203      199
     518      6      196      204      203      215
     519      1      197      196      204      203
     520      3      197      196      204      216
     521      2      197      198      199      200
     522      1      197      198      199      203
     523      1      198      197      196      204
     524      4      198      199      200      201
     525      1      198      199      203      204
     526      3      198      199      203      215
     527      6      199      198      197      209
     528      7      199      200      201      202
     529      8      199      200      201      211
     530      8      199      200      201      212
     531      6      199      203      204      216
     532     14      200      199      198      210
     533      2      200      199      203      204
     534     14      200      199      203      215
     535     16      200      201      202      213
     536     16      200      201      202      214
     537     12      200      201      202      217
     538      4      201      200      199      203
     539      9      201      202      217      218
     540     10      201      202      217      229
     541     10      201      202      217      230
     542     12      202      217      218      219
     543     11      202      217      218      231
     544     11      202      217      218      232
     545      3      203      199      198      210
     546      3      204      196      197      209
     547     15      205      193      194      207
     548     15      205      193      194      208
     549     15      206      193      194      207
     550     15      206      193      194      208
     551     13      209      197      198      210
     552     15      211      201      202      213
     553     15      211      201      202      214
     554     11      211      201      202      217
     555     15      212      201      202      213
     556     15      212      201      202      214
     557     11      212      201      202      217
     558     10      213      202      217      218
     559     17      213      202      217      229
     560     17      213      202      217      230
     561     10      214      202      217      218
     562     17      214      202      217      229
     563     17      214      202      217      230
     564     13      215      203      204      216
     565      7      217      218      219      220
     566      4      218      219      220      221
     567      4      218      219      220      228
     568     16      219      218      217      229
     569     16      219      218      217      230
     570      2      219      220      221      222
     571     14      219      220      221      233
     572      2      219      220      228      227
     573     14      219      220      228      240
     574      8      220      219      218      231
     575      8      220      219      218      232
     576      5      220      221      222      223
     577      6      220      221      222      234
     578      5      220      228      227      223
     579      6      220      228      227      239
     580      1      221      220      228      227
     581      3      221      220      228      240
     582      2      221      222      223      224
     583      1      221      222      223      227
     584      1      222      221      220      228
     585      4      222      223      224      225
     586      1      222      223      227      228
     587      3      222      223      227      239
     588      6      223      222      221      233
     589      7      223      224      225      226
     590      8      223      224      225      235
     591      8      223      224      225      236
     592      6      223      227      228      240
     593     14      224      223      222      234
     594      2      224      223      227      228
     595     14      224      223      227      239
     596     16      224      225      226      237
     597     16      224      225      226      238
     598     12      224      225      226      241
     599      4      225      224      223      227
     600      9      225      226      241      242
     601     10      225      226      241      253
     602     10      225      226      241      254
     603     12      226      241      242      243
     604     11      226      241      242      255
     605     11      226      241      242      256
     606      3      227      223      222      234
     607      3      228      220      221      233
     608     15      229      217      218      231
     609     15      229      217      218      232
     610     15      230      217      218      231
     611     15      230      217      218      232
     612     13      233      221      222      234
     613     15      235      225      226      237
     614     15      235      225      226      238
     615     11      235      225      226      241
     616     15      236      225      226      237
     617     15      236      225      226      238
     618     11      236      225      226      241
     619     10      237      226      241      242
     620     17      237      226      241      253
     621     17      237      226      241      254
     622     10      238      226      241      242
     623     17      238      226      241      253
     624     17      238      226      241      254
     625     13      239      227      228      240
     626      7      241      242      243      244
     627      4      242      243      244      245
     628      4      242      243      244      252
     629     16      243      242      241      253
     630     16      243      242      241      254
     631      2      243      244      245      246
     632     14      243      244      245      257
     633      2      243      244      252      251
     634     14      243      244      252      264
     635      8      244      243      242      255
     636      8      244      243      242      256
     637      5      244      245      246      247
     638      6      244      245      246      258
     639      5      244      252      251      247
     640      6      244      252      251      263
     641      1      245      244      252      251
     642      3      245      244      252      264
     643      2      245      246      247      248
     644      1      245      246      247      251
     645      1      246      245      244      252
     646      4      246      247      248      249
     647      1      246      247      251      252
     648      3      246      247      251      263
     649      6      247      246      245      257
     650      7      247      248      249      250
     651      8      247      248      249      259
     652      8      247      248      249      260
     653      6      247      251      252      264
     654     14      248      247      246      258
     655      2      248      247      251      252
     656     14      248      247      251      263
     657     16      248      249      250      261
     658     16      248      249      250      262
     659     12      248      249      250      265
     660      4      249      248      247      251
     661      9      249      250      265      266
     662     10      249      250      265      277
     663     10      249      250      265      278
     664     12      250      265      266      267
     665     11      250      265      266      279
     666     11      250      265      266      280
     667      3      251      247      246      258
     668      3      252      244      245      257
     669     15      253      241      242      255
     670     15      253      241      242      256
     671     15      254      241      242      255
     672     15      254      241      242      256
     673     13      257      245      246      258
     674     15      259      249      250      261
     675     15      259      249      250      262
     676     11      259      249      250      265
     677     15      260      249      250      261
     678     15      260      249      250      262
     679     11      260      249      250      265
     680     10      261      250      265      266
     681     17      261      250      265      277
     682     17      261      250      265      278
     683     10      262      250      265      266
     684     17      262      250      265      277
     685     17      262      250      265      278
     686     13      263      251      252      264
     687      7      265      266      267      268
     688      4      266      267      268      269
     689      4      266      267      268      276
     690     16      267      266      265      277
     691     16      267      266      265      278
     692      2      267      268      269      270
     693     14      267      268      269      281
     694      2      267      268      276      275
     695     14      267      268      276      288
     696      8      268      267      266      279
     697      8      268      267      266      280
     698      5      268      269      270      271
     699      6      268      269      270      282
     700      5      268      276      275      271
     701      6      268      276      275      287
     702      1      269      268      276      275
     703      3      269      268      276      288
     704      2      269      270      271      272
     705      1      269      270      271      275
     706      1      270      269      268      276
     707      4      270      271      272      273
     708      1      270      271      275      276
     709      3      270      271      275      287
     710      6      271      270      269      281
     711      7      271      272      273      274
     712      8      271      272      273      283
     713      8      271      272      273      284
     714      6      271      275      276      288
     715     14      272      271      270      282
     716      2      272      271      275      276
     717     14      272      271      275      287
     718     16      272      273      274      285
     719     16      272      273      274      286
     720     12      272      273      274      289
     721      4      273      272      271      275
     722      9      273      274      289      290
     723     10      273      274      289      301
     724     10      273      274      289      302
     725     12      274      289      290      291
     726     11      274      289      290      303
     727     11      274      289      290      304
     728      3      275      271      270      282
     729      3      276      268      269      281
     730     15      277      265      266      279
     731     15      277      265      266      280
     732     15      278      265      266      279
     733     15      278      265      266      280
     734     13      281      269      270      282
     735     15      283      273      274      285
     736     15      283      273      274      286
     737     11      283      273      274      289
     738     15      284      273      274      285
     739     15      284      273      274      286
     740     11      284      273      274      289
     741     10      285      274      289      290
     742     17      285      274      289      301
     743     17      285      274      289      302
     744     10      286      274      289      290
     745     17      286      274      289      301
     746     17      286      274      289      302
     747     13      287      275      276      288
     748      7      289      290      291      292
     749      4      290      291      292      293
     750      4      290      291      292      300
     751     16      291      290      289      301
     752     16      291      290      289      302
     753      2      291      292      293      294
     754     14      291      292      293      305
     755      2      291      292      300      299
     756     14      291      292      300      312
     757      8      292      291      290      303
     758      8      292      291      290      304
     759      5      292      293      294      295
     760      6      292      293      294      306
     761      5      292      300      299      295
     762      6      292      300      299      311
     763      1      293      292      300      299
     764      3      293      292      300      312
     765      2      293      294      295      296
     766      1      293      294      295      299
     767      1      294      293      292      300
     768      4      294      295      296      297
     769      1      294      295      299      300
     770      3      294      295      299      311
     771      6      295      294      293      305
     772      7      295      296      297      298
     773      8      295      296      297      307
     774      8      295      296      297      308
     775      6      295      299      300      312
     776     14      296      295      294      306
     777      2      296      295      299      300
     778     14      296      295      299      311
     779     16      296      297      298      309
     780     16      296      297      298      310
     781     12      296      297      298      313
     782      4      297      296      295      299
     783      9      297      298      313      314
     784     10      297      298      313      325
     785     10      297      298      313      326
     786     12      298      313      314      315
     787     11      298      313      314      327
     788     11      298      313      314      328
     789      3      299      295      294      306
     790      3      300      292      293      305
     791     15      301      289      290      303
     792     15      301      289      290      304
     793     15      302      289      290      303
     794     15      302      289      290      304
     795     13      305      293      294      306
     796     15      307      297      298      309
     797     15      307      297      298      310
     798     11      307      297      298      313
     799     15      308      297      298      309
     800     15      308      297      298      310
     801     11      308      297      298      313
     802     10      309      298      313      314
     803     17      309      298      313      325
     804     17      309      298      313      326
     805     10      310      298      313      314
     806     17      310      298      313      325
     807     17      310      298      313      326
     808     13      311      299      300      312
     809      7      313      314      315      316
     810      4      314      315      316      317
     811      4      314      315      316      324
     812     16      315      314      313      325
     813     16      315      314      313      326
     814      2      315      316      317      318
     815     14      315      316      317      329
     816      2      315      316      324      323
     817     14      315      316      324      336
     818      8      316      315      314      327
     819      8      316      315      314      328
     820      5      316      317      318      319
     821      6      316      317      318      330
     822      5      316      324      323      319
     823      6      316      324      323      335
     824      1      317      316      324      323
     825      3      317      316      324      336
     826      2      317      318      319      320
     827      1      317      318      319      323
     828      1      318      317      316      324
     829      4      318      319      320      321
     830      1      318      319      323      324
     831      3      318      319      323      335
     832      6      319      318      317      329
     833      7      319      320      321      322
     834      8      319      320      321      331
     835      8      319      320      321      332
     836      6      319      323      324      336
     837     14      320      319      318      330
     838      2      320      319      323      324
     839     14      320      319      323      335
     840     16      320      321      322      333
     841     16      320      321      322      334
     842     12      320      321      322      337
     843      4      321      320      319      323
     844      9      321      322      337      338
     845     10      321      322      337      349
     846     10      321      322      337      350
     847     12      322      337      338      339
     848     11      322      337      338      351
     849     11      322      337      338      352
     850      3      323      319      318      330
     851      3      324      316      317      329
     852     15      325      313      314      327
     853     15      325      313      314      328
     854     15      326      313      314      327
     855     15      326      313      314      328
     856     13      329      317      318      330
     857     15      331      321      322      333
     858     15      331      321      322      334
     859     11      331      321      322      337
     860     15      332      321      322      333
     861     15      332      321      322      334
     862     11      332      321      322      337
     863     10      333      322      337      338
     864     17      333      322      337      349
     865     17      333      322      337      350
     866     10      334      322      337      338
     867     17      334      322      337      349
     868     17      334      322      337      350
     869     13      335      323      324      336
     870      7      337      338      339      340
     871      4      338      339      340      341
     872      4      338      339      340      348
     873     16      339      338      337      349
     874     16      339      338      337      350
     875      2      339      340      341      342
     876     14      339      340      341      353
     877      2      339      340      348      347
     878     14      339      340      348      360
     879      8      340      339      338      351
     880      8      340      339      338      352
     881      5      340      341      342      343
     882      6      340      341      342      354
     883      5      340      348      347      343
     884      6      340      348      347      359
     885      1      341      340      348      347
     886      3      341      340      348      360
     887      2      341      342      343      344
     888      1      341      342      343      347
     889      1      342      341      340      348
     890      4      342      343      344      345
     891      1      342      343      347      348
     892      3      342      343      347      359
     893      6      343      342      341      353
     894      7      343      344      345      346
     895      8      343      344      345      355
     896      8      343      344      345      356
     897      6      343      347      348      360
     898     14      344      343      342      354
     899      2      344      343      347      348
     900     14      344      343      347      359
     901     16      344      345      346      357
     902     16      344      345      346      358
     903     12      344      345      346      361
     904      4      345      344      343      347
     905      9      345      346      361      362
     906     10      345      346      361      373
     907     10      345      346      361      374
     908     12      346      361      362      363
     909     11      346      361      362      375
     910     11      346      361      362      376
     911      3      347      343      342      354
     912      3      348      340      341      353
     913     15      349      337      338      351
     914     15      349      337      338      352
     915     15      350      337      338      351
     916     15      350      337      338      352
     917     13      353      341      342      354
     918     15      355      345      346      357
     919     15      355      345      346      358
     920     11      355      345      346      361
     921     15      356      345      346      357
     922     15      356      345      346      358
     923     11      356      345      346      361
     924     10      357      346      361      362
     925     17      357      346      361      373
     926     17      357      346      361      374
     927     10      358      346      361      362
     928     17      358      346      361      373
     929     17      358      346      361      374
     930     13      359      347      348      360
     931      7      361      362      363      364
     932      4      362      363      364      365
     933      4      362      363      364      372
     934     16      363      362      361      373
     935     16      363      362      361      374
     936      2      363      364      365      366
     937     14      363      364      365      377
     938      2      363      364      372      371
     939     14      363      364      372      384
     940      8      364      363      362      375
     941      8      364      363      362      376
     942      5      364      365      366      367
     943      6      364      365      366      378
     944      5      364      372      371      367
     945      6      364      372      371      383
     946      1      365      364      372      371
     947      3      365      364      372      384
     948      2      365      366      367      368
     949      1      365      366      367      371
     950      1      366      365      364      372
     951      4      366      367      368      369
     952      1      366      367      371      372
     953      3      366      367      371      383
     954      6      367      366      365      377
     955      7      367      368      369      370
     956      8      367      368      369      379
     957      8      367      368      369      380
     958      6      367      371      372      384
     959     14      368      367      366      378
     960      2      368      367      371      372
     961     14      368      367      371      383
     962     16      368      369      370      381
     963     16      368      369      370      382
     964     12      368      369      370      385
     965      4      369      368      367      371
     966      9      369      370      385      386
     967     10      369      370      385      397
     968     10      369      370      385      398
     969     12      370      385      386      387
     970     11      370      385      386      399
     971     11      370      385      386      400
     972      3      371      367      366      378
     973      3      372      364      365      377
     974     15      373      361      362      375
     975     15      373      361      362      376
     976     15      374      361      362      375
     977     15      374      361      362      376
     978     13      377      365      366      378
     979     15      379      369      370      381
     980     15      379      369      370      382
     981     11      379      369      370      385
     982     15      380      369      370      381
     983     15      380      369      370      382
     984     11      380      369      370      385
     985     10      381      370      385      386
     986     17      381      370      385      397
     987     17      381      370      385      398
     988     10      382      370      385      386
     989     17      382      370      385      397
     990     17      382      370      385      398
     991     13      383      371      372      384
     992      7      385      386      387      388
     993      4      386      387      388      389
     994      4      386      387      388      396
     995     16      387      386      385      397
     996     16      387      386      385      398
     997      2      387      388      389      390
     998     14      387      388      389      401
     999      2      387      388      396      395
    1000     14      387      388      396      408
    1001      8      388      387      386      399
    1002      8      388      387      386      400
    1003      5      388      389      390      391
    1004      6      388      389      390      402
    1005      5      388      396      395      391
    1006      6      388      396      395      407
    1007      1      389      388      396      395
    1008      3      389      388      396      408
    1009      2      389      390      391      392
    1010      1      389      390      391      395
    1011      1      390      389      388      396
    1012      4      390      391      392      393
    1013      1      390      391      395      396
    1014      3      390      391      395      407
    1015      6      391      390      389      401
    1016      7      391      392      393      394
    1017      8      391      392      393      403
    1018      8      391      392      393      404
    1019      6      391      395      396      408
    1020     14      392      391      390      402
    1021      2      392      391      395      396
    1022     14      392      391      395      407
    1023     16      392      393      394      405
    1024     16      392      393      394      406
    1025     12      392      393      394      409
    1026      4      393      392      391      395
    1027      9      393      394      409      410
    1028     10      393      394      409      421
    1029     10      393      394      409      422
    1030     12      394      409      410      411
    1031     11      394      409      410      423
    1032     11      394      409      410      424
    1033      3      395      391      390      402
    1034      3      396      388      389      401
    1035     15      397      385      386      399
    1036     15      397      385      386      400
    1037     15      398      385      386      399
    1038     15      398      385      386      400
    1039     13      401      389      390      402
    1040     15      403      393      394      405
    1041     15      403      393      394      406
    1042     11      403      393      394      409
    1043     15      404      393      394      405
    1044     15      404      393      394      406
    1045     11      404      393      394      409
    1046     10      405      394      409      410
    1047     17      405      394      409      421
    1048     17      405      394      409      422
    1049     10      406      394      409      410
    1050     17      406      394      409      421
    1051     17      406      394      409      422
    1052     13      407      395      396      408
    1053      7      409      410      411      412
    1054      4      410      411      412      413
    1055      4      410      411      412      420
    1056     16      411      410      409      421
    1057     16      411      410      409      422
    1058      2      411      412      413      414
    1059     14      411      412      413      425
    1060      2      411      412      420      419
    1061     14      411      412      420      432
    1062      8      412      411      410      423
    1063      8      412      411      410      424
    1064      5      412      413      414      415
    1065      6      412      413      414      426
    1066      5      412      420      419      415
    1067      6      412      420      419      431
    1068      1      413      412      420      419
    1069      3      413      412      420      432
    1070      2      413      414      415      416
    1071      1      413      414      415      419
    1072      1      414      413      412      420
    1073      4      414      415      416      417
    1074      1      414      415      419      420
    1075      3      414      415      419      431
    1076      6      415      414      413      425
    1077      7      415      416      417      418
    1078      8      415      416      417      427
    1079      8      415      416      417      428
    1080      6      415      419      420      432
    1081     14      416      415      414      426
    1082      2      416      415      419      420
    1083     14      416      415      419      431
    1084     16      416      417      418      429
    1085     16      416      417      418      430
    1086     12      416      417      418      433
    1087      4      417      416      415      419
    1088      9      417      418      433      434
    1089     10      417      418      433      445
    1090     10      417      418      433      446
    1091     12      418      433      434      435
    1092     11      418      433      434      447
    1093     11      418      433      434      448
    1094      3      419      415      414      426
    1095      3      420      412      413      425
    1096     15      421      409      410      423
    1097     15      421      409      410      424
    1098     15      422      409      410      423
    1099     15      422      409      410      424
    1100     13      425      413      414      426
    1101     15      427      417      418      429
    1102     15      427      417      418      430
    1103     11      427      417      418      433
    1104     15      428      417      418      429
    1105     15      428      417      418      430
    1106     11      428      417      418      433
    1107     10      429      418      433      434
    1108     17      429      418      433      445
    1109     17      429      418      433      446
    1110     10      430      418      433      434
    1111     17      430      418      433      445
    1112     17      430      418      433      446
    1113     13      431      419      420      432
    1114      7      433      434      435      436
    1115      4      434      435      436      437
    1116      4      434      435      436      444
    1117     16      435      434      433      445
    1118     16      435      434      433      446
    1119      2      435      436      437      438
    1120     14      435      436      437      449
    1121      2      435      436      444      443
    1122     14      435      436      444      456
    1123      8      436      435      434      447
    1124      8      436      435      434      448
    1125      5      436      437      438      439
    1126      6      436      437      438      450
    1127      5      436      444      443      439
    1128      6      436      444      443      455
    1129      1      437      436      444      443
    1130      3      437      436      444      456
    1131      2      437      438      439      440
    1132      1      437      438      439      443
    1133      1      438      437      436      444
    1134      4      438      439      440      441
    1135      1      438      439      443      444
    1136      3      438      439      443      455
    1137      6      439      438      437      449
    1138      7      439      440      441      442
    1139      8      439      440      441      451
    1140      8      439      440      441      452
    1141      6      439      443      444      456
    1142     14      440      439      438      450
    1143      2      440      439      443      444
    1144     14      440      439      443      455
    1145     16      440      441      442      453
    1146     16      440      441      442      454
    1147     12      440      441      442      457
    1148      4      441      440      439      443
    1149      9      441      442      457      458
    1150     10      441      442      457      469
    1151     10      441      442      457      470
    1152     12      442      457      458      459
    1153     11      442      457      458      471
    1154     11      442      457      458      472
    1155      3      443      439      438      450
    1156      3      444      436      437      449
    1157     15      445      433      434      447
    1158     15      445      433      434      448
    1159     15      446      433      434      447
    1160     15      446      433      434      448
    1161     13      449      437      438      450
    1162     15      451      441      442      453
    1163     15      451      441      442      454
    1164     11      451      441      442      457
    1165     15      452      441      442      453
    1166     15      452      441      442      454
    1167     11      452      441      442      457
    1168     10      453      442      457      458
    1169     17      453      442      457      469
    1170     17      453      442      457      470
    1171     10      454      442      457      458
    1172     17      454      442      457      469
    1173     17      454      442      457      470
    1174     13      455      443      444      456
    1175      7      457      458      459      460
    1176      4      458      459      460      461
    1177      4      458      459      460      468
    1178     16      459      458      457      469
    1179     16      459      458      457      470
    1180      2      459      460      461      462
    1181     14      459      460      461      473
    1182      2      459      460      468      467
    1183     14      459      460      468      480
    1184      8      460      459      458      471
    1185      8      460      459      458      472
    1186      5      460      461      462      463
    1187      6      460      461      462      474
    1188      5      460      468      467      463
    1189      6      460      468      467      479
    1190      1      461      460      468      467
    1191      3      461      460      468      480
    1192      2      461      462      463      464
    1193      1      461      462      463      467
    1194      1      462      461      460      468
    1195      4      462      463      464      465
    1196      1      462      463      467      468
    1197      3      462      463      467      479
    1198      6      463      462      461      473
    1199      7      463      464      465      466
    1200      8      463      464      465      475
    1201      8      463      464      465      476
    1202      6      463      467      468      480
    1203     14      464      463      462      474
    1204      2      464      463      467      468
    1205     14      464      463      467      479
    1206     16      464      465      466      477
    1207     16      464      465      466      478
    1208     12      464      465      466      481
    1209      4      465      464      463      467
    1210      9      465      466      481      482
    1211     10      465      466      481      493
    1212     10      465      466      481      494
    1213     12      466      481      482      483
    1214     11      466      481      482      495
    1215     11      466      481      482      496
    1216      3      467      463      462      474
    1217      3      468      460      461      473
    1218     15      469      457      458      471
    1219     15      469      457      458      472
    1220     15      470      457      458      471
    1221     15      470      457      458      472
    1222     13      473      461      462      474
    1223     15      475      465      466      477
    1224     15      475      465      466      478
    1225     11      475      465      466      481
    1226     15      476      465      466      477
    1227     15      476      465      466      478
    1228     11      476      465      466      481
    1229     10      477      466      481      482
    1230     17      477      466      481      493
    1231     17      477      466      481      494
    1232     10      478      466      481      482
    1233     17      478      466      481      493
    1234     17      478      466      481      494
    1235     13      479      467      468      480
    1236      7      481      482      483      484
    1237      4      482      483      484      485
    1238      4      482      483      484      492
    1239     16      483      482      481      493
    1240     16      483      482      481      494
    1241      2      483      484      485      486
    1242     14      483      484      485      497
    1243      2      483      484      492      491
    1244     14      483      484      492      504
    1245      8      484      483      482      495
    1246      8      484      483      482      496
    1247      5      484      485      486      487
    1248      6      484      485      486      498
    1249      5      484      492      491      487
    1250      6      484      492      491      503
    1251      1      485      484      492      491
    1252      3      485      484      492      504
    1253      2      485      486      487      488
    1254      1      485      486      487      491
    1255      1      486      485      484      492
    1256      4      486      487      488      489
    1257      1      486      487      491      492
    1258      3      486      487      491      503
    1259      6      487      486      485      497
    1260      7      487      488      489      490
    1261      8      487      488      489      499
    1262      8      487      488      489      500
    1263      6      487      491      492      504
    1264     14      488      487      486      498
    1265      2      488      487      491      492
    1266     14      488      487      491      503
    1267     16      488      489      490      501
    1268     16      488      489      490      502
    1269     12      488      489      490      505
    1270      4      489      488      487      491
    1271      9      489      490      505      506
    1272     10      489      490      505      517
    1273     10      489      490      505      518
    1274     12      490      505      506      507
    1275     11      490      505      506      519
    1276     11      490      505      506      520
    1277      3      491      487      486      498
    1278      3      492      484      485      497
    1279     15      493      481      482      495
    1280     15      493      481      482      496
    1281     15      494      481      482      495
    1282     15      494      481      482      496
    1283     13      497      485      486      498
    1284     15      499      489      490      501
    1285     15      499      489      490      502
    1286     11      499      489      490      505
    1287     15      500      489      490      501
    1288     15      500      489      490      502
    1289     11      500      489      490      505
    1290     10      501      490      505      506
    1291     17      501      490      505      517
    1292     17      501      490      505      518
    1293     10      502      490      505      506
    1294     17      502      490      505      517
    1295     17      502      490      505      518
    1296     13      503      491      492      504
    1297      7      505      506      507      508
    1298      4      506      507      508      509
    1299      4      506      507      508      516
    1300     16      507      506      505      517
    1301     16      507      506      505      518
    1302      2      507      508      509      510
    1303     14      507      508      509      521
    1304      2      507      508      516      515
    1305     14      507      508      516      528
    1306      8      508      507      506      519
    1307      8      508      507      506      520
    1308      5      508      509      510      511
    1309      6      508      509      510      522
    1310      5      508      516      515      511
    1311      6      508      516      515      527
    1312      1      509      508      516      515
    1313      3      509      508      516      528
    1314      2      509      510      511      512
    1315      1      509      510      511      515
    1316      1      510      509      508      516
    1317      4      510      511      512      513
    1318      1      510      511      515      516
    1319      3      510      511      515      527
    1320      6      511      510      509      521
    1321      7      511      512      513      514
    1322      8      511      512      513      523
    1323      8      511      512      513      524
    1324      6      511      515      516      528
    1325     14      512      511      510      522
    1326      2      512      511      515      516
    1327     14      512      511      515      527
    1328     16      512      513      514      525
    1329     16      512      513      514      526
    1330     12      512      513      514      529
    1331      4      513      512      511      515
    1332      9      513      514      529      530
    1333     10      513      514      529      541
    1334     10      513      514      529      542
    1335     12      514      529      530      531
    1336     11      514      529      530      543
    1337     11      514      529      530      544
    1338      3      515      511      510      522
    1339      3      516      508      509      521
    1340     15      517      505      506      519
    1341     15      517      505      506      520
    1342     15      518      505      506      519
    1343     15      518      505      506      520
    1344     13      521      509      510      522
    1345     15      523      513      514      525
    1346     15      523      513      514      526
    1347     11      523      513      514      529
    1348     15      524      513      514      525
    1349     15      524      513      514      526
    1350     11      524      513      514      529
    1351     10      525      514      529      530
    1352     17      525      514      529      541
    1353     17      525      514      529      542
    1354     10      526      514      529      530
    1355     17      526      514      529      541
    1356     17      526      514      529      542
    1357     13      527      515      516      528
    1358      7      529      530      531      532
    1359      4      530      531      532      533
    1360      4      530      531      532      540
    1361     16      531      530      529      541
    1362     16      531      530      529      542
    1363      2      531      532      533      534
    1364     14      531      532      533      545
    1365      2      531      532      540      539
    1366     14      531      532      540      552
    1367      8      532      531      530      543
    1368      8      532      531      530      544
    1369      5      532      533      534      535
    1370      6      532      533      534      546
    1371      5      532      540      539      535
    1372      6      532      540      539      551
    1373      1      533      532      540      539
    1374      3      533      532      540      552
    1375      2      533      534      535      536
    1376      1      533      534      535      539
    1377      1      534      533      532      540
    1378      4      534      535      536      537
    1379      1      534      535      539      540
    1380      3      534      535      539      551
    1381      6      535      534      533      545
    1382      7      535      536      537      538
    1383      8      535      536      537      547
    1384      8      535      536      537      548
    1385      6      535      539      540      552
    1386     14      536      535      534      546
    1387      2      536      535      539      540
    1388     14      536      535      539      551
    1389     16      536      537      538      549
    1390     16      536      537      538      550
    1391     12      536      537      538      553
    1392      4      537      536      535      539
    1393      9      537      538      553      554
    1394     10      537      538      553      565
    1395     10      537      538      553      566
    1396     12      538      553      554      555
    1397     11      538      553      554      567
    1398     11      538      553      554      568
    1399      3      539      535      534      546
    1400      3      540      532      533      545
    1401     15      541      529      530      543
    1402     15      541      529      530      544
    1403     15      542      529      530      543
    1404     15      542      529      530      544
    1405     13      545      533      534      546
    1406     15      547      537      538      549
    1407     15      547      537      538      550
    1408     11      547      537      538      553
    1409     15      548      537      538      549
    1410     15      548      537      538      550
    1411     11      548      537      538      553
    1412     10      549      538      553      554
    1413     17      549      538      553      565
    1414     17      549      538      553      566
    1415     10      550      538      553      554
    1416     17      550      538      553      565
    1417     17      550      538      553      566
    1418     13      551      539      540      552
    1419      7      553      554      555      556
    1420      4      554      555      556      557
    1421      4      554      555      556      564
    1422     16      555      554      553      565
    1423     16      555      554      553      566
    1424      2      555      556      557      558
    1425     14      555      556      557      569
    1426      2      555      556      564      563
    1427     14      555      556      564      576
    1428      8      556      555      554      567
    1429      8      556      555      554      568
    1430      5      556      557      558      559
    1431      6      556      557      558      570
    1432      5      556      564      563      559
    1433      6      556      564      563      575
    1434      1      557      556      564      563
    1435      3      557      556      564      576
    1436      2      557      558      559      560
    1437      1      557      558      559      563
    1438      1      558      557      556      564
    1439      4      558      559      560      561
    1440      1      558      559      563      564
    1441      3      558      559      563      575
    1442      6      559      558      557      569
    1443      7      559      560      561      562
    1444      8      559      560      561      571
    1445      8      559      560      561      572
    1446      6      559      563      564      576
    1447     14      560      559      558      570
    1448      2      560      559      563      564
    1449     14      560      559      563      575
    1450     16      560      561      562      573
    1451     16      560      561      562      574
    1452     12      560      561      562      577
    1453      4      561      560      559      563
    1454      9      561      562      577      578
    1455     10      561      562      577      589
    1456     10      561      562      577      590
    1457     12      562      577      578      579
    1458     11      562      577      578      591
    1459     11      562      577      578      592
    1460      3      563      559      558      570
    1461      3      564      556      557      569
    1462     15      565      553      554      567
    1463     15      565      553      554      568
    1464     15      566      553      554      567
    1465     15      566      553      554      568
    1466     13      569      557      558      570
    1467     15      571      561      562      573
    1468     15      571      561      562      574
    1469     11      571      561      562      577
    1470     15      572      561      562      573
    1471     15      572      561      562      574
    1472     11      572      561      562      577
    1473     10      573      562      577      578
    1474     17      573      562      577      589
    1475     17      573      562      577      590
    1476     10      574      562      577      578
    1477     17      574      562      577      589
    1478     17      574      562      577      590
    1479     13      575      563      564      576
    1480      7      577      578      579      580
    1481      4      578      579      580      581
    1482      4      578      579      580      588
    1483     16      579      578      577      589
    1484     16      579      578      577      590
    1485      2      579      580      581      582
    1486     14      579      580      581      593
    1487      2      579      580      588      587
    1488     14      579      580      588      600
    1489      8      580      579      578      591
    1490      8      580      579      578      592
    1491      5      580      581      582      583
    1492      6      580      581      582      594
    1493      5      580      588      587      583
    1494      6      580      588      587      599
    1495      1      581      580      588      587
    1496      3      581      580      588      600
    1497      2      581      582      583      584
    1498      1      581      582      583      587
    1499      1      582      581      580      588
    1500      4      582      583      584      585
    1501      1      582      583      587      588
    1502      3      582      583      587      599
    1503      6      583      582      581      593
    1504      7      583      584      585      586
    1505      8      583      584      585      595
    1506      8      583      584      585      596
    1507      6      583      587      588      600
    1508     14      584      583      582      594
    1509      2      584      583      587      588
    1510     14      584      583      587      599
    1511     16      584      585      586      597
    1512     16      584      585      586      598
    1513     12      584      585      586      601
    1514      4      585      584      583      587
    1515      9      585      586      601      602
    1516     10      585      586      601      613
    1517     10      585      586      601      614
    1518     12      586      601      602      603
    1519     11      586      601      602      615
    1520     11      586      601      602      616
    1521      3      587      583      582      594
    1522      3      588      580      581      593
    1523     15      589      577      578      591
    1524     15      589      577      578      592
    1525     15      590      577      578      591
    1526     15      590      577      578      592
    1527     13      593      581      582      594
    1528     15      595      585      586      597
    1529     15      595      585      586      598
    1530     11      595      585      586      601
    1531     15      596      585      586      597
    1532     15      596      585      586      598
    1533     11      596      585      586      601
    1534     10      597      586      601      602
    1535     17      597      586      601      613
    1536     17      597      586      601      614
    1537     10      598      586      601      602
    1538     17      598      586      601      613
    1539     17      598      586      601      614
    1540     13      599      587      588      600
    1541      7      601      602      603      604
    1542      4      602      603      604      605
    1543      4      602      603      604      612
    1544     16      603      602      601      613
    1545     16      603      602      601      614
    1546      2      603      604      605      606
    1547     14      603      604      605      617
    1548      2      603      604      612      611
    1549     14      603      604      612      624
    1550      8      604      603      602      615
    1551      8      604      603      602      616
    1552      5      604      605      606      607
    1553      6      604      605      606      618
    1554      5      604      612      611      607
    1555      6      604      612      611      623
    1556      1      605      604      612      611
    1557      3      605      604      612      624
    1558      2      605      606      607      608
    1559      1      605      606      607      611
    1560      1      606      605      604      612
    1561      4      606      607      608      609
    1562      1      606      607      611      612
    1563      3      606      607      611      623
    1564      6      607      606      605      617
    1565      7      607      608      609      610
    1566      8      607      608      609      619
    1567      8      607      608      609      620
    1568      6      607      611      612      624
    1569     14      608      607      606      618
    1570      2      608      607      611      612
    1571     14      608      607      611      623
    1572     16      608      609      610      621
    1573     16      608      609      610      622
    1574     12      608      609      610      625
    1575      4      609      608      607      611
    1576      9      609      610      625      626
    1577     10      609      610      625      637
    1578     10      609      610      625      638
    1579     12      610      625      626      627
    1580     11      610      625      626      639
    1581     11      610      625      626      640
    1582      3      611      607      606      618
    1583      3      612      604      605      617
    1584     15      613      601      602      615
    1585     15      613      601      602      616
    1586     15      614      601      602      615
    1587     15      614      601      602      616
    1588     13      617      605      606      618
    1589     15      619      609      610      621
    1590     15      619      609      610      622
    1591     11      619      609      610      625
    1592     15      620      609      610      621
    1593     15      620      609      610      622
    1594     11      620      609      610      625
    1595     10      621      610      625      626
    1596     17      621      610      625      637
    1597     17      621      610      625      638
    1598     10      622      610      625      626
    1599     17      622      610      625      637
    1600     17      622      610      625      638
    1601     13      623      611      612      624
    1602      7      625      626      627      628
    1603      4      626      627      628      629
    1604      4      626      627      628      636
    1605     16      627      626      625      637
    1606     16      627      626      625      638
    1607      2      627      628      629      630
    1608     14      627      628      629      641
    1609      2      627      628      636      635
    1610     14      627      628      636      648
    1611      8      628      627      626      639
    1612      8      628      627      626      640
    1613      5      628      629      630      631
    1614      6      628      629      630      642
    1615      5      628      636      635      631
    1616      6      628      636      635      647
    1617      1      629      628      636      635
    1618      3      629      628      636      648
    1619      2      629      630      631      632
    1620      1      629      630      631      635
    1621      1      630      629      628      636
    1622      4      630      631      632      633
    1623      1      630      631      635      636
    1624      3      630      631      635      647
    1625      6      631      630      629      641
    1626      7      631      632      633      634
    1627      8      631      632      633      643
    1628      8      631      632      633      644
    1629      6      631      635      636      648
    1630     14      632      631      630      642
    1631      2      632      631      635      636
    1632     14      632      631      635      647
    1633     16      632      633      634      645
    1634     16      632      633      634      646
    1635     12      632      633      634      649
    1636      4      633      632      631      635
    1637      9      633      634      649      650
    1638     10      633      634      649      661
    1639     10      633      634      649      662
    1640     12      634      649      650      651
    1641     11      634      649      650      663
    1642     11      634      649      650      664
    1643      3      635      631      630      642
    1644      3      636      628      629      641
    1645     15      637      625      626      639
    1646     15      637      625      626      640
    1647     15      638      625      626      639
    1648     15      638      625      626      640
    1649     13      641      629      630      642
    1650     15      643      633      634      645
    1651     15      643      633      634      646
    1652     11      643      633      634      649
    1653     15      644      633      634      645
    1654     15      644      633      634      646
    1655     11      644      633      634      649
    1656     10      645      634      649      650
    1657     17      645      634      649      661
    1658     17      645      634      649      662
    1659     10      646      634      649      650
    1660     17      646      634      649      661
    1661     17      646      634      649      662
    1662     13      647      635      636      648
    1663      7      649      650      651      652
    1664      4      650      651      652      653
    1665      4      650      651      652      660
    1666     16      651      650      649      661
    1667     16      651      650      649      662
    1668      2      651      652      653      654
    1669     14      651      652      653      665
    1670      2      651      652      660      659
    1671     14      651      652      660      672
    1672      8      652      651      650      663
    1673      8      652      651      650      664
    1674      5      652      653      654      655
    1675      6      652      653      654      666
    1676      5      652      660      659      655
    1677      6      652      660      659      671
    1678      1      653      652      660      659
    1679      3      653      652      660      672
    1680      2      653      654      655      656
    1681      1      653      654      655      659
    1682      1      654      653      652      660
    1683      4      654      655      656      657
    1684      1      654      655      659      660
    1685      3      654      655      659      671
    1686      6      655      654      653      665
    1687      7      655      656      657      658
    1688      8      655      656      657      667
    1689      8      655      656      657      668
    1690      6      655      659      660      672
    1691     14      656      655      654      666
    1692      2      656      655      659      660
    1693     14      656      655      659      671
    1694     16      656      657      658      669
    1695     16      656      657      658      670
    1696     12      656      657      658      673
    1697      4      657      656      655      659
    1698      9      657      658      673      674
    1699     10      657      658      673      685
    1700     10      657      658      673      686
    1701     12      658      673      674      675
    1702     11      658      673      674      687
    1703     11      658      673      674      688
    1704      3      659      655      654      666
    1705      3      660      652      653      665
    1706     15      661      649      650      663
    1707     15      661      649      650      664
    1708     15      662      649      650      663
    1709     15      662      649      650      664
    1710     13      665      653      654      666
    1711     15      667      657      658      669
    1712     15      667      657      658      670
    1713     11      667      657      658      673
    1714     15      668      657      658      669
    1715     15      668      657      658      670
    1716     11      668      657      658      673
    1717     10      669      658      673      674
    1718     17      669      658      673      685
    1719     17      669      658      673      686
    1720     10      670      658      673      674
    1721     17      670      658      673      685
    1722     17      670      658      673      686
    1723     13      671      659      660      672
    1724      7      673      674      675      676
    1725      4      674      675      676      677
    1726      4      674      675      676      684
    1727     16      675      674      673      685
    1728     16      675      674      673      686
    1729      2      675      676      677      678
    1730     14      675      676      677      689
    1731      2      675      676      684      683
    1732     14      675      676      684      696
    1733      8      676      675      674      687
    1734      8      676      675      674      688
    1735      5      676      677      678      679
    1736      6      676      677      678      690
    1737      5      676      684      683      679
    1738      6      676      684      683      695
    1739      1      677      676      684      683
    1740      3      677      676      684      696
    1741      2      677      678      679      680
    1742      1      677      678      679      683
    1743      1      678      677      676      684
    1744      4      678      679      680      681
    1745      1      678      679      683      684
    1746      3      678      679      683      695
    1747      6      679      678      677      689
    1748      7      679      680      681      682
    1749      8      679      680      681      691
    1750      8      679      680      681      692
    1751      6      679      683      684      696
    1752     14      680      679      678      690
    1753      2      680      679      683      684
    1754     14      680      679      683      695
    1755     16      680      681      682      693
    1756     16      680      681      682      694
    1757     12      680      681      682      697
    1758      4      681      680      679      683
    1759      9      681      682      697      698
    1760     10      681      682      697      709
    1761     10      681      682      697      710
    1762     12      682      697      698      699
    1763     11      682      697      698      711
    1764     11      682      697      698      712
    1765      3      683      679      678      690
    1766      3      684      676      677      689
    1767     15      685      673      674      687
    1768     15      685      673      674      688
    1769     15      686      673      674      687
    1770     15      686      673      674      688
    1771     13      689      677      678      690
    1772     15      691      681      682      693
    1773     15      691      681      682      694
    1774     11      691      681      682      697
    1775     15      692      681      682      693
    1776     15      692      681      682      694
    1777     11      692      681      682      697
    1778     10      693      682      697      698
    1779     17      693      682      697      709
    1780     17      693      682      697      710
    1781     10      694      682      697      698
    1782     17      694      682      697      709
    1783     17      694      682      697      710
    1784     13      695      683      684      696
    1785      7      697      698      699      700
    1786      4      698      699      700      701
    1787      4      698      699      700      708
    1788     16      699      698      697      709
    1789     16      699      698      697      710
    1790      2      699      700      701      702
    1791     14      699      700      701      713
    1792      2      699      700      708      707
    1793     14      699      700      708      720
    1794      8      700      699      698      711
    1795      8      700      699      698      712
    1796      5      700      701      702      703
    1797      6      700      701      702      714
    1798      5      700      708      707      703
    1799      6      700      708      707      719
    1800      1      701      700      708      707
    1801      3      701      700      708      720
    1802      2      701      702      703      704
    1803      1      701      702      703      707
    1804      1      702      701      700      708
    1805      4      702      703      704      705
    1806      1      702      703      707      708
    1807      3      702      703      707      719
    1808      6      703      702      701      713
    1809      7      703      704      705      706
    1810      8      703      704      705      715
    1811      8      703      704      705      716
    1812      6      703      707      708      720
    1813     14      704      703      702      714
    1814      2      704      703      707      708
    1815     14      704      703      707      719
    1816     16      704      705      706      717
    1817     16      704      705      706      718
    1818     12      704      705      706      721
    1819      4      705      704      703      707
    1820      9      705      706      721      722
    1821     10      705      706      721      733
    1822     10      705      706      721      734
    1823     12      706      721      722      723
    1824     11      706      721      722      735
    1825     11      706      721      722      736
    1826      3      707      703      702      714
    1827      3      708      700      701      713
    1828     15      709      697      698      711
    1829     15      709      697      698      712
    1830     15      710      697      698      711
    1831     15      710      697      698      712
    1832     13      713      701      702      714
    1833     15      715      705      706      717
    1834     15      715      705      706      718
    1835     11      715      705      706      721
    1836     15      716      705      706      717
    1837     15      716      705      706      718
    1838     11      716      705      706      721
    1839     10      717      706      721      722
    1840     17      717      706      721      733
    1841     17      717      706      721      734
    1842     10      718      706      721      722
    1843     17      718      706      721      733
    1844     17      718      706      721      734
    1845     13      719      707      708      720
    1846      7      721      722      723      724
    1847      4      722      723      724      725
    1848      4      722      723      724      732
    1849     16      723      722      721      733
    1850     16      723      722      721      734
    1851      2      723      724      725      726
    1852     14      723      724      725      737
    1853      2      723      724      732      731
    1854     14      723      724      732      744
    1855      8      724      723      722      735
    1856      8      724      723      722      736
    1857      5      724      725      726      727
    1858      6      724      725      726      738
    1859      5      724      732      731      727
    1860      6      724      732      731      743
    1861      1      725      724      732      731
    1862      3      725      724      732      744
    1863      2      725      726      727      728
    1864      1      725      726      727      731
    1865      1      726      725      724      732
    1866      4      726      727      728      729
    1867      1      726      727      731      732
    1868      3      726      727      731      743
    1869      6      727      726      725      737
    1870      7      727      728      729      730
    1871      8      727      728      729      739
    1872      8      727      728      729      740
    1873      6      727      731      732      744
    1874     14      728      727      726      738
    1875      2      728      727      731      732
    1876     14      728      727      731      743
    1877     16      728      729      730      741
    1878     16      728      729      730      742
    1879     12      728      729      730      745
    1880      4      729      728      727      731
    1881      9      729      730      745      746
    1882     10      729      730      745      757
    1883     10      729      730      745      758
    1884     12      730      745      746      747
    1885     11      730      745      746      759
    1886     11      730      745      746      760
    1887      3      731      727      726      738
    1888      3      732      724      725      737
    1889     15      733      721      722      735
    1890     15      733      721      722      736
    1891     15      734      721      722      735
    1892     15      734      721      722      736
    1893     13      737      725      726      738
    1894     15      739      729      730      741
    1895     15      739      729      730      742
    1896     11      739      729      730      745
    1897     15      740      729      730      741
    1898     15      740      729      730      742
    1899     11      740      729      730      745
    1900     10      741      730      745      746
    1901     17      741      730      745      757
    1902     17      741      730      745      758
    1903     10      742      730      745      746
    1904     17      742      730      745      757
    1905     17      742      730      745      758
    1906     13      743      731      732      744
    1907      7      745      746      747      748
    1908      4      746      747      748      749
    1909      4      746      747      748      756
    1910     16      747      746      745      757
    1911     16      747      746      745      758
    1912      2      747      748      749      750
    1913     14      747      748      749      761
    1914      2      747      748      756      755
    1915     14      747      748      756      768
    1916      8      748      747      746      759
    1917      8      748      747      746      760
    1918      5      748      749      750      751
    1919      6      748      749      750      762
    1920      5      748      756      755      751
    1921      6      748      756      755      767
    1922      1      749      748      756      755
    1923      3      749      748      756      768
    1924      2      749      750      751      752
    1925      1      749      750      751      755
    1926      1      750      749      748      756
    1927      4      750      751      752      753
    1928      1      750      751      755      756
    1929      3      750      751      755      767
    1930      6      751      750      749      761
    1931      7      751      752      753      754
    1932      8      751      752      753      763
    1933      8      751      752      753      764
    1934      6      751      755      756      768
    1935     14      752      751      750      762
    1936      2      752      751      755      756
    1937     14      752      751      755      767
    1938     16      752      753      754      765
    1939     16      752      753      754      766
    1940     12      752      753      754      769
    1941      4      753      752      751      755
    1942      9      753      754      769      770
    1943     10      753      754      769      781
    1944     10      753      754      769      782
    1945     12      754      769      770      771
    1946     11      754      769      770      783
    1947     11      754      769      770      784
    1948      3      755      751      750      762
    1949      3      756      748      749      761
    1950     15      757      745      746      759
    1951     15      757      745      746      760
    1952     15      758      745      746      759
    1953     15      758      745      746      760
    1954     13      761      749      750      762
    1955     15      763      753      754      765
    1956     15      763      753      754      766
    1957     11      763      753      754      769
    1958     15      764      753      754      765
    1959     15      764      753      754      766
    1960     11      764      753      754      769
    1961     10      765      754      769      770
    1962     17      765      754      769      781
    1963     17      765      754      769      782
    1964     10      766      754      769      770
    1965     17      766      754      769      781
    1966     17      766      754      769      782
    1967     13      767      755      756      768
    1968      7      769      770      771      772
    1969      4      770      771      772      773
    1970      4      770      771      772      780
    1971     16      771      770      769      781
    1972     16      771      770      769      782
    1973      2      771      772      773      774
    1974     14      771      772      773      785
    1975      2      771      772      780      779
    1976     14      771      772      780      792
    1977      8      772      771      770      783
    1978      8      772      771      770      784
    1979      5      772      773      774      775
    1980      6      772      773      774      786
    1981      5      772      780      779      775
    1982      6      772      780      779      791
    1983      1      773      772      780      779
    1984      3      773      772      780      792
    1985      2      773      774      775      776
    1986      1      773      774      775      779
    1987      1      774      773      772      780
    1988      4      774      775      776      777
    1989      1      774      775      779      780
    1990      3      774      775      779      791
    1991      6      775      774      773      785
    1992      7      775      776      777      778
    1993      8      775      776      777      787
    1994      8      775      776      777      788
    1995      6      775      779      780      792
    1996     14      776      775      774      786
    1997      2      776      775      779      780
    1998     14      776      775      779      791
    1999     16      776      777      778      789
    2000     16      776      777      778      790
    2001     12      776      777      778      793
    2002      4      777      776      775      779
    2003      9      777      778      793      794
    2004     10      777      778      793      805
    2005     10      777      778      793      806
    2006     12      778      793      794      795
    2007     11      778      793      794      807
    2008     11      778      793      794      808
    2009      3      779      775      774      786
    2010      3      780      772      773      785
    2011     15      781      769      770      783
    2012     15      781      769      770      784
    2013     15      782      769      770      783
    2014     15      782      769      770      784
    2015     13      785      773      774      786
    2016     15      787      777      778      789
    2017     15      787      777      778      790
    2018     11      787      777      778      793
    2019     15      788      777      778      789
    2020     15      788      777      778      790
    2021     11      788      777      778      793
    2022     10      789      778      793      794
    2023     17      789      778      793      805
    2024     17      789      778      793      806
    2025     10      790      778      793      794
    2026     17      790      778      793      805
    2027     17      790      778      793      806
    2028     13      791      779      780      792
    2029      7      793      794      795      796
    2030      4      794      795      796      797
    2031      4      794      795      796      804
    2032     16      795      794      793      805
    2033     16      795      794      793      806
    2034      2      795      796      797      798
    2035     14      795      796      797      809
    2036      2      795      796      804      803
    2037     14      795      796      804      816
    2038      8      796      795      794      807
    2039      8      796      795      794      808
    2040      5      796      797      798      799
    2041      6      796      797      798      810
    2042      5      796      804      803      799
    2043      6      796      804      803      815
    2044      1      797      796      804      803
    2045      3      797      796      804      816
    2046      2      797      798      799      800
    2047      1      797      798      799      803
    2048      1      798      797      796      804
    2049      4      798      799      800      801
    2050      1      798      799      803      804
    2051      3      798      799      803      815
    2052      6      799      798      797      809
    2053      7      799      800      801      802
    2054      8      799      800      801      811
    2055      8      799      800      801      812
    2056      6      799      803      804      816
    2057     14      800      799      798      810
    2058      2      800      799      803      804
    2059     14      800      799      803      815
    2060     16      800      801      802      813
    2061     16      800      801      802      814
    2062     12      800      801      802      817
    2063      4      801      800      799      803
    2064      9      801      802      817      818
    2065     10      801      802      817      829
    2066     10      801      802      817      830
    2067     12      802      817      818      819
    2068     11      802      817      818      831
    2069     11      802      817      818      832
    2070      3      803      799      798      810
    2071      3      804      796      797      809
    2072     15      805      793      794      807
    2073     15      805      793      794      808
    2074     15      806      793      794      807
    2075     15      806      793      794      808
    2076     13      809      797      798      810
    2077     15      811      801      802      813
    2078     15      811      801      802      814
    2079     11      811      801      802      817
    2080     15      812      801      802      813
    2081     15      812      801      802      814
    2082     11      812      801      802      817
    2083     10      813      802      817      818
    2084     17      813      802      817      829
    2085     17      813      802      817      830
    2086     10      814      802      817      818
    2087     17      814      802      817      829
    2088     17      814      802      817      830
    2089     13      815      803      804      816
    2090      7      817      818      819      820
    2091      4      818      819      820      821
    2092      4      818      819      820      828
    2093     16      819      818      817      829
    2094     16      819      818      817      830
    2095      2      819      820      821      822
    2096     14      819      820      821      833
    2097      2      819      820      828      827
    2098     14      819      820      828      840
    2099      8      820      819      818      831
    2100      8      820      819      818      832
    2101      5      820      821      822      823
    2102      6      820      821      822      834
    2103      5      820      828      827      823
    2104      6      820      828      827      839
    2105      1      821      820      828      827
    2106      3      821      820      828      840
    2107      2      821      822      823      824
    2108      1      821      822      823      827
    2109      1      822      821      820      828
    2110      4      822      823      824      825
    2111      1      822      823      827      828
    2112      3      822      823      827      839
    2113      6      823      822      821      833
    2114      7      823      824      825      826
    2115      8      823      824      825      835
    2116      8      823      824      825      836
    2117      6      823      827      828      840
    2118     14      824      823      822      834
    2119      2      824      823      827      828
    2120     14      824      823      827      839
    2121     16      824      825      826      837
    2122     16      824      825      826      838
    2123     12      824      825      826      841
    2124      4      825      824      823      827
    2125      9      825      826      841      842
    2126     10      825      826      841      853
    2127     10      825      826      841      854
    2128     12      826      841      842      843
    2129     11      826      841      842      855
    2130     11      826      841      842      856
    2131      3      827      823      822      834
    2132      3      828      820      821      833
    2133     15      829      817      818      831
    2134     15      829      817      818      832
    2135     15      830      817      818      831
    2136     15      830      817      818      832
    2137     13      833      821      822      834
    2138     15      835      825      826      837
    2139     15      835      825      826      838
    2140     11      835      825      826      841
    2141     15      836      825      826      837
    2142     15      836      825      826      838
    2143     11      836      825      826      841
    2144     10      837      826      841      842
    2145     17      837      826      841      853
    2146     17      837      826      841      854
    2147     10      838      826      841      842
    2148     17      838      826      841      853
    2149     17      838      826      841      854
    2150     13      839      827      828      840
    2151      7      841      842      843      844
    2152      4      842      843      844      845
    2153      4      842      843      844      852
    2154     16      843      842      841      853
    2155     16      843      842      841      854
    2156      2      843      844      845      846
    2157     14      843      844      845      857
    2158      2      843      844      852      851
    2159     14      843      844      852      864
    2160      8      844      843      842      855
    2161      8      844      843      842      856
    2162      5      844      845      846      847
    2163      6      844      845      846      858
    2164      5      844      852      851      847
    2165      6      844      852      851      863
    2166      1      845      844      852      851
    2167      3      845      844      852      864
    2168      2      845      846      847      848
    2169      1      845      846      847      851
    2170      1      846      845      844      852
    2171      4      846      847      848      849
    2172      1      846      847      851      852
    2173      3      846      847      851      863
    2174      6      847      846      845      857
    2175      7      847      848      849      850
    2176      8      847      848      849      859
    2177      8      847      848      849      860
    2178      6      847      851      852      864
    2179     14      848      847      846      858
    2180      2      848      847      851      852
    2181     14      848      847      851      863
    2182     16      848      849      850      861
    2183     16      848      849      850      862
    2184     12      848      849      850      865
    2185      4      849      848      847      851
    2186      9      849      850      865      866
    2187     10      849      850      865      877
    2188     10      849      850      865      878
    2189     12      850      865      866      867
    2190     11      850      865      866      879
    2191     11      850      865      866      880
    2192      3      851      847      846      858
    2193      3      852      844      845      857
    2194     15      853      841      842      855
    2195     15      853      841      842      856
    2196     15      854      841      842      855
    2197     15      854      841      842      856
    2198     13      857      845      846      858
    2199     15      859      849      850      861
    2200     15      859      849      850      862
    2201     11      859      849      850      865
    2202     15      860      849      850      861
    2203     15      860      849      850      862
    2204     11      860      849      850      865
    2205     10      861      850      865      866
    2206     17      861      850      865      877
    2207     17      861      850      865      878
    2208     10      862      850      865      866
    2209     17      862      850      865      877
    2210     17      862      850      865      878
    2211     13      863      851      852      864
    2212      7      865      866      867      868
    2213      4      866      867      868      869
    2214      4      866      867      868      876
    2215     16      867      866      865      877
    2216     16      867      866      865      878
    2217      2      867      868      869      870
    2218     14      867      868      869      881
    2219      2      867      868      876      875
    2220     14      867      868      876      888
    2221      8      868      867      866      879
    2222      8      868      867      866      880
    2223      5      868      869      870      871
    2224      6      868      869      870      882
    2225      5      868      876      875      871
    2226      6      868      876      875      887
    2227      1      869      868      876      875
    2228      3      869      868      876      888
    2229      2      869      870      871      872
    2230      1      869      870      871      875
    2231      1      870      869      868      876
    2232      4      870      871      872      873
    2233      1      870      871      875      876
    2234      3      870      871      875      887
    2235      6      871      870      869      881
    2236      7      871      872      873      874
    2237      8      871      872      873      883
    2238      8      871      872      873      884
    2239      6      871      875      876      888
    2240     14      872      871      870      882
    2241      2      872      871      875      876
    2242     14      872      871      875      887
    2243     16      872      873      874      885
    2244     16      872      873      874      886
    2245     12      872      873      874      889
    2246      4      873      872      871      875
    2247      9      873      874      889      890
    2248     10      873      874      889      901
    2249     10      873      874      889      902
    2250     12      874      889      890      891
    2251     11      874      889      890      903
    2252     11      874      889      890      904
    2253      3      875      871      870      882
    2254      3      876      868      869      881
    2255     15      877      865      866      879
    2256     15      877      865      866      880
    2257     15      878      865      866      879
    2258     15      878      865      866      880
    2259     13      881      869      870      882
    2260     15      883      873      874      885
    2261     15      883      873      874      886
    2262     11      883      873      874      889
    2263     15      884      873      874      885
    2264     15      884      873      874      886
    2265     11      884      873      874      889
    2266     10      885      874      889      890
    2267     17      885      874      889      901
    2268     17      885      874      889      902
    2269     10      886      874      889      890
    2270     17      886      874      889      901
    2271     17      886      874      889      902
    2272     13      887      875      876      888
    2273      7      889      890      891      892
    2274      4      890      891      892      893
    2275      4      890      891      892      900
    2276     16      891      890      889      901
    2277     16      891      890      889      902
    2278      2      891      892      893      894
    2279     14      891      892      893      905
    2280      2      891      892      900      899
    2281     14      891      892      900      912
    2282      8      892      891      890      903
    2283      8      892      891      890      904
    2284      5      892      893      894      895
    2285      6      892      893      894      906
    2286      5      892      900      899      895
    2287      6      892      900      899      911
    2288      1      893      892      900      899
    2289      3      893      892      900      912
    2290      2      893      894      895      896
    2291      1      893      894      895      899
    2292      1      894      893      892      900
    2293      4      894      895      896      897
    2294      1      894      895      899      900
    2295      3      894      895      899      911
    2296      6      895      894      893      905
    2297      7      895      896      897      898
    2298      8      895      896      897      907
    2299      8      895      896      897      908
    2300      6      895      899      900      912
    2301     14      896      895      894      906
    2302      2      896      895      899      900
    2303     14      896      895      899      911
    2304     16      896      897      898      909
    2305     16      896      897      898      910
    2306     12      896      897      898      913
    2307      4      897      896      895      899
    2308      9      897      898      913      914
    2309     10      897      898      913      925
    2310     10      897      898      913      926
    2311     12      898      913      914      915
    2312     11      898      913      914      927
    2313     11      898      913      914      928
    2314      3      899      895      894      906
    2315      3      900      892      893      905
    2316     15      901      889      890      903
    2317     15      901      889      890      904
    2318     15      902      889      890      903
    2319     15      902      889      890      904
    2320     13      905      893      894      906
    2321     15      907      897      898      909
    2322     15      907      897      898      910
    2323     11      907      897      898      913
    2324     15      908      897      898      909
    2325     15      908      897      898      910
    2326     11      908      897      898      913
    2327     10      909      898      913      914
    2328     17      909      898      913      925
    2329     17      909      898      913      926
    2330     10      910      898      913      914
    2331     17      910      898      913      925
    2332     17      910      898      913      926
    2333     13      911      899      900      912
    2334      7      913      914      915      916
    2335      4      914      915      916      917
    2336      4      914      915      916      924
    2337     16      915      914      913      925
    2338     16      915      914      913      926
    2339      2      915      916      917      918
    2340     14      915      916      917      929
    2341      2      915      916      924      923
    2342     14      915      916      924      936
    2343      8      916      915      914      927
    2344      8      916      915      914      928
    2345      5      916      917      918      919
    2346      6      916      917      918      930
    2347      5      916      924      923      919
    2348      6      916      924      923      935
    2349      1      917      916      924      923
    2350      3      917      916      924      936
    2351      2      917      918      919      920
    2352      1      917      918      919      923
    2353      1      918      917      916      924
    2354      4      918      919      920      921
    2355      1      918      919      923      924
    2356      3      918      919      923      935
    2357      6      919      918      917      929
    2358      7      919      920      921      922
    2359      8      919      920      921      931
    2360      8      919      920      921      932
    2361      6      919      923      924      936
    2362     14      920      919      918      930
    2363      2      920      919      923      924
    2364     14      920      919      923      935
    2365     16      920      921      922      933
    2366     16      920      921      922      934
    2367     12      920      921      922      937
    2368      4      921      920      919      923
    2369      9      921      922      937      938
    2370     10      921      922      937      949
    2371     10      921      922      937      950
    2372     12      922      937      938      939
    2373     11      922      937      938      951
    2374     11      922      937      938      952
    2375      3      923      919      918      930
    2376      3      924      916      917      929
    2377     15      925      913      914      927
    2378     15      925      913      914      928
    2379     15      926      913      914      927
    2380     15      926      913      914      928
    2381     13      929      917      918      930
    2382     15      931      921      922      933
    2383     15      931      921      922      934
    2384     11      931      921      922      937
    2385     15      932      921      922      933
    2386     15      932      921      922      934
    2387     11      932      921      922      937
    2388     10      933      922      937      938
    2389     17      933      922      937      949
    2390     17      933      922      937      950
    2391     10      934      922      937      938
    2392     17      934      922      937      949
    2393     17      934      922      937      950
    2394     13      935      923      924      936
    2395      7      937      938      939      940
    2396      4      938      939      940      941
    2397      4      938      939      940      948
    2398     16      939      938      937      949
    2399     16      939      938      937      950
    2400      2      939      940      941      942
    2401     14      939      940      941      953
    2402      2      939      940      948      947
    2403     14      939      940      948      960
    2404      8      940      939      938      951
    2405      8      940      939      938      952
    2406      5      940      941      942      943
    2407      6      940      941      942      954
    2408      5      940      948      947      943
    2409      6      940      948      947      959
    2410      1      941      940      948      947
    2411      3      941      940      948      960
    2412      2      941      942      943      944
    2413      1      941      942      943      947
    2414      1      942      941      940      948
    2415      4      942      943      944      945
    2416      1      942      943      947      948
    2417      3      942      943      947      959
    2418      6      943      942      941      953
    2419      7      943      944      945      946
    2420      8      943      944      945      955
    2421      8      943      944      945      956
    2422      6      943      947      948      960
    2423     14      944      943      942      954
    2424      2      944      943      947      948
    2425     14      944      943      947      959
    2426     16      944      945      946      957
    2427     16      944      945      946      958
    2428     12      944      945      946      961
    2429      4      945      944      943      947
    2430      9      945      946      961      962
    2431     10      945      946      961      973
    2432     10      945      946      961      974
    2433     12      946      961      962      963
    2434     11      946      961      962      975
    2435     11      946      961      962      976
    2436      3      947      943      942      954
    2437      3      948      940      941      953
    2438     15      949      937      938      951
    2439     15      949      937      938      952
    2440     15      950      937      938      951
    2441     15      950      937      938      952
    2442     13      953      941      942      954
    2443     15      955      945      946      957
    2444     15      955      945      946      958
    2445     11      955      945      946      961
    2446     15      956      945      946      957
    2447     15      956      945      946      958
    2448     11      956      945      946      961
    2449     10      957      946      961      962
    2450     17      957      946      961      973
    2451     17      957      946      961      974
    2452     10      958      946      961      962
    2453     17      958      946      961      973
    2454     17      958      946      961      974
    2455     13      959      947      948      960
    2456      7      961      962      963      964
    2457      4      962      963      964      965
    2458      4      962      963      964      972
    2459     16      963      962      961      973
    2460     16      963      962      961      974
    2461      2      963      964      965      966
    2462     14      963      964      965      977
    2463      2      963      964      972      971
    2464     14      963      964      972      984
    2465      8      964      963      962      975
    2466      8      964      963      962      976
    2467      5      964      965      966      967
    2468      6      964      965      966      978
    2469      5      964      972      971      967
    2470      6      964      972      971      983
    2471      1      965      964      972      971
    2472      3      965      964      972      984
    2473      2      965      966      967      968
    2474      1      965      966      967      971
    2475      1      966      965      964      972
    2476      4      966      967      968      969
    2477      1      966      967      971      972
    2478      3      966      967      971      983
    2479      6      967      966      965      977
    2480      7      967      968      969      970
    2481      8      967      968      969      979
    2482      8      967      968      969      980
    2483      6      967      971      972      984
    2484     14      968      967      966      978
    2485      2      968      967      971      972
    2486     14      968      967      971      983
    2487     16      968      969      970      981
    2488     16      968      969      970      982
    2489     12      968      969      970      985
    2490      4      969      968      967      971
    2491      9      969      970      985      986
    2492     10      969      970      985      997
    2493     10      969      970      985      998
    2494     12      970      985      986      987
    2495     11      970      985      986      999
    2496     11      970      985      986     1000
    2497      3      971      967      966      978
    2498      3      972      964      965      977
    2499     15      973      961      962      975
    2500     15      973      961      962      976
    2501     15      974      961      962      975
    2502     15      974      961      962      976
    2503     13      977      965      966      978
    2504     15      979      969      970      981
    2505     15      979      969      970      982
    2506     11      979      969      970      985
    2507     15      980      969      970      981
    2508     15      980      969      970      982
    2509     11      980      969      970      985
    2510     10      981      970      985      986
    2511     17      981      970      985      997
    2512     17      981      970      985      998
    2513     10      982      970      985      986
    2514     17      982      970      985      997
    2515     17      982      970      985      998
    2516     13      983      971      972      984
    2517      7      985      986      987      988
    2518      4      986      987      988      989
    2519      4      986      987      988      996
    2520     16      987      986      985      997
    2521     16      987      986      985      998
    2522      2      987      988      989      990
    2523     14      987      988      989     1001
    2524      2      987      988      996      995
    2525     14      987      988      996     1008
    2526      8      988      987      986      999
    2527      8      988      987      986     1000
    2528      5      988      989      990      991
    2529      6      988      989      990     1002
    2530      5      988      996      995      991
    2531      6      988      996      995     1007
    2532      1      989      988      996      995
    2533      3      989      988      996     1008
    2534      2      989      990      991      992
    2535      1      989      990      991      995
    2536      1      990      989      988      996
    2537      4      990      991      992      993
    2538      1      990      991      995      996
    2539      3      990      991      995     1007
    2540      6      991      990      989     1001
    2541      7      991      992      993      994
    2542      8      991      992      993     1003
    2543      8      991      992      993     1004
    2544      6      991      995      996     1008
    2545     14      992      991      990     1002
    2546      2      992      991      995      996
    2547     14      992      991      995     1007
    2548     16      992      993      994     1005
    2549     16      992      993      994     1006
    2550     12      992      993      994     1018
    2551      4      993      992      991      995
    2552      9      993      994     1018     1017
    2553     10      993      994     1018     1029
    2554     10      993      994     1018     1030
    2555     12      994     1018     1017     1016
    2556     11      994     1018     1017     1027
    2557     11      994     1018     1017     1028
    2558      3      995      991      990     1002
    2559      3      996      988      989     1001
    2560     15      997      985      986      999
    2561     15      997      985      986     1000
    2562     15      998      985      986      999
    2563     15      998      985      986     1000
    2564     13     1001      989      990     1002
    2565     15     1003      993      994     1005
    2566     15     1003      993      994     1006
    2567     11     1003      993      994     1018
    2568     15     1004      993      994     1005
    2569     15     1004      993      994     1006
    2570     11     1004      993      994     1018
    2571     10     1005      994     1018     1017
    2572     17     1005      994     1018     1029
    2573     17     1005      994     1018     1030
    2574     10     1006      994     1018     1017
    2575     17     1006      994     1018     1029
    2576     17     1006      994     1018     1030
    2577     13     1007      995      996     1008
    2578      7     1009     1010     1011     1012
    2579      4     1010     1011     1012     1013
    2580      4     1010     1011     1012     1020
    2581     16     1011     1010     1009     1021
    2582     16     1011     1010     1009     1022
    2583      2     1011     1012     1013     1014
    2584     14     1011     1012     1013     1025
    2585      2     1011     1012     1020     1019
    2586     14     1011     1012     1020     1032
    2587      8     1012     1011     1010     1023
    2588      8     1012     1011     1010     1024
    2589      5     1012     1013     1014     1015
    2590      6     1012     1013     1014     1026
    2591      5     1012     1020     1019     1015
    2592      6     1012     1020     1019     1031
    2593      1     1013     1012     1020     1019
    2594      3     1013     1012     1020     1032
    2595      2     1013     1014     1015     1016
    2596      1     1013     1014     1015     1019
    2597      1     1014     1013     1012     1020
    2598      4     1014     1015     1016     1017
    2599      1     1014     1015     1019     1020
    2600      3     1014     1015     1019     1031
    2601      6     1015     1014     1013     1025
    2602      7     1015     1016     1017     1018
    2603      8     1015     1016     1017     1027
    2604      8     1015     1016     1017     1028
    2605      6     1015     1019     1020     1032
    2606     14     1016     1015     1014     1026
    2607      2     1016     1015     1019     1020
    2608     14     1016     1015     1019     1031
    2609     16     1016     1017     1018     1029
    2610     16     1016     1017     1018     1030
    2611      4     1017     1016     1015     1019
    2612      3     1019     1015     1014     1026
    2613      3     1020     1012     1013     1025
    2614     15     1021     1009     1010     1023
    2615     15     1021     1009     1010     1024
    2616     15     1022     1009     1010     1023
    2617     15     1022     1009     1010     1024
    2618     13     1025     1013     1014     1026
    2619     15     1027     1017     1018     1029
    2620     15     1027     1017     1018     1030
    2621     15     1028     1017     1018     1029
    2622     15     1028     1017     1018     1030
    2623     13     1031     1019     1020     1032

Impropers

       1      2        3        4        5       12
       2      1        4        5        6       17
       3      1        5        6        7       18
       4      2        6        7        8       11
       5      1        7       11       12       23
       6      1        4       12       11       24
       7      2       27       28       29       36
       8      1       28       29       30       41
       9      1       29       30       31       42
      10      2       30       31       32       35
      11      1       31       35       36       47
      12      1       28       36       35       48
      13      2       51       52       53       60
      14      1       52       53       54       65
      15      1       53       54       55       66
      16      2       54       55       56       59
      17      1       55       59       60       71
      18      1       52       60       59       72
      19      2       75       76       77       84
      20      1       76       77       78       89
      21      1       77       78       79       90
      22      2       78       79       80       83
      23      1       79       83       84       95
      24      1       76       84       83       96
      25      2       99      100      101      108
      26      1      100      101      102      113
      27      1      101      102      103      114
      28      2      102      103      104      107
      29      1      103      107      108      119
      30      1      100      108      107      120
      31      2      123      124      125      132
      32      1      124      125      126      137
      33      1      125      126      127      138
      34      2      126      127      128      131
      35      1      127      131      132      143
      36      1      124      132      131      144
      37      2      147      148      149      156
      38      1      148      149      150      161
      39      1      149      150      151      162
      40      2      150      151      152      155
      41      1      151      155      156      167
      42      1      148      156      155      168
      43      2      171      172      173      180
      44      1      172      173      174      185
      45      1      173      174      175      186
      46      2      174      175      176      179
      47      1      175      179      180      191
      48      1      172      180      179      192
      49      2      195      196      197      204
      50      1      196      197      198      209
      51      1      197      198      199      210
      52      2      198      199      200      203
      53      1      199      203      204      215
      54      1      196      204      203      216
      55      2      219      220      221      228
      56      1      220      221      222      233
      57      1      221      222      223      234
      58      2      222      223      224      227
      59      1      223      227      228      239
      60      1      220      228      227      240
      61      2      243      244      245      252
      62      1      244      245      246      257
      63      1      245      246      247      258
      64      2      246      247      248      251
      65      1      247      251      252      263
      66      1      244      252      251      264
      67      2      267      268      269      276
      68      1      268      269      270      281
      69      1      269      270      271      282
      70      2      270      271      272      275
      71      1      271      275      276      287
      72      1      268      276      275      288
      73      2      291      292      293      300
      74      1      292      293      294      305
      75      1      293      294      295      306
      76      2      294      295      296      299
      77      1      295      299      300      311
      78      1      292      300      299      312
      79      2      315      316      317      324
      80      1      316      317      318      329
      81      1      317      318      319      330
      82      2      318      319      320      323
      83      1      319      323      324      335
      84      1      316      324      323      336
      85      2      339      340      341      348
      86      1      340      341      342      353
      87      1      341      342      343      354
      88      2      342      343      344      347
      89      1      343      347      348      359
      90      1      340      348      347      360
      91      2      363      364      365      372
      92      1      364      365      366      377
      93      1      365      366      367      378
      94      2      366      367      368      371
      95      1      367      371      372      383
      96      1      364      372      371      384
      97      2      387      388      389      396
      98      1      388      389      390      401
      99      1      389      390      391      402
     100      2      390      391      392      395
     101      1      391      395      396      407
     102      1      388      396      395      408
     103      2      411      412      413      420
     104      1      412      413      414      425
     105      1      413      414      415      426
     106      2      414      415      416      419
     107      1      415      419      420      431
     108      1      412      420      419      432
     109      2      435      436      437      444
     110      1      436      437      438      449
     111      1      437      438      439      450
     112      2      438      439      440      443
     113      1      439      443      444      455
     114      1      436      444      443      456
     115      2      459      460      461      468
     116      1      460      461      462      473
     117      1      461      462      463      474
     118      2      462      463      464      467
     119      1      463      467      468      479
     120      1      460      468      467      480
     121      2      483      484      485      492
     122      1      484      485      486      497
     123      1      485      486      487      498
     124      2      486      487      488      491
     125      1      487      491      492      503
     126      1      484      492      491      504
     127      2      507      508      509      516
     128      1      508      509      510      521
     129      1      509      510      511      522
     130      2      510      511      512      515
     131      1      511      515      516      527
     132      1      508      516      515      528
     133      2      531      532      533      540
     134      1      532      533      534      545
     135      1      533      534      535      546
     136      2      534      535      536      539
     137      1      535      539      540      551
     138      1      532      540      539      552
     139      2      555      556      557      564
     140      1      556      557      558      569
     141      1      557      558      559      570
     142      2      558      559      560      563
     143      1      559      563      564      575
     144      1      556      564      563      576
     145      2      579      580      581      588
     146      1      580      581      582      593
     147      1      581      582      583      594
     148      2      582      583      584      587
     149      1      583      587      588      599
     150      1      580      588      587      600
     151      2      603      604      605      612
     152      1      604      605      606      617
     153      1      605      606      607      618
     154      2      606      607      608      611
     155      1      607      611      612      623
     156      1      604      612      611      624
     157      2      627      628      629      636
     158      1      628      629      630      641
     159      1      629      630      631      642
     160      2      630      631      632      635
     161      1      631      635      636      647
     162      1      628      636      635      648
     163      2      651      652      653      660
     164      1      652      653      654      665
     165      1      653      654      655      666
     166      2      654      655      656      659
     167      1      655      659      660      671
     168      1      652      660      659      672
     169      2      675      676      677      684
     170      1      676      677      678      689
     171      1      677      678      679      690
     172      2      678      679      680      683
     173      1      679      683      684      695
     174      1      676      684      683      696
     175      2      699      700      701      708
     176      1      700      701      702      713
     177      1      701      702      703      714
     178      2      702      703      704      707
     179      1      703      707      708      719
     180      1      700      708      707      720
     181      2      723      724      725      732
     182      1      724      725      726      737
     183      1      725      726      727      738
     184      2      726      727      728      731
     185      1      727      731      732      743
     186      1      724      732      731      744
     187      2      747      748      749      756
     188      1      748      749      750      761
     189      1      749      750      751      762
     190      2      750      751      752      755
     191      1      751      755      756      767
     192      1      748      756      755      768
     193      2      771      772      773      780
     194      1      772      773      774      785
     195      1      773      774      775      786
     196      2      774      775      776      779
     197      1      775      779      780      791
     198      1      772      780      779      792
     199      2      795      796      797      804
     200      1      796      797      798      809
     201      1      797      798      799      810
     202      2      798      799      800      803
     203      1      799      803      804      815
     204      1      796      804      803      816
     205      2      819      820      821      828
     206      1      820      821      822      833
     207      1      821      822      823      834
     208      2      822      823      824      827
     209      1      823      827      828      839
     210      1      820      828      827      840
     211      2      843      844      845      852
     212      1      844      845      846      857
     213      1      845      846      847      858
     214      2      846      847      848      851
     215      1      847      851      852      863
     216      1      844      852      851      864
     217      2      867      868      869      876
     218      1      868      869      870      881
     219      1      869      870      871      882
     220      2      870      871      872      875
     221      1      871      875      876      887
     222      1      868      876      875      888
     223      2      891      892      893      900
     224      1      892      893      894      905
     225      1      893      894      895      906
     226      2      894      895      896      899
     227      1      895      899      900      911
     228      1      892      900      899      912
     229      2      915      916      917      924
     230      1      916      917      918      929
     231      1      917      918      919      930
     232      2      918      919      920      923
     233      1      919      923      924      935
     234      1      916      924      923      936
     235      2      939      940      941      948
     236      1      940      941      942      953
     237      1      941      942      943      954
     238      2      942      943      944      947
     239      1      943      947      948      959
     240      1      940      948      947      960
     241      2      963      964      965      972
     242      1      964      965      966      977
     243      1      965      966      967      978
     244      2      966      967      968      971
     245      1      967      971      972      983
     246      1      964      972      971      984
     247      2      987      988      989      996
     248      1      988      989      990     1001
     249      1      989      990      991     1002
     250      2      990      991      992      995
     251      1      991      995      996     1007
     252      1      988      996      995     1008
     253      2     1011     1012     1013     1020
     254      1     1012     1013     1014     1025
     255      1     1013     1014     1015     1026
     256      2     1014     1015     1016     1019
     257      1     1015     1019     1020     1031
     258      1     1012     1020     1019     1032

