LAMMPS data file generated by clean-room 1-hop pipeline

     234 atoms
     240 bonds
     450 angles
     662 dihedrals
      42 impropers

      10 atom types
      20 bond types
      50 angle types
      91 dihedral types
      10 improper types

  -35.799500    31.734300 xlo xhi
  -33.945800    30.276800 ylo yhi
  -34.143100    32.752400 zlo zhi

Masses

       1    12.011000
       2    12.011000
       3    12.011000
       4    12.011000
       5    12.011000
       6    12.011000
       7    12.011000
       8    12.011000
       9     1.008000
      10     1.008000

Pair Coeffs

       1     0.070000     3.550000
       2     0.070000     3.550000
       3     0.070000     3.550000
       4     0.066000     3.500000
       5     0.066000     3.500000
       6     0.066000     3.500000
       7     0.066000     3.500000
       8     0.066000     3.500000
       9     0.030000     2.420000
      10     0.030000     2.500000

Bond Coeffs

       1   469.000000     1.400000
       2   469.000000     1.400000
       3   469.000000     1.400000
       4   317.000000     1.510000
       5   469.000000     1.400000
       6   469.000000     1.400000
       7   367.000000     1.080000
       8   385.000000     1.460000
       9   268.000000     1.529000
      10   268.000000     1.529000
      11   268.000000     1.529000
      12   268.000000     1.529000
      13   340.000000     1.090000
      14   268.000000     1.529000
      15   340.000000     1.090000
      16   268.000000     1.529000
      17   268.000000     1.529000
      18   268.000000     1.529000
      19   340.000000     1.090000
      20   340.000000     1.090000

Angle Coeffs

       1    63.000000   120.000000
       2    70.000000   120.000000
       3    63.000000   120.000000
       4    63.000000   120.000000
       5    63.000000   120.000000
       6    35.000000   120.000000
       7    63.000000   120.000000
       8    63.000000   120.000000
       9    63.000000   114.000000
      10    63.000000   114.000000
      11    63.000000   114.000000
      12    63.000000   114.000000
      13    35.000000   109.500000
      14    63.000000   120.000000
      15    63.000000   120.000000
      16    70.000000   120.000000
      17    63.000000   120.000000
      18    63.000000   120.000000
      19    35.000000   120.000000
      20    63.000000   120.000000
      21    63.000000   120.000000
      22    70.000000   120.000000
      23    35.000000   120.000000
      24    37.500000   110.700000
      25    58.350000   112.700000
      26    37.500000   110.700000
      27    58.350000   112.700000
      28    58.350000   112.700000
      29    37.500000   110.700000
      30    58.350000   112.700000
      31    58.350000   112.700000
      32    37.500000   110.700000
      33    58.350000   112.700000
      34    37.500000   110.700000
      35    37.500000   110.700000
      36    37.500000   110.700000
      37    58.350000   112.700000
      38    58.350000   112.700000
      39    58.350000   112.700000
      40    37.500000   110.700000
      41    58.350000   112.700000
      42    37.500000   110.700000
      43    58.350000   112.700000
      44    37.500000   110.700000
      45    37.500000   110.700000
      46    37.500000   110.700000
      47    37.500000   110.700000
      48    33.000000   107.800000
      49    33.000000   107.800000
      50    33.000000   107.800000

Dihedral Coeffs

       1     0.000000     7.250000     0.000000     0.000000
       2     0.000000     7.250000     0.000000     0.000000
       3     0.000000     7.250000     0.000000     0.000000
       4    -0.250000     0.000000     0.000000     0.000000
       5    -0.250000     0.000000     0.000000     0.000000
       6     0.000000     0.000000     0.000000     0.000000
       7     0.000000     7.250000     0.000000     0.000000
       8     0.000000     7.250000     0.000000     0.000000
       9     0.000000     7.250000     0.000000     0.000000
      10     0.000000     7.250000     0.000000     0.000000
      11     0.000000     7.250000     0.000000     0.000000
      12     0.000000     7.250000     0.000000     0.000000
      13     0.000000     7.250000     0.000000     0.000000
      14     0.000000     7.250000     0.000000     0.000000
      15     0.000000     7.250000     0.000000     0.000000
      16     0.000000     7.250000     0.000000     0.000000
      17     0.000000     1.650000     0.000000    -0.050000
      18     0.000000     0.000000     0.462000     0.000000
      19     0.000000     0.000000     0.000000     0.000000
      20     0.000000     0.000000     0.462000     0.000000
      21     0.000000     0.000000     0.000000     0.000000
      22     0.000000     0.000000     0.000000     0.000000
      23     0.000000     0.000000     0.462000     0.000000
      24     0.000000     0.000000     0.000000     0.000000
      25     0.000000     0.000000     0.000000     0.000000
      26     0.000000     7.250000     0.000000     0.000000
      27     0.000000     7.250000     0.000000     0.000000
      28     0.000000     7.250000     0.000000     0.000000
      29     0.000000     7.250000     0.000000     0.000000
      30     0.000000     7.250000     0.000000     0.000000
      31     0.000000     7.250000     0.000000     0.000000
      32     0.000000     7.250000     0.000000     0.000000
      33    -0.250000     0.000000     0.000000     0.000000
      34    -0.250000     0.000000     0.000000     0.000000
      35    -0.250000     0.000000     0.000000     0.000000
      36    -0.250000     0.000000     0.000000     0.000000
      37     0.000000     0.000000     0.000000     0.000000
      38     0.000000     7.250000     0.000000     0.000000
      39     0.000000     7.250000     0.000000     0.000000
      40     0.000000     7.250000     0.000000     0.000000
      41     0.000000     7.250000     0.000000     0.000000
      42     0.000000     7.250000     0.000000     0.000000
      43     0.000000     7.250000     0.000000     0.000000
      44     0.000000     7.250000     0.000000     0.000000
      45     0.000000     7.250000     0.000000     0.000000
      46     0.000000     1.650000     0.000000    -0.050000
      47     0.000000     7.250000     0.000000     0.000000
      48    -0.250000     0.000000     0.000000     0.000000
      49     0.000000     0.000000     0.000000     0.000000
      50     0.000000     7.250000     0.000000     0.000000
      51     0.000000     7.250000     0.000000     0.000000
      52     0.000000     7.250000     0.000000     0.000000
      53     0.000000     7.250000     0.000000     0.000000
      54     0.000000     7.250000     0.000000     0.000000
      55     0.000000     7.250000     0.000000     0.000000
      56     0.850000    -0.200000     0.200000     0.000000
      57     0.850000    -0.200000     0.200000     0.000000
      58     0.850000    -0.200000     0.200000     0.000000
      59     0.000000     0.000000     0.300000     0.000000
      60     0.000000     0.000000     0.300000     0.000000
      61     0.850000    -0.200000     0.200000     0.000000
      62     0.000000     0.000000     0.300000     0.000000
      63     0.000000     0.000000     0.300000     0.000000
      64     0.850000    -0.200000     0.200000     0.000000
      65     0.000000     0.000000     0.300000     0.000000
      66     0.850000    -0.200000     0.200000     0.000000
      67     0.850000    -0.200000     0.200000     0.000000
      68     0.850000    -0.200000     0.200000     0.000000
      69     0.000000     0.000000     0.300000     0.000000
      70     0.000000     0.000000     0.300000     0.000000
      71     0.000000     0.000000     0.300000     0.000000
      72     0.850000    -0.200000     0.200000     0.000000
      73     0.850000    -0.200000     0.200000     0.000000
      74     0.000000     0.000000     0.300000     0.000000
      75     0.850000    -0.200000     0.200000     0.000000
      76     0.000000     0.000000     0.300000     0.000000
      77     0.850000    -0.200000     0.200000     0.000000
      78     0.000000     0.000000     0.300000     0.000000
      79     0.000000     0.000000     0.300000     0.000000
      80     0.000000     0.000000     0.300000     0.000000
      81     0.000000     0.000000     0.300000     0.000000
      82     0.850000    -0.200000     0.200000     0.000000
      83     0.000000     0.000000     0.300000     0.000000
      84     0.000000     0.000000     0.300000     0.000000
      85     0.000000     7.250000     0.000000     0.000000
      86     0.000000     0.000000     0.300000     0.000000
      87     0.000000     0.000000     0.300000     0.000000
      88     0.000000     0.000000     0.300000     0.000000
      89     0.000000     0.000000     0.300000     0.000000
      90     0.000000     0.000000     0.300000     0.000000
      91     0.000000     0.000000     0.300000     0.000000

Improper Coeffs

       1     2.500000   -1    2
       2     2.500000   -1    2
       3     2.500000   -1    2
       4     2.500000   -1    2
       5     2.500000   -1    2
       6     2.500000   -1    2
       7     2.500000   -1    2
       8     2.500000   -1    2
       9     2.500000   -1    2
      10     2.500000   -1    2

Atoms

       1    1      5  -0.26308836    -0.142900     5.715000   -13.026000
       2    1      6  -0.19243699     1.006700     6.370000   -12.240100
       3    1     10   0.09877260    -1.132300     6.192100   -12.721700
       4    1     10   0.09877260     0.026900     5.867900   -14.143100
       5    1     10   0.09877260    -0.170100     4.599000   -12.794600
       6    1     10   0.09877260     1.989800     5.886700   -12.555700
       7    1     10   0.09877260     1.044400     7.486000   -12.469900
       8    1      5  -0.26308836    -5.311500    -4.035200     9.614600
       9    1      6  -0.19243699    -6.246700    -4.053600     8.392000
      10    1     10   0.09877260    -4.312000    -4.506200     9.334200
      11    1     10   0.09877260    -5.144800    -2.958600     9.950400
      12    1     10   0.09877260    -5.786900    -4.629300    10.463600
      13    1     10   0.09877260    -7.245200    -3.588100     8.683400
      14    1     10   0.09877260    -6.424800    -5.132200     8.082100
      15    1      5  -0.26308836    -5.609000    -6.379700     6.362000
      16    1      6  -0.19243699    -6.651200    -5.850400     5.357300
      17    1     10   0.09877260    -5.816000    -7.480300     6.575300
      18    1     10   0.09877260    -4.568400    -6.272800     5.909400
      19    1     10   0.09877260    -5.646500    -5.794200     7.334300
      20    1     10   0.09877260    -7.714400    -5.993300     5.730400
      21    1     10   0.09877260    -6.532500    -6.458200     4.400200
      22    1      5  -0.26308836    -8.088700    -6.681700     8.607700
      23    1      4  -0.14403957    -8.342000    -5.685400     7.462000
      24    1     10   0.09877260    -9.084800    -7.094000     8.978800
      25    1     10   0.09877260    -7.437300    -7.537400     8.229100
      26    1     10   0.09877260    -7.555900    -6.146300     9.461600
      27    1     10   0.09877260    -8.867700    -6.215500     6.600600
      28    1     10   0.09877260    -7.352400    -5.257400     7.098300
      29    1      5  -0.26308836   -11.233200    -1.097600    11.471800
      30    1      4  -0.14403957   -11.521400    -1.063900     9.958800
      31    1     10   0.09877260   -10.110700    -1.006100    11.648000
      32    1     10   0.09877260   -11.770500    -0.230200    11.980000
      33    1     10   0.09877260   -11.605300    -2.083100    11.907400
      34    1     10   0.09877260   -12.641600    -1.147200     9.766800
      35    1     10   0.09877260   -11.140100    -0.080600     9.526000
      36    1      5  -0.26308836     2.883500     1.420700     4.203200
      37    1      6  -0.19243699     1.480400     1.382500     4.835900
      38    1     10   0.09877260     2.822300     1.933200     3.186800
      39    1     10   0.09877260     3.591000     2.003600     4.880900
      40    1     10   0.09877260     3.274100     0.359500     4.062900
      41    1     10   0.09877260     1.534800     0.907300     5.868000
      42    1     10   0.09877260     1.095700     2.451000     4.935100
      43    1      5  -0.26308836     5.136400    -0.341300     7.034700
      44    1      6  -0.19243699     3.621300    -0.456500     7.284900
      45    1     10   0.09877260     5.571600    -1.378500     6.849500
      46    1     10   0.09877260     5.319900     0.316800     6.122000
      47    1     10   0.09877260     5.638000     0.124800     7.946200
      48    1     10   0.09877260     3.431100    -1.111600     8.198300
      49    1     10   0.09877260     3.190800     0.583300     7.466700
      50    1      5  -0.26308836     2.282000    -6.362800     1.307600
      51    1      6  -0.19243699     0.990400    -5.628700     1.718500
      52    1     10   0.09877260     3.000600    -6.379500     2.192300
      53    1     10   0.09877260     2.026500    -7.432900     1.008900
      54    1     10   0.09877260     2.785900    -5.841100     0.431900
      55    1     10   0.09877260     1.218100    -4.554800     2.026600
      56    1     10   0.09877260     0.546400    -6.188500     2.606700
      57    1      5  -0.26308836     4.994100   -12.898300    -4.948000
      58    1      4  -0.14403957     3.514900   -12.522100    -4.744200
      59    1     10   0.09877260     5.062300   -13.945800    -5.392500
      60    1     10   0.09877260     5.481000   -12.151100    -5.658100
      61    1     10   0.09877260     5.533400   -12.875100    -3.943900
      62    1     10   0.09877260     3.026200   -13.266800    -4.032800
      63    1     10   0.09877260     2.975100   -12.543600    -5.748100
      64    1      5  -0.26308836     9.420800     9.272600    -8.287700
      65    1      4  -0.14403957     7.925300     9.219100    -8.653100
      66    1     10   0.09877260     9.809000     8.212800    -8.123700
      67    1     10   0.09877260    10.003800     9.766600    -9.133700
      68    1     10   0.09877260     9.553600     9.876200    -7.329600
      69    1     10   0.09877260     7.530500    10.276800    -8.811000
      70    1     10   0.09877260     7.784900     8.610600    -9.606800
      71    1      5  -0.26308836    11.121100     6.304300    -7.410700
      72    1      6  -0.19243699     9.626800     5.993000    -7.208700
      73    1     10   0.09877260    11.289100     6.679800    -8.474000
      74    1     10   0.09877260    11.443900     7.107900    -6.669500
      75    1     10   0.09877260    11.734300     5.358800    -7.239200
      76    1     10   0.09877260     9.298600     5.194700    -7.953400
      77    1     10   0.09877260     9.023600     6.945100    -7.384800
      78    1      6  -0.19243699     0.811100     6.165200   -10.725800
      79    1      4  -0.14403957     0.704800     4.661600   -10.406200
      80    1     10   0.09877260    -0.134600     6.692100   -10.368700
      81    1     10   0.09877260     1.714700     6.604500   -10.186600
      82    1     10   0.09877260     1.600500     4.126700   -10.865800
      83    1     10   0.09877260    -0.259500     4.229400   -10.833600
      84    1      4  -0.14403957     1.331800     0.904700    -1.411400
      85    1      6  -0.19243699    -0.148700     0.578700    -1.697900
      86    1     10   0.09877260     1.466700     1.164900    -0.309700
      87    1     10   0.09877260     1.926900    -0.041800    -1.634100
      88    1     10   0.09877260    -0.856300     1.401200    -1.348000
      89    1     10   0.09877260    -0.223100     0.488300    -2.831900
      90    1      6  -0.19243699     1.422400    -1.148700     6.296600
      91    1      6  -0.19243699     2.940100    -1.079800     6.052500
      92    1     10   0.09877260     1.023300    -0.106000     6.520100
      93    1     10   0.09877260     1.212400    -1.820800     7.193200
      94    1     10   0.09877260     3.142400    -0.426600     5.143500
      95    1     10   0.09877260     3.351700    -2.126400     5.866100
      96    1      6  -0.19243699     1.729800    -6.603200    -1.726900
      97    1      4  -0.14403957     3.108100    -6.858800    -2.363600
      98    1     10   0.09877260     0.912800    -6.757600    -2.506800
      99    1     10   0.09877260     1.562900    -7.309700    -0.847500
     100    1     10   0.09877260     3.274000    -6.105900    -3.203500
     101    1     10   0.09877260     3.920400    -6.727700    -1.574600
     102    1      6  -0.19243699     7.859100     5.257200    -5.628100
     103    1      6  -0.19243699     9.373100     5.491000    -5.773200
     104    1     10   0.09877260     7.366500     6.234600    -5.925300
     105    1     10   0.09877260     7.528300     4.451700    -6.363800
     106    1     10   0.09877260     9.947000     4.525900    -5.576500
     107    1     10   0.09877260     9.703000     6.293800    -5.034200
     108    1      1  -0.09156249     0.783500     4.483100    -8.878600
     109    1      2  -0.15155013     0.030000     3.338800    -8.166000
     110    1      2  -0.15155013     0.276200     3.073600    -6.662700
     111    1      3  -0.04328749     1.297100     3.940000    -5.899100
     112    1      2  -0.15155013     1.909600     5.179300    -6.577100
     113    1      2  -0.15155013     1.636100     5.463200    -8.060400
     114    1      9   0.16382505    -0.676100     2.666100    -8.756400
     115    1      9   0.16382505    -0.242500     2.203000    -6.140800
     116    1      9   0.16382505     2.606300     5.862700    -5.987200
     117    1      9   0.16382505     2.107800     6.369700    -8.566200
     118    1      1  -0.09156249    -2.834000    -1.239400     2.031900
     119    1      2  -0.15155013    -3.713500    -2.500200     1.905000
     120    1      2  -0.15155013    -4.720400    -2.859000     3.018600
     121    1      1  -0.09156249    -4.848900    -1.956200     4.260300
     122    1      2  -0.15155013    -3.817000    -0.831800     4.485300
     123    1      2  -0.15155013    -2.818700    -0.463000     3.365300
     124    1      9   0.16382505    -3.666600    -3.131600     0.957000
     125    1      9   0.16382505    -5.419000    -3.750700     2.889300
     126    1      9   0.16382505    -3.843900    -0.219700     5.446700
     127    1      9   0.16382505    -2.107100     0.417100     3.503500
     128    1      1  -0.09156249     3.179200    -8.277900    -2.955200
     129    1      2  -0.15155013     3.199400    -9.504400    -2.024700
     130    1      2  -0.15155013     3.315900   -10.919700    -2.621000
     131    1      1  -0.09156249     3.430600   -11.106200    -4.145700
     132    1      2  -0.15155013     3.388000    -9.880700    -5.076500
     133    1      2  -0.15155013     3.271100    -8.466200    -4.480700
     134    1      9   0.16382505     3.129200    -9.364800    -0.895500
     135    1      9   0.16382505     3.322000   -11.829200    -1.933700
     136    1      9   0.16382505     3.448100   -10.020500    -6.206300
     137    1      9   0.16382505     3.254500    -7.557400    -5.168800
     138    1      1  -0.09156249     5.830100     6.986500    -5.202000
     139    1      2  -0.15155013     7.028400     7.910100    -4.909700
     140    1      2  -0.15155013     7.716200     8.665600    -6.060000
     141    1      1  -0.09156249     7.167800     8.549000    -7.492600
     142    1      2  -0.15155013     5.919500     7.689500    -7.772600
     143    1      2  -0.15155013     5.241900     6.916000    -6.623700
     144    1      9   0.16382505     7.434000     7.997400    -3.848000
     145    1      9   0.16382505     8.637900     9.304000    -5.853200
     146    1      9   0.16382505     5.505900     7.614200    -8.832300
     147    1      9   0.16382505     4.325500     6.270100    -6.831700
     148    1      3  -0.04328749     1.865600     3.525700    -4.528300
     149    1      2  -0.15155013     1.205200     2.463400    -3.615500
     150    1      1  -0.09156249     1.936800     2.000500    -2.327900
     151    1      2  -0.15155013     3.337600     2.567800    -2.000300
     152    1      1  -0.09156249     3.997400     3.598000    -2.940500
     153    1      2  -0.15155013     3.219700     4.132800    -4.145600
     154    1      9   0.16382505     0.197700     2.010400    -3.897300
     155    1      9   0.16382505     3.902900     2.190800    -1.084900
     156    1      9   0.16382505     3.694800     4.915900    -4.823700
     157    1      8  -0.05270983    -0.799400    -1.209300     0.327500
     158    1      6  -0.19243699    -0.529800    -0.818600    -1.150600
     159    1      4  -0.14403957    -2.168700    -0.643300     0.765700
     160    1      6  -0.19243699     0.304600    -0.791900     1.319300
     161    1      6  -0.19243699    -0.904900    -2.743800     0.258000
     162    1     10   0.09877260    -1.481900    -1.122900    -1.698600
     163    1     10   0.09877260     0.309600    -1.492900    -1.520400
     164    1     10   0.09877260    -2.892300    -0.865300    -0.086700
     165    1     10   0.09877260    -2.084500     0.488400     0.874000
     166    1     10   0.09877260     1.331400    -1.107600     0.937800
     167    1     10   0.09877260     0.272600     0.341600     1.438600
     168    1     10   0.09877260    -1.722700    -3.009000    -0.490500
     169    1     10   0.09877260    -1.154700    -3.193100     1.275700
     170    1      8  -0.05270983    -6.539500    -3.184900     6.002200
     171    1      4  -0.14403957    -6.144800    -1.990800     5.104000
     172    1      6  -0.19243699    -5.625800    -3.228900     7.244800
     173    1      6  -0.19243699    -6.413400    -4.368600     5.007700
     174    1      4  -0.14403957    -7.956600    -2.697400     6.400800
     175    1     10   0.09877260    -6.985000    -1.910800     4.337800
     176    1     10   0.09877260    -6.174100    -1.048400     5.744700
     177    1     10   0.09877260    -4.595600    -3.621200     6.954400
     178    1     10   0.09877260    -5.522400    -2.164400     7.639300
     179    1     10   0.09877260    -5.346200    -4.325200     4.608900
     180    1     10   0.09877260    -7.115900    -4.121700     4.144700
     181    1     10   0.09877260    -7.757900    -1.603700     6.654000
     182    1     10   0.09877260    -8.567100    -2.694500     5.438200
     183    1      1  -0.09156249    -8.938900    -3.078800     7.539300
     184    1      1  -0.09156249    -9.215400    -4.534600     7.971300
     185    1      2  -0.15155013   -10.335200    -4.838200     8.987000
     186    1      3  -0.04328749   -11.177000    -3.696100     9.586200
     187    1      1  -0.09156249   -10.794600    -2.234700     9.274700
     188    1      2  -0.15155013    -9.686000    -1.933900     8.249800
     189    1      9   0.16382505   -10.552100    -5.917200     9.284700
     190    1      9   0.16382505    -9.434500    -0.852100     7.993100
     191    1      3  -0.04328749   -12.397800    -4.044600    10.469400
     192    1      2  -0.15155013   -13.326800    -2.945100    11.025000
     193    1      2  -0.15155013   -14.565400    -3.325600    11.857400
     194    1      2  -0.15155013   -14.880500    -4.805200    12.139100
     195    1      2  -0.15155013   -13.952300    -5.904600    11.593100
     196    1      2  -0.15155013   -12.713400    -5.524500    10.760200
     197    1      9   0.16382505   -13.105700    -1.849400    10.818700
     198    1      9   0.16382505   -15.250900    -2.510200    12.263500
     199    1      9   0.16382505   -15.799500    -5.086300    12.752400
     200    1      9   0.16382505   -14.183100    -7.001000    11.803100
     201    1      9   0.16382505   -12.031100    -6.341100    10.351000
     202    1      7  -0.12618361     0.954100    -0.891900     3.770300
     203    1      6  -0.19243699     0.048900    -1.483000     2.673500
     204    1      6  -0.19243699     0.537800     0.586400     3.912600
     205    1      6  -0.19243699     0.695700    -1.704900     5.057900
     206    1     10   0.09877260     2.049900    -0.965200     3.464200
     207    1     10   0.09877260    -1.027900    -1.310400     2.996200
     208    1     10   0.09877260     0.229700    -2.602600     2.556200
     209    1     10   0.09877260    -0.530800     0.627100     4.308300
     210    1     10   0.09877260     0.571500     1.074900     2.883000
     211    1     10   0.09877260    -0.423400    -1.700200     5.275100
     212    1     10   0.09877260     1.033600    -2.778600     4.877300
     213    1      7  -0.12618361     0.349400    -4.767700    -0.631300
     214    1      6  -0.19243699     0.445200    -3.279400    -0.253300
     215    1      6  -0.19243699    -0.047300    -5.636500     0.579100
     216    1      6  -0.19243699     1.707800    -5.140900    -1.250100
     217    1     10   0.09877260    -0.457800    -4.883000    -1.428000
     218    1     10   0.09877260     0.725300    -2.719300    -1.204400
     219    1     10   0.09877260     1.253200    -3.109400     0.532900
     220    1     10   0.09877260    -1.033200    -5.228800     0.981000
     221    1     10   0.09877260    -0.201000    -6.714100     0.240300
     222    1     10   0.09877260     2.534400    -4.962400    -0.488300
     223    1     10   0.09877260     1.892100    -4.463400    -2.148200
     224    1      7  -0.12618361     5.915400     4.705500    -4.091300
     225    1      4  -0.14403957     5.490300     3.959900    -2.804400
     226    1      4  -0.14403957     5.265200     6.108800    -4.072500
     227    1      6  -0.19243699     7.452200     4.833500    -4.196300
     228    1     10   0.09877260     5.569900     4.099800    -4.993400
     229    1     10   0.09877260     5.690900     4.603800    -1.885300
     230    1     10   0.09877260     6.078400     2.986300    -2.728000
     231    1     10   0.09877260     5.544500     6.611100    -3.088100
     232    1     10   0.09877260     4.130300     6.035200    -4.140800
     233    1     10   0.09877260     7.925500     3.815200    -4.000100
     234    1     10   0.09877260     7.825000     5.580700    -3.420300

Bonds

       1     14        1        2
       2     15        1        3
       3     15        1        4
       4     15        1        5
       5     19        2        6
       6     19        2        7
       7     16        2       78
       8     14        8        9
       9     15        8       10
      10     15        8       11
      11     15        8       12
      12     19        9       13
      13     19        9       14
      14     16        9      172
      15     14       15       16
      16     15       15       17
      17     15       15       18
      18     15       15       19
      19     19       16       20
      20     19       16       21
      21     16       16      173
      22      9       22       23
      23     15       22       24
      24     15       22       25
      25     15       22       26
      26     13       23       27
      27     13       23       28
      28      4       23      184
      29      9       29       30
      30     15       29       31
      31     15       29       32
      32     15       29       33
      33     13       30       34
      34     13       30       35
      35      4       30      187
      36     14       36       37
      37     15       36       38
      38     15       36       39
      39     15       36       40
      40     19       37       41
      41     19       37       42
      42     16       37      204
      43     14       43       44
      44     15       43       45
      45     15       43       46
      46     15       43       47
      47     19       44       48
      48     19       44       49
      49     16       44       91
      50     14       50       51
      51     15       50       52
      52     15       50       53
      53     15       50       54
      54     19       51       55
      55     19       51       56
      56     16       51      215
      57      9       57       58
      58     15       57       59
      59     15       57       60
      60     15       57       61
      61     13       58       62
      62     13       58       63
      63      4       58      131
      64      9       64       65
      65     15       64       66
      66     15       64       67
      67     15       64       68
      68     13       65       69
      69     13       65       70
      70      4       65      141
      71     14       71       72
      72     15       71       73
      73     15       71       74
      74     15       71       75
      75     19       72       76
      76     19       72       77
      77     16       72      103
      78     10       78       79
      79     19       78       80
      80     19       78       81
      81     13       79       82
      82     13       79       83
      83      4       79      108
      84     10       84       85
      85     13       84       86
      86     13       84       87
      87      4       84      150
      88     19       85       88
      89     19       85       89
      90     16       85      158
      91     16       90       91
      92     19       90       92
      93     19       90       93
      94     16       90      205
      95     19       91       94
      96     19       91       95
      97     10       96       97
      98     19       96       98
      99     19       96       99
     100     16       96      216
     101     13       97      100
     102     13       97      101
     103      4       97      128
     104     16      102      103
     105     19      102      104
     106     19      102      105
     107     16      102      227
     108     19      103      106
     109     19      103      107
     110      2      108      109
     111      5      109      110
     112      7      109      114
     113      6      110      111
     114      7      110      115
     115      6      111      112
     116      8      111      148
     117      5      112      113
     118      7      112      116
     119      2      113      108
     120      7      113      117
     121      2      118      119
     122      4      118      159
     123      5      119      120
     124      7      119      124
     125      2      120      121
     126      7      120      125
     127      2      121      122
     128      4      121      171
     129      5      122      123
     130      7      122      126
     131      2      123      118
     132      7      123      127
     133      2      128      129
     134      5      129      130
     135      7      129      134
     136      2      130      131
     137      7      130      135
     138      2      131      132
     139      5      132      133
     140      7      132      136
     141      2      133      128
     142      7      133      137
     143      2      138      139
     144      4      138      226
     145      5      139      140
     146      7      139      144
     147      2      140      141
     148      7      140      145
     149      2      141      142
     150      5      142      143
     151      7      142      146
     152      2      143      138
     153      7      143      147
     154      6      148      149
     155      2      149      150
     156      7      149      154
     157      2      150      151
     158      2      151      152
     159      7      151      155
     160      2      152      153
     161      4      152      225
     162      6      153      148
     163      7      153      156
     164     18      157      158
     165     12      157      159
     166     18      157      160
     167     18      157      161
     168     19      158      162
     169     19      158      163
     170     13      159      164
     171     13      159      165
     172     19      160      166
     173     19      160      167
     174     16      160      203
     175     19      161      168
     176     19      161      169
     177     16      161      214
     178     12      170      171
     179     18      170      172
     180     18      170      173
     181     12      170      174
     182     13      171      175
     183     13      171      176
     184     19      172      177
     185     19      172      178
     186     19      173      179
     187     19      173      180
     188     13      174      181
     189     13      174      182
     190      4      174      183
     191      1      183      184
     192      2      184      185
     193      6      185      186
     194      7      185      189
     195      3      186      187
     196      8      186      191
     197      2      187      188
     198      2      188      183
     199      7      188      190
     200      6      191      192
     201      5      192      193
     202      7      192      197
     203      5      193      194
     204      7      193      198
     205      5      194      195
     206      7      194      199
     207      5      195      196
     208      7      195      200
     209      6      196      191
     210      7      196      201
     211     17      202      203
     212     17      202      204
     213     17      202      205
     214     20      202      206
     215     19      203      207
     216     19      203      208
     217     19      204      209
     218     19      204      210
     219     19      205      211
     220     19      205      212
     221     17      213      214
     222     17      213      215
     223     17      213      216
     224     20      213      217
     225     19      214      218
     226     19      214      219
     227     19      215      220
     228     19      215      221
     229     19      216      222
     230     19      216      223
     231     11      224      225
     232     11      224      226
     233     17      224      227
     234     20      224      228
     235     13      225      229
     236     13      225      230
     237     13      226      231
     238     13      226      232
     239     19      227      233
     240     19      227      234

Angles

       1     34        1        2        6
       2     34        1        2        7
       3     33        1        2       78
       4     36        2        1        3
       5     36        2        1        4
       6     36        2        1        5
       7     25        2       78       79
       8     40        2       78       80
       9     40        2       78       81
      10     49        3        1        4
      11     49        3        1        5
      12     49        4        1        5
      13     50        6        2        7
      14     40        6        2       78
      15     40        7        2       78
      16     34        8        9       13
      17     34        8        9       14
      18     33        8        9      172
      19     36        9        8       10
      20     36        9        8       11
      21     36        9        8       12
      22     39        9      172      170
      23     40        9      172      177
      24     40        9      172      178
      25     49       10        8       11
      26     49       10        8       12
      27     49       11        8       12
      28     50       13        9       14
      29     40       13        9      172
      30     40       14        9      172
      31     34       15       16       20
      32     34       15       16       21
      33     33       15       16      173
      34     36       16       15       17
      35     36       16       15       18
      36     36       16       15       19
      37     39       16      173      170
      38     40       16      173      179
      39     40       16      173      180
      40     49       17       15       18
      41     49       17       15       19
      42     49       18       15       19
      43     50       20       16       21
      44     40       20       16      173
      45     40       21       16      173
      46     32       22       23       27
      47     32       22       23       28
      48      9       22       23      184
      49     24       23       22       24
      50     24       23       22       25
      51     24       23       22       26
      52      2       23      184      183
      53     16       23      184      185
      54     49       24       22       25
      55     49       24       22       26
      56     49       25       22       26
      57     48       27       23       28
      58     13       27       23      184
      59     13       28       23      184
      60     32       29       30       34
      61     32       29       30       35
      62      9       29       30      187
      63     24       30       29       31
      64     24       30       29       32
      65     24       30       29       33
      66     22       30      187      186
      67     16       30      187      188
      68     49       31       29       32
      69     49       31       29       33
      70     49       32       29       33
      71     48       34       30       35
      72     13       34       30      187
      73     13       35       30      187
      74     34       36       37       41
      75     34       36       37       42
      76     33       36       37      204
      77     36       37       36       38
      78     36       37       36       39
      79     36       37       36       40
      80     38       37      204      202
      81     40       37      204      209
      82     40       37      204      210
      83     49       38       36       39
      84     49       38       36       40
      85     49       39       36       40
      86     50       41       37       42
      87     40       41       37      204
      88     40       42       37      204
      89     34       43       44       48
      90     34       43       44       49
      91     33       43       44       91
      92     36       44       43       45
      93     36       44       43       46
      94     36       44       43       47
      95     37       44       91       90
      96     40       44       91       94
      97     40       44       91       95
      98     49       45       43       46
      99     49       45       43       47
     100     49       46       43       47
     101     50       48       44       49
     102     40       48       44       91
     103     40       49       44       91
     104     34       50       51       55
     105     34       50       51       56
     106     33       50       51      215
     107     36       51       50       52
     108     36       51       50       53
     109     36       51       50       54
     110     38       51      215      213
     111     40       51      215      220
     112     40       51      215      221
     113     49       52       50       53
     114     49       52       50       54
     115     49       53       50       54
     116     50       55       51       56
     117     40       55       51      215
     118     40       56       51      215
     119     32       57       58       62
     120     32       57       58       63
     121      9       57       58      131
     122     24       58       57       59
     123     24       58       57       60
     124     24       58       57       61
     125     16       58      131      130
     126     16       58      131      132
     127     49       59       57       60
     128     49       59       57       61
     129     49       60       57       61
     130     48       62       58       63
     131     13       62       58      131
     132     13       63       58      131
     133     32       64       65       69
     134     32       64       65       70
     135      9       64       65      141
     136     24       65       64       66
     137     24       65       64       67
     138     24       65       64       68
     139     16       65      141      140
     140     16       65      141      142
     141     49       66       64       67
     142     49       66       64       68
     143     49       67       64       68
     144     48       69       65       70
     145     13       69       65      141
     146     13       70       65      141
     147     34       71       72       76
     148     34       71       72       77
     149     33       71       72      103
     150     36       72       71       73
     151     36       72       71       74
     152     36       72       71       75
     153     37       72      103      102
     154     40       72      103      106
     155     40       72      103      107
     156     49       73       71       74
     157     49       73       71       75
     158     49       74       71       75
     159     50       76       72       77
     160     40       76       72      103
     161     40       77       72      103
     162     35       78       79       82
     163     35       78       79       83
     164     10       78       79      108
     165     26       79       78       80
     166     26       79       78       81
     167     16       79      108      109
     168     16       79      108      113
     169     50       80       78       81
     170     48       82       79       83
     171     13       82       79      108
     172     13       83       79      108
     173     26       84       85       88
     174     26       84       85       89
     175     25       84       85      158
     176     16       84      150      149
     177     16       84      150      151
     178     35       85       84       86
     179     35       85       84       87
     180     10       85       84      150
     181     39       85      158      157
     182     40       85      158      162
     183     40       85      158      163
     184     48       86       84       87
     185     13       86       84      150
     186     13       87       84      150
     187     50       88       85       89
     188     40       88       85      158
     189     40       89       85      158
     190     40       90       91       94
     191     40       90       91       95
     192     38       90      205      202
     193     40       90      205      211
     194     40       90      205      212
     195     40       91       90       92
     196     40       91       90       93
     197     37       91       90      205
     198     50       92       90       93
     199     40       92       90      205
     200     40       93       90      205
     201     50       94       91       95
     202     35       96       97      100
     203     35       96       97      101
     204     10       96       97      128
     205     38       96      216      213
     206     40       96      216      222
     207     40       96      216      223
     208     26       97       96       98
     209     26       97       96       99
     210     25       97       96      216
     211     16       97      128      129
     212     16       97      128      133
     213     50       98       96       99
     214     40       98       96      216
     215     40       99       96      216
     216     48      100       97      101
     217     13      100       97      128
     218     13      101       97      128
     219     40      102      103      106
     220     40      102      103      107
     221     38      102      227      224
     222     40      102      227      233
     223     40      102      227      234
     224     40      103      102      104
     225     40      103      102      105
     226     37      103      102      227
     227     50      104      102      105
     228     40      104      102      227
     229     40      105      102      227
     230     50      106      103      107
     231      4      108      109      110
     232      6      108      109      114
     233      4      108      113      112
     234      6      108      113      117
     235     14      109      108      113
     236     18      109      110      111
     237     19      109      110      115
     238     19      110      109      114
     239     20      110      111      112
     240     21      110      111      148
     241     23      111      110      115
     242     18      111      112      113
     243     23      111      112      116
     244     21      111      148      149
     245     21      111      148      153
     246     21      112      111      148
     247     19      112      113      117
     248     19      113      112      116
     249      4      118      119      120
     250      6      118      119      124
     251      4      118      123      122
     252      6      118      123      127
     253     12      118      159      157
     254     13      118      159      164
     255     13      118      159      165
     256     14      119      118      123
     257     16      119      118      159
     258      4      119      120      121
     259     19      119      120      125
     260     19      120      119      124
     261     14      120      121      122
     262     16      120      121      171
     263      6      121      120      125
     264      4      121      122      123
     265      6      121      122      126
     266     12      121      171      170
     267     13      121      171      175
     268     13      121      171      176
     269     16      122      121      171
     270     19      122      123      127
     271     16      123      118      159
     272     19      123      122      126
     273      4      128      129      130
     274      6      128      129      134
     275      4      128      133      132
     276      6      128      133      137
     277     14      129      128      133
     278      4      129      130      131
     279     19      129      130      135
     280     19      130      129      134
     281     14      130      131      132
     282      6      131      130      135
     283      4      131      132      133
     284      6      131      132      136
     285     19      132      133      137
     286     19      133      132      136
     287      4      138      139      140
     288      6      138      139      144
     289      4      138      143      142
     290      6      138      143      147
     291     11      138      226      224
     292     13      138      226      231
     293     13      138      226      232
     294     14      139      138      143
     295     16      139      138      226
     296      4      139      140      141
     297     19      139      140      145
     298     19      140      139      144
     299     14      140      141      142
     300      6      141      140      145
     301      4      141      142      143
     302      6      141      142      146
     303     19      142      143      147
     304     16      143      138      226
     305     19      143      142      146
     306      5      148      149      150
     307     23      148      149      154
     308      5      148      153      152
     309     23      148      153      156
     310     20      149      148      153
     311     14      149      150      151
     312      6      150      149      154
     313      3      150      151      152
     314      6      150      151      155
     315     14      151      152      153
     316     16      151      152      225
     317      6      152      151      155
     318      6      152      153      156
     319     11      152      225      224
     320     13      152      225      229
     321     13      152      225      230
     322     16      153      152      225
     323     47      157      158      162
     324     47      157      158      163
     325     46      157      159      164
     326     46      157      159      165
     327     47      157      160      166
     328     47      157      160      167
     329     39      157      160      203
     330     47      157      161      168
     331     47      157      161      169
     332     39      157      161      214
     333     31      158      157      159
     334     43      158      157      160
     335     43      158      157      161
     336     31      159      157      160
     337     31      159      157      161
     338     43      160      157      161
     339     38      160      203      202
     340     40      160      203      207
     341     40      160      203      208
     342     38      161      214      213
     343     40      161      214      218
     344     40      161      214      219
     345     50      162      158      163
     346     48      164      159      165
     347     50      166      160      167
     348     40      166      160      203
     349     40      167      160      203
     350     50      168      161      169
     351     40      168      161      214
     352     40      169      161      214
     353     46      170      171      175
     354     46      170      171      176
     355     47      170      172      177
     356     47      170      172      178
     357     47      170      173      179
     358     47      170      173      180
     359     46      170      174      181
     360     46      170      174      182
     361     12      170      174      183
     362     31      171      170      172
     363     31      171      170      173
     364     30      171      170      174
     365     43      172      170      173
     366     31      172      170      174
     367     31      173      170      174
     368      2      174      183      184
     369     16      174      183      188
     370     48      175      171      176
     371     50      177      172      178
     372     50      179      173      180
     373     48      181      174      182
     374     13      181      174      183
     375     13      182      174      183
     376      1      183      184      185
     377      3      183      188      187
     378      6      183      188      190
     379      1      184      183      188
     380      5      184      185      186
     381      6      184      185      189
     382      7      185      186      187
     383     21      185      186      191
     384     23      186      185      189
     385     15      186      187      188
     386     21      186      191      192
     387     21      186      191      196
     388      8      187      186      191
     389      6      187      188      190
     390     18      191      192      193
     391     23      191      192      197
     392     18      191      196      195
     393     23      191      196      201
     394     20      192      191      196
     395     17      192      193      194
     396     19      192      193      198
     397     19      193      192      197
     398     17      193      194      195
     399     19      193      194      199
     400     19      194      193      198
     401     17      194      195      196
     402     19      194      195      200
     403     19      195      194      199
     404     19      195      196      201
     405     19      196      195      200
     406     45      202      203      207
     407     45      202      203      208
     408     45      202      204      209
     409     45      202      204      210
     410     45      202      205      211
     411     45      202      205      212
     412     41      203      202      204
     413     41      203      202      205
     414     42      203      202      206
     415     41      204      202      205
     416     42      204      202      206
     417     42      205      202      206
     418     50      207      203      208
     419     50      209      204      210
     420     50      211      205      212
     421     45      213      214      218
     422     45      213      214      219
     423     45      213      215      220
     424     45      213      215      221
     425     45      213      216      222
     426     45      213      216      223
     427     41      214      213      215
     428     41      214      213      216
     429     42      214      213      217
     430     41      215      213      216
     431     42      215      213      217
     432     42      216      213      217
     433     50      218      214      219
     434     50      220      215      221
     435     50      222      216      223
     436     44      224      225      229
     437     44      224      225      230
     438     44      224      226      231
     439     44      224      226      232
     440     45      224      227      233
     441     45      224      227      234
     442     27      225      224      226
     443     28      225      224      227
     444     29      225      224      228
     445     28      226      224      227
     446     29      226      224      228
     447     42      227      224      228
     448     48      229      225      230
     449     48      231      226      232
     450     50      233      227      234

Dihedrals

       1     56        1        2       78       79
       2     69        1        2       78       80
       3     69        1        2       78       81
       4     70        2       78       79       82
       5     70        2       78       79       83
       6     19        2       78       79      108
       7     89        3        1        2        6
       8     89        3        1        2        7
       9     71        3        1        2       78
      10     89        4        1        2        6
      11     89        4        1        2        7
      12     71        4        1        2       78
      13     89        5        1        2        6
      14     89        5        1        2        7
      15     71        5        1        2       78
      16     59        6        2       78       79
      17     90        6        2       78       80
      18     90        6        2       78       81
      19     59        7        2       78       79
      20     90        7        2       78       80
      21     90        7        2       78       81
      22     68        8        9      172      170
      23     69        8        9      172      177
      24     69        8        9      172      178
      25     64        9      172      170      171
      26     77        9      172      170      173
      27     64        9      172      170      174
      28     89       10        8        9       13
      29     89       10        8        9       14
      30     71       10        8        9      172
      31     89       11        8        9       13
      32     89       11        8        9       14
      33     71       11        8        9      172
      34     89       12        8        9       13
      35     89       12        8        9       14
      36     71       12        8        9      172
      37     84       13        9      172      170
      38     90       13        9      172      177
      39     90       13        9      172      178
      40     84       14        9      172      170
      41     90       14        9      172      177
      42     90       14        9      172      178
      43     68       15       16      173      170
      44     69       15       16      173      179
      45     69       15       16      173      180
      46     64       16      173      170      171
      47     77       16      173      170      172
      48     64       16      173      170      174
      49     89       17       15       16       20
      50     89       17       15       16       21
      51     71       17       15       16      173
      52     89       18       15       16       20
      53     89       18       15       16       21
      54     71       18       15       16      173
      55     89       19       15       16       20
      56     89       19       15       16       21
      57     71       19       15       16      173
      58     84       20       16      173      170
      59     90       20       16      173      179
      60     90       20       16      173      180
      61     84       21       16      173      170
      62     90       21       16      173      179
      63     90       21       16      173      180
      64      4       22       23      184      183
      65     33       22       23      184      185
      66     54       23      184      183      174
      67     27       23      184      183      188
      68     50       23      184      185      186
      69     55       23      184      185      189
      70     86       24       22       23       27
      71     86       24       22       23       28
      72     18       24       22       23      184
      73     86       25       22       23       27
      74     86       25       22       23       28
      75     18       25       22       23      184
      76     86       26       22       23       27
      77     86       26       22       23       28
      78     18       26       22       23      184
      79      6       27       23      184      183
      80     37       27       23      184      185
      81      6       28       23      184      183
      82     37       28       23      184      185
      83     48       29       30      187      186
      84     33       29       30      187      188
      85     44       30      187      186      185
      86     52       30      187      186      191
      87      9       30      187      188      183
      88     55       30      187      188      190
      89     86       31       29       30       34
      90     86       31       29       30       35
      91     18       31       29       30      187
      92     86       32       29       30       34
      93     86       32       29       30       35
      94     18       32       29       30      187
      95     86       33       29       30       34
      96     86       33       29       30       35
      97     18       33       29       30      187
      98     49       34       30      187      186
      99     37       34       30      187      188
     100     49       35       30      187      186
     101     37       35       30      187      188
     102     67       36       37      204      202
     103     69       36       37      204      209
     104     69       36       37      204      210
     105     75       37      204      202      203
     106     75       37      204      202      205
     107     76       37      204      202      206
     108     89       38       36       37       41
     109     89       38       36       37       42
     110     71       38       36       37      204
     111     89       39       36       37       41
     112     89       39       36       37       42
     113     71       39       36       37      204
     114     89       40       36       37       41
     115     89       40       36       37       42
     116     71       40       36       37      204
     117     83       41       37      204      202
     118     90       41       37      204      209
     119     90       41       37      204      210
     120     83       42       37      204      202
     121     90       42       37      204      209
     122     90       42       37      204      210
     123     66       43       44       91       90
     124     69       43       44       91       94
     125     69       43       44       91       95
     126     74       44       91       90       92
     127     74       44       91       90       93
     128     72       44       91       90      205
     129     89       45       43       44       48
     130     89       45       43       44       49
     131     71       45       43       44       91
     132     89       46       43       44       48
     133     89       46       43       44       49
     134     71       46       43       44       91
     135     89       47       43       44       48
     136     89       47       43       44       49
     137     71       47       43       44       91
     138     74       48       44       91       90
     139     90       48       44       91       94
     140     90       48       44       91       95
     141     74       49       44       91       90
     142     90       49       44       91       94
     143     90       49       44       91       95
     144     67       50       51      215      213
     145     69       50       51      215      220
     146     69       50       51      215      221
     147     75       51      215      213      214
     148     75       51      215      213      216
     149     76       51      215      213      217
     150     89       52       50       51       55
     151     89       52       50       51       56
     152     71       52       50       51      215
     153     89       53       50       51       55
     154     89       53       50       51       56
     155     71       53       50       51      215
     156     89       54       50       51       55
     157     89       54       50       51       56
     158     71       54       50       51      215
     159     83       55       51      215      213
     160     90       55       51      215      220
     161     90       55       51      215      221
     162     83       56       51      215      213
     163     90       56       51      215      220
     164     90       56       51      215      221
     165     33       57       58      131      130
     166     33       57       58      131      132
     167     38       58      131      130      129
     168     55       58      131      130      135
     169     38       58      131      132      133
     170     55       58      131      132      136
     171     86       59       57       58       62
     172     86       59       57       58       63
     173     18       59       57       58      131
     174     86       60       57       58       62
     175     86       60       57       58       63
     176     18       60       57       58      131
     177     86       61       57       58       62
     178     86       61       57       58       63
     179     18       61       57       58      131
     180     37       62       58      131      130
     181     37       62       58      131      132
     182     37       63       58      131      130
     183     37       63       58      131      132
     184     33       64       65      141      140
     185     33       64       65      141      142
     186     38       65      141      140      139
     187     55       65      141      140      145
     188     38       65      141      142      143
     189     55       65      141      142      146
     190     86       66       64       65       69
     191     86       66       64       65       70
     192     18       66       64       65      141
     193     86       67       64       65       69
     194     86       67       64       65       70
     195     18       67       64       65      141
     196     86       68       64       65       69
     197     86       68       64       65       70
     198     18       68       64       65      141
     199     37       69       65      141      140
     200     37       69       65      141      142
     201     37       70       65      141      140
     202     37       70       65      141      142
     203     66       71       72      103      102
     204     69       71       72      103      106
     205     69       71       72      103      107
     206     74       72      103      102      104
     207     74       72      103      102      105
     208     72       72      103      102      227
     209     89       73       71       72       76
     210     89       73       71       72       77
     211     71       73       71       72      103
     212     89       74       71       72       76
     213     89       74       71       72       77
     214     71       74       71       72      103
     215     89       75       71       72       76
     216     89       75       71       72       77
     217     71       75       71       72      103
     218     74       76       72      103      102
     219     90       76       72      103      106
     220     90       76       72      103      107
     221     74       77       72      103      102
     222     90       77       72      103      106
     223     90       77       72      103      107
     224     34       78       79      108      109
     225     34       78       79      108      113
     226     38       79      108      109      110
     227     55       79      108      109      114
     228     38       79      108      113      112
     229     55       79      108      113      117
     230     87       80       78       79       82
     231     87       80       78       79       83
     232     20       80       78       79      108
     233     87       81       78       79       82
     234     87       81       78       79       83
     235     20       81       78       79      108
     236     37       82       79      108      109
     237     37       82       79      108      113
     238     37       83       79      108      109
     239     37       83       79      108      113
     240     58       84       85      158      157
     241     59       84       85      158      162
     242     59       84       85      158      163
     243     50       84      150      149      148
     244     55       84      150      149      154
     245      9       84      150      151      152
     246     55       84      150      151      155
     247     34       85       84      150      149
     248     34       85       84      150      151
     249     64       85      158      157      159
     250     77       85      158      157      160
     251     77       85      158      157      161
     252     87       86       84       85       88
     253     87       86       84       85       89
     254     70       86       84       85      158
     255     37       86       84      150      149
     256     37       86       84      150      151
     257     87       87       84       85       88
     258     87       87       84       85       89
     259     70       87       84       85      158
     260     37       87       84      150      149
     261     37       87       84      150      151
     262     20       88       85       84      150
     263     84       88       85      158      157
     264     90       88       85      158      162
     265     90       88       85      158      163
     266     20       89       85       84      150
     267     84       89       85      158      157
     268     90       89       85      158      162
     269     90       89       85      158      163
     270     75       90      205      202      203
     271     75       90      205      202      204
     272     76       90      205      202      206
     273     73       91       90      205      202
     274     74       91       90      205      211
     275     74       91       90      205      212
     276     90       92       90       91       94
     277     90       92       90       91       95
     278     83       92       90      205      202
     279     90       92       90      205      211
     280     90       92       90      205      212
     281     90       93       90       91       94
     282     90       93       90       91       95
     283     83       93       90      205      202
     284     90       93       90      205      211
     285     90       93       90      205      212
     286     74       94       91       90      205
     287     74       95       91       90      205
     288     34       96       97      128      129
     289     34       96       97      128      133
     290     75       96      216      213      214
     291     75       96      216      213      215
     292     76       96      216      213      217
     293     57       97       96      216      213
     294     59       97       96      216      222
     295     59       97       96      216      223
     296     38       97      128      129      130
     297     55       97      128      129      134
     298     38       97      128      133      132
     299     55       97      128      133      137
     300     87       98       96       97      100
     301     87       98       96       97      101
     302     20       98       96       97      128
     303     83       98       96      216      213
     304     90       98       96      216      222
     305     90       98       96      216      223
     306     87       99       96       97      100
     307     87       99       96       97      101
     308     20       99       96       97      128
     309     83       99       96      216      213
     310     90       99       96      216      222
     311     90       99       96      216      223
     312     70      100       97       96      216
     313     37      100       97      128      129
     314     37      100       97      128      133
     315     70      101       97       96      216
     316     37      101       97      128      129
     317     37      101       97      128      133
     318     61      102      227      224      225
     319     61      102      227      224      226
     320     76      102      227      224      228
     321     73      103      102      227      224
     322     74      103      102      227      233
     323     74      103      102      227      234
     324     90      104      102      103      106
     325     90      104      102      103      107
     326     83      104      102      227      224
     327     90      104      102      227      233
     328     90      104      102      227      234
     329     90      105      102      103      106
     330     90      105      102      103      107
     331     83      105      102      227      224
     332     90      105      102      227      233
     333     90      105      102      227      234
     334     74      106      103      102      227
     335     74      107      103      102      227
     336     11      108      109      110      111
     337     12      108      109      110      115
     338     11      108      113      112      111
     339     12      108      113      112      116
     340     28      109      108      113      112
     341     30      109      108      113      117
     342     42      109      110      111      112
     343     43      109      110      111      148
     344     28      110      109      108      113
     345     42      110      111      112      113
     346     45      110      111      112      116
     347     46      110      111      148      149
     348     46      110      111      148      153
     349     51      111      110      109      114
     350     51      111      112      113      117
     351     15      111      148      149      150
     352     53      111      148      149      154
     353     15      111      148      153      152
     354     53      111      148      153      156
     355     45      112      111      110      115
     356     46      112      111      148      149
     357     46      112      111      148      153
     358     30      113      108      109      114
     359     43      113      112      111      148
     360     85      114      109      110      115
     361     53      115      110      111      148
     362     53      116      112      111      148
     363     85      116      112      113      117
     364     10      118      119      120      121
     365     12      118      119      120      125
     366     10      118      123      122      121
     367     12      118      123      122      126
     368     25      118      159      157      158
     369     25      118      159      157      160
     370     25      118      159      157      161
     371     28      119      118      123      122
     372     30      119      118      123      127
     373     36      119      118      159      157
     374     37      119      118      159      164
     375     37      119      118      159      165
     376     28      119      120      121      122
     377     38      119      120      121      171
     378     28      120      119      118      123
     379     38      120      119      118      159
     380     28      120      121      122      123
     381     30      120      121      122      126
     382     36      120      121      171      170
     383     37      120      121      171      175
     384     37      120      121      171      176
     385     12      121      120      119      124
     386     12      121      122      123      127
     387     25      121      171      170      172
     388     25      121      171      170      173
     389     24      121      171      170      174
     390     30      122      121      120      125
     391     36      122      121      171      170
     392     37      122      121      171      175
     393     37      122      121      171      176
     394     38      122      123      118      159
     395     30      123      118      119      124
     396     36      123      118      159      157
     397     37      123      118      159      164
     398     37      123      118      159      165
     399     38      123      122      121      171
     400     55      124      119      118      159
     401     85      124      119      120      125
     402     55      125      120      121      171
     403     55      126      122      121      171
     404     85      126      122      123      127
     405     55      127      123      118      159
     406     19      128       97       96      216
     407     10      128      129      130      131
     408     12      128      129      130      135
     409     10      128      133      132      131
     410     12      128      133      132      136
     411     28      129      128      133      132
     412     30      129      128      133      137
     413     28      129      130      131      132
     414     28      130      129      128      133
     415     28      130      131      132      133
     416     30      130      131      132      136
     417     12      131      130      129      134
     418     12      131      132      133      137
     419     30      132      131      130      135
     420     30      133      128      129      134
     421     85      134      129      130      135
     422     85      136      132      133      137
     423     10      138      139      140      141
     424     12      138      139      140      145
     425     10      138      143      142      141
     426     12      138      143      142      146
     427     21      138      226      224      225
     428     22      138      226      224      227
     429     23      138      226      224      228
     430     28      139      138      143      142
     431     30      139      138      143      147
     432     35      139      138      226      224
     433     37      139      138      226      231
     434     37      139      138      226      232
     435     28      139      140      141      142
     436     28      140      139      138      143
     437     38      140      139      138      226
     438     28      140      141      142      143
     439     30      140      141      142      146
     440     12      141      140      139      144
     441     12      141      142      143      147
     442     30      142      141      140      145
     443     38      142      143      138      226
     444     30      143      138      139      144
     445     35      143      138      226      224
     446     37      143      138      226      231
     447     37      143      138      226      232
     448     55      144      139      138      226
     449     85      144      139      140      145
     450     85      146      142      143      147
     451     55      147      143      138      226
     452     29      148      149      150      151
     453     29      148      153      152      151
     454     50      148      153      152      225
     455     14      149      148      153      152
     456     45      149      148      153      156
     457      7      149      150      151      152
     458     30      149      150      151      155
     459     19      150       84       85      158
     460     14      150      149      148      153
     461      7      150      151      152      153
     462      9      150      151      152      225
     463     30      151      150      149      154
     464     30      151      152      153      156
     465     35      151      152      225      224
     466     37      151      152      225      229
     467     37      151      152      225      230
     468     21      152      225      224      226
     469     22      152      225      224      227
     470     23      152      225      224      228
     471     45      153      148      149      154
     472     30      153      152      151      155
     473     35      153      152      225      224
     474     37      153      152      225      229
     475     37      153      152      225      230
     476     55      155      151      152      225
     477     55      156      153      152      225
     478     82      157      160      203      202
     479     84      157      160      203      207
     480     84      157      160      203      208
     481     82      157      161      214      213
     482     84      157      161      214      218
     483     84      157      161      214      219
     484     80      158      157      159      164
     485     80      158      157      159      165
     486     81      158      157      160      166
     487     81      158      157      160      167
     488     77      158      157      160      203
     489     81      158      157      161      168
     490     81      158      157      161      169
     491     77      158      157      161      214
     492     65      159      157      158      162
     493     65      159      157      158      163
     494     65      159      157      160      166
     495     65      159      157      160      167
     496     64      159      157      160      203
     497     65      159      157      161      168
     498     65      159      157      161      169
     499     64      159      157      161      214
     500     81      160      157      158      162
     501     81      160      157      158      163
     502     80      160      157      159      164
     503     80      160      157      159      165
     504     81      160      157      161      168
     505     81      160      157      161      169
     506     77      160      157      161      214
     507     75      160      203      202      204
     508     75      160      203      202      205
     509     76      160      203      202      206
     510     81      161      157      158      162
     511     81      161      157      158      163
     512     80      161      157      159      164
     513     80      161      157      159      165
     514     81      161      157      160      166
     515     81      161      157      160      167
     516     77      161      157      160      203
     517     75      161      214      213      215
     518     75      161      214      213      216
     519     76      161      214      213      217
     520     83      166      160      203      202
     521     90      166      160      203      207
     522     90      166      160      203      208
     523     83      167      160      203      202
     524     90      167      160      203      207
     525     90      167      160      203      208
     526     83      168      161      214      213
     527     90      168      161      214      218
     528     90      168      161      214      219
     529     83      169      161      214      213
     530     90      169      161      214      218
     531     90      169      161      214      219
     532      5      170      174      183      184
     533     36      170      174      183      188
     534     65      171      170      172      177
     535     65      171      170      172      178
     536     65      171      170      173      179
     537     65      171      170      173      180
     538     63      171      170      174      181
     539     63      171      170      174      182
     540     24      171      170      174      183
     541     80      172      170      171      175
     542     80      172      170      171      176
     543     81      172      170      173      179
     544     81      172      170      173      180
     545     80      172      170      174      181
     546     80      172      170      174      182
     547     25      172      170      174      183
     548     80      173      170      171      175
     549     80      173      170      171      176
     550     81      173      170      172      177
     551     81      173      170      172      178
     552     80      173      170      174      181
     553     80      173      170      174      182
     554     25      173      170      174      183
     555     63      174      170      171      175
     556     63      174      170      171      176
     557     65      174      170      172      177
     558     65      174      170      172      178
     559     65      174      170      173      179
     560     65      174      170      173      180
     561     27      174      183      184      185
     562      9      174      183      188      187
     563     55      174      183      188      190
     564      6      181      174      183      184
     565     37      181      174      183      188
     566      6      182      174      183      184
     567     37      182      174      183      188
     568      2      183      184      185      186
     569      3      183      184      185      189
     570      8      183      188      187      186
     571      1      184      183      188      187
     572      3      184      183      188      190
     573     13      184      185      186      187
     574     15      184      185      186      191
     575     26      185      184      183      188
     576     31      185      186      187      188
     577     46      185      186      191      192
     578     46      185      186      191      196
     579     47      186      187      188      190
     580     43      186      191      192      193
     581     53      186      191      192      197
     582     43      186      191      196      195
     583     53      186      191      196      201
     584     16      187      186      185      189
     585     17      187      186      191      192
     586     17      187      186      191      196
     587     32      188      187      186      191
     588     53      189      185      186      191
     589     40      191      192      193      194
     590     51      191      192      193      198
     591     40      191      196      195      194
     592     51      191      196      195      200
     593     42      192      191      196      195
     594     45      192      191      196      201
     595     39      192      193      194      195
     596     41      192      193      194      199
     597     42      193      192      191      196
     598     39      193      194      195      196
     599     41      193      194      195      200
     600     41      194      193      192      197
     601     41      194      195      196      201
     602     41      195      194      193      198
     603     45      196      191      192      197
     604     41      196      195      194      199
     605     85      197      192      193      198
     606     85      198      193      194      199
     607     85      199      194      195      200
     608     85      200      195      196      201
     609     79      203      202      204      209
     610     79      203      202      204      210
     611     79      203      202      205      211
     612     79      203      202      205      212
     613     79      204      202      203      207
     614     79      204      202      203      208
     615     79      204      202      205      211
     616     79      204      202      205      212
     617     79      205      202      203      207
     618     79      205      202      203      208
     619     79      205      202      204      209
     620     79      205      202      204      210
     621     91      206      202      203      207
     622     91      206      202      203      208
     623     91      206      202      204      209
     624     91      206      202      204      210
     625     91      206      202      205      211
     626     91      206      202      205      212
     627     79      214      213      215      220
     628     79      214      213      215      221
     629     79      214      213      216      222
     630     79      214      213      216      223
     631     79      215      213      214      218
     632     79      215      213      214      219
     633     79      215      213      216      222
     634     79      215      213      216      223
     635     79      216      213      214      218
     636     79      216      213      214      219
     637     79      216      213      215      220
     638     79      216      213      215      221
     639     91      217      213      214      218
     640     91      217      213      214      219
     641     91      217      213      215      220
     642     91      217      213      215      221
     643     91      217      213      216      222
     644     91      217      213      216      223
     645     60      225      224      226      231
     646     60      225      224      226      232
     647     62      225      224      227      233
     648     62      225      224      227      234
     649     60      226      224      225      229
     650     60      226      224      225      230
     651     62      226      224      227      233
     652     62      226      224      227      234
     653     78      227      224      225      229
     654     78      227      224      225      230
     655     78      227      224      226      231
     656     78      227      224      226      232
     657     88      228      224      225      229
     658     88      228      224      225      230
     659     88      228      224      226      231
     660     88      228      224      226      232
     661     91      228      224      227      233
     662     91      228      224      227      234

Impropers

       1      2       79      108      109      113
       2      5      108      109      110      114
       3      8      109      110      111      115
       4     10      110      111      112      148
       5      8      111      112      113      116
       6      5      108      113      112      117
       7      2      119      118      123      159
       8      5      118      119      120      124
       9      5      119      120      121      125
      10      2      120      121      122      171
      11      5      121      122      123      126
      12      5      118      123      122      127
      13      2       97      128      129      133
      14      5      128      129      130      134
      15      5      129      130      131      135
      16      2       58      131      130      132
      17      5      131      132      133      136
      18      5      128      133      132      137
      19      2      139      138      143      226
      20      5      138      139      140      144
      21      5      139      140      141      145
      22      2       65      141      140      142
      23      5      141      142      143      146
      24      5      138      143      142      147
      25     10      111      148      149      153
      26      6      148      149      150      154
      27      2       84      150      149      151
      28      4      150      151      152      155
      29      2      151      152      153      225
      30      6      148      153      152      156
      31      1      174      183      184      188
      32      1       23      184      183      185
      33      6      184      185      186      189
      34      9      185      186      187      191
      35      3       30      187      186      188
      36      4      183      188      187      190
      37     10      186      191      192      196
      38      8      191      192      193      197
      39      7      192      193      194      198
      40      7      193      194      195      199
      41      7      194      195      196      200
      42      8      191      196      195      201

