LAMMPS data file generated by clean-room 1-hop pipeline

     120 atoms
     120 bonds
     240 angles
     360 dihedrals
       0 impropers

       2 atom types
       2 bond types
       3 angle types
       3 dihedral types
       0 improper types

  -29.633900    28.899700 xlo xhi
  -29.134000    29.336800 ylo yhi
  -22.810000    23.049900 zlo zhi

Masses

       1    12.011000
       2     1.008000

Pair Coeffs

       1     0.066000     3.500000
       2     0.030000     2.500000

Bond Coeffs

       1   268.000000     1.529000
       2   340.000000     1.090000

Angle Coeffs

       1    58.350000   112.700000
       2    37.500000   110.700000
       3    33.000000   107.800000

Dihedral Coeffs

       1     0.850000    -0.200000     0.200000     0.000000
       2     0.000000     0.000000     0.300000     0.000000
       3     0.000000     0.000000     0.300000     0.000000

Improper Coeffs


Atoms

       1    1      1  -0.19413973    -8.007800     2.786600    -0.032000
       2    1      1  -0.19413973    -6.471900     2.714100     0.087200
       3    1      2   0.09706986    -8.301500     3.277100    -1.018300
       4    1      2   0.09706986    -8.448500     3.370700     0.842400
       5    1      2   0.09706986    -6.043400     2.254000    -0.864200
       6    1      2   0.09706986    -6.240600     2.020100     0.961700
       7    1      1  -0.19413973    -8.503300     1.330600     0.069800
       8    1      1  -0.19413973    -7.763200     0.458500    -0.959300
       9    1      2   0.09706986    -9.633900     1.253600    -0.057200
      10    1      2   0.09706986    -8.216100     0.953100     1.106900
      11    1      2   0.09706986    -8.089500     0.702700    -2.024100
      12    1      2   0.09706986    -6.648800     0.671500    -0.847700
      13    1      1  -0.19413973    -7.981000    -1.026700    -0.611200
      14    1      1  -0.19413973    -7.036200    -1.875100    -1.482000
      15    1      2   0.09706986    -9.069500    -1.340400    -0.739500
      16    1      2   0.09706986    -7.671200    -1.168400     0.476900
      17    1      2   0.09706986    -7.345900    -1.846000    -2.578800
      18    1      2   0.09706986    -5.993900    -1.425500    -1.376900
      19    1      1  -0.19413973    -6.946800    -3.323900    -0.962900
      20    1      1  -0.19413973    -5.771000    -3.985300    -1.702800
      21    1      2   0.09706986    -7.921900    -3.898900    -1.098800
      22    1      2   0.09706986    -6.679900    -3.277600     0.144400
      23    1      2   0.09706986    -4.882500    -3.278900    -1.597400
      24    1      2   0.09706986    -6.004600    -4.124000    -2.810000
      25    1      1  -0.19413973    -5.347200    -5.314300    -1.048700
      26    1      1  -0.19413973    -3.985400    -5.664500    -1.674500
      27    1      2   0.09706986    -6.121400    -6.139500    -1.188000
      28    1      2   0.09706986    -5.183900    -5.121800     0.063100
      29    1      2   0.09706986    -3.336000    -4.733400    -1.571300
      30    1      2   0.09706986    -4.094900    -5.916800    -2.780700
      31    1      1  -0.19413973    -3.249200    -6.788800    -0.922300
      32    1      1  -0.19413973    -1.808600    -6.760700    -1.465300
      33    1      2   0.09706986    -3.750900    -7.803000    -1.060300
      34    1      2   0.09706986    -3.215500    -6.519900     0.185000
      35    1      2   0.09706986    -1.439900    -5.687400    -1.357500
      36    1      2   0.09706986    -1.790400    -7.048500    -2.568200
      37    1      1  -0.19413973    -0.838900    -7.647900    -0.662400
      38    1      1  -0.19413973     0.572400    -7.285400    -1.163400
      39    1      2   0.09706986    -1.070600    -8.755400    -0.803100
      40    1      2   0.09706986    -0.913000    -7.373200     0.441700
      41    1      2   0.09706986     0.704200    -6.160600    -1.032500
      42    1      2   0.09706986     0.672100    -7.545000    -2.269100
      43    1      1  -0.19413973     1.687900    -7.984300    -0.363800
      44    1      1  -0.19413973     3.029700    -7.404200    -0.851300
      45    1      2   0.09706986     1.647700    -9.111800    -0.527100
      46    1      2   0.09706986     1.564800    -7.750100     0.744900
      47    1      2   0.09706986     3.025700    -6.278600    -0.671000
      48    1      2   0.09706986     3.147500    -7.604900    -1.967100
      49    1      1  -0.19413973     4.222900    -8.015600    -0.094100
      50    1      1  -0.19413973     5.507400    -7.316100    -0.579600
      51    1      2   0.09706986     4.277100    -9.134000    -0.306700
      52    1      2   0.09706986     4.099500    -7.843600     1.026100
      53    1      2   0.09706986     5.613700    -7.451000    -1.706400
      54    1      2   0.09706986     6.415700    -7.759300    -0.052400
      55    1      1  -0.19413973     5.389900    -5.818700    -0.238000
      56    1      1  -0.19413973     6.612300    -5.016200    -0.726600
      57    1      2   0.09706986     4.451100    -5.399300    -0.730600
      58    1      2   0.09706986     5.298800    -5.707400     0.892600
      59    1      2   0.09706986     6.681700    -5.078000    -1.862500
      60    1      2   0.09706986     7.570200    -5.418700    -0.258200
      61    1      1  -0.19413973     6.383700    -3.558200    -0.286200
      62    1      1  -0.19413973     7.472100    -2.576000    -0.760700
      63    1      2   0.09706986     5.386600    -3.207300    -0.712900
      64    1      2   0.09706986     6.329200    -3.527800     0.851700
      65    1      2   0.09706986     7.496000    -2.551200    -1.900100
      66    1      2   0.09706986     8.498300    -2.854800    -0.350400
      67    1      1  -0.19413973     7.012200    -1.217100    -0.202800
      68    1      1  -0.19413973     7.817500     0.019800    -0.642900
      69    1      2   0.09706986     5.942200    -1.054400    -0.560400
      70    1      2   0.09706986     7.009900    -1.273500     0.935700
      71    1      2   0.09706986     7.774000     0.119100    -1.777700
      72    1      2   0.09706986     8.899700    -0.010200    -0.286000
      73    1      1  -0.19413973     7.023400     1.154600     0.026200
      74    1      1  -0.19413973     7.355600     2.604200    -0.371500
      75    1      2   0.09706986     5.934900     0.997400    -0.273000
      76    1      2   0.09706986     7.103900     1.045600     1.158000
      77    1      2   0.09706986     7.223600     2.721800    -1.497700
      78    1      2   0.09706986     8.399000     2.934700    -0.052400
      79    1      1  -0.19413973     6.241700     3.362700     0.371500
      80    1      1  -0.19413973     6.000600     4.832400    -0.013300
      81    1      2   0.09706986     5.272000     2.822700     0.111500
      82    1      2   0.09706986     6.410600     3.276900     1.495500
      83    1      2   0.09706986     5.796000     4.890300    -1.133400
      84    1      2   0.09706986     6.862800     5.522400     0.270600
      85    1      1  -0.19413973     4.708800     5.148600     0.764600
      86    1      1  -0.19413973     3.988500     6.443000     0.349300
      87    1      2   0.09706986     3.980700     4.300600     0.539700
      88    1      2   0.09706986     4.926600     5.154600     1.883700
      89    1      2   0.09706986     3.759500     6.387400    -0.766100
      90    1      2   0.09706986     4.605000     7.374900     0.576900
      91    1      1  -0.19413973     2.667400     6.425300     1.144800
      92    1      1  -0.19413973     1.654100     7.489700     0.683400
      93    1      2   0.09706986     2.176900     5.409000     0.982500
      94    1      2   0.09706986     2.897600     6.551700     2.254300
      95    1      2   0.09706986     1.401200     7.308800    -0.413500
      96    1      2   0.09706986     2.079900     8.539400     0.811700
      97    1      1  -0.19413973     0.379700     7.327800     1.536000
      98    1      1  -0.19413973    -0.743400     8.254600     1.036300
      99    1      2   0.09706986     0.008400     6.251300     1.472400
     100    1      2   0.09706986     0.626500     7.574500     2.621700
     101    1      2   0.09706986    -0.383700     9.336800     1.041900
     102    1      2   0.09706986    -1.051000     7.956900    -0.020300
     103    1      1  -0.19413973    -1.926100     8.112200     2.013600
     104    1      1  -0.19413973    -2.414000     6.658400     2.181200
     105    1      2   0.09706986    -1.547100     8.461100     3.030600
     106    1      2   0.09706986    -2.794400     8.777300     1.692200
     107    1      2   0.09706986    -1.519500     6.001800     2.445500
     108    1      2   0.09706986    -3.152700     6.634600     3.049900
     109    1      1  -0.19413973    -3.146800     6.056200     0.964700
     110    1      1  -0.19413973    -3.457300     4.625700     1.442100
     111    1      2   0.09706986    -2.477100     6.041700     0.042200
     112    1      2   0.09706986    -4.103000     6.641000     0.755300
     113    1      2   0.09706986    -2.448900     4.130700     1.636100
     114    1      2   0.09706986    -4.006800     4.718000     2.436500
     115    1      1  -0.19413973    -5.762100     4.042900     0.416000
     116    1      1  -0.19413973    -4.281100     3.648300     0.577500
     117    1      2   0.09706986    -5.900700     4.852500    -0.374800
     118    1      2   0.09706986    -6.168200     4.403000     1.418600
     119    1      2   0.09706986    -3.799900     3.455000    -0.438500
     120    1      2   0.09706986    -4.283000     2.672400     1.167300

Bonds

       1      1        1        2
       2      2        1        3
       3      2        1        4
       4      1        1        7
       5      2        2        5
       6      2        2        6
       7      1        2      115
       8      1        7        8
       9      2        7        9
      10      2        7       10
      11      2        8       11
      12      2        8       12
      13      1        8       13
      14      1       13       14
      15      2       13       15
      16      2       13       16
      17      2       14       17
      18      2       14       18
      19      1       14       19
      20      1       19       20
      21      2       19       21
      22      2       19       22
      23      2       20       23
      24      2       20       24
      25      1       20       25
      26      1       25       26
      27      2       25       27
      28      2       25       28
      29      2       26       29
      30      2       26       30
      31      1       26       31
      32      1       31       32
      33      2       31       33
      34      2       31       34
      35      2       32       35
      36      2       32       36
      37      1       32       37
      38      1       37       38
      39      2       37       39
      40      2       37       40
      41      2       38       41
      42      2       38       42
      43      1       38       43
      44      1       43       44
      45      2       43       45
      46      2       43       46
      47      2       44       47
      48      2       44       48
      49      1       44       49
      50      1       49       50
      51      2       49       51
      52      2       49       52
      53      2       50       53
      54      2       50       54
      55      1       50       55
      56      1       55       56
      57      2       55       57
      58      2       55       58
      59      2       56       59
      60      2       56       60
      61      1       56       61
      62      1       61       62
      63      2       61       63
      64      2       61       64
      65      2       62       65
      66      2       62       66
      67      1       62       67
      68      1       67       68
      69      2       67       69
      70      2       67       70
      71      2       68       71
      72      2       68       72
      73      1       68       73
      74      1       73       74
      75      2       73       75
      76      2       73       76
      77      2       74       77
      78      2       74       78
      79      1       74       79
      80      1       79       80
      81      2       79       81
      82      2       79       82
      83      2       80       83
      84      2       80       84
      85      1       80       85
      86      1       85       86
      87      2       85       87
      88      2       85       88
      89      2       86       89
      90      2       86       90
      91      1       86       91
      92      1       91       92
      93      2       91       93
      94      2       91       94
      95      2       92       95
      96      2       92       96
      97      1       92       97
      98      1       97       98
      99      2       97       99
     100      2       97      100
     101      2       98      101
     102      2       98      102
     103      1       98      103
     104      1      103      104
     105      2      103      105
     106      2      103      106
     107      2      104      107
     108      2      104      108
     109      1      104      109
     110      1      109      110
     111      2      109      111
     112      2      109      112
     113      2      110      113
     114      2      110      114
     115      1      110      116
     116      1      115      116
     117      2      115      117
     118      2      115      118
     119      2      116      119
     120      2      116      120

Angles

       1      2        1        2        5
       2      2        1        2        6
       3      1        1        2      115
       4      1        1        7        8
       5      2        1        7        9
       6      2        1        7       10
       7      2        2        1        3
       8      2        2        1        4
       9      1        2        1        7
      10      1        2      115      116
      11      2        2      115      117
      12      2        2      115      118
      13      3        3        1        4
      14      2        3        1        7
      15      2        4        1        7
      16      3        5        2        6
      17      2        5        2      115
      18      2        6        2      115
      19      2        7        8       11
      20      2        7        8       12
      21      1        7        8       13
      22      2        8        7        9
      23      2        8        7       10
      24      1        8       13       14
      25      2        8       13       15
      26      2        8       13       16
      27      3        9        7       10
      28      3       11        8       12
      29      2       11        8       13
      30      2       12        8       13
      31      2       13       14       17
      32      2       13       14       18
      33      1       13       14       19
      34      2       14       13       15
      35      2       14       13       16
      36      1       14       19       20
      37      2       14       19       21
      38      2       14       19       22
      39      3       15       13       16
      40      3       17       14       18
      41      2       17       14       19
      42      2       18       14       19
      43      2       19       20       23
      44      2       19       20       24
      45      1       19       20       25
      46      2       20       19       21
      47      2       20       19       22
      48      1       20       25       26
      49      2       20       25       27
      50      2       20       25       28
      51      3       21       19       22
      52      3       23       20       24
      53      2       23       20       25
      54      2       24       20       25
      55      2       25       26       29
      56      2       25       26       30
      57      1       25       26       31
      58      2       26       25       27
      59      2       26       25       28
      60      1       26       31       32
      61      2       26       31       33
      62      2       26       31       34
      63      3       27       25       28
      64      3       29       26       30
      65      2       29       26       31
      66      2       30       26       31
      67      2       31       32       35
      68      2       31       32       36
      69      1       31       32       37
      70      2       32       31       33
      71      2       32       31       34
      72      1       32       37       38
      73      2       32       37       39
      74      2       32       37       40
      75      3       33       31       34
      76      3       35       32       36
      77      2       35       32       37
      78      2       36       32       37
      79      2       37       38       41
      80      2       37       38       42
      81      1       37       38       43
      82      2       38       37       39
      83      2       38       37       40
      84      1       38       43       44
      85      2       38       43       45
      86      2       38       43       46
      87      3       39       37       40
      88      3       41       38       42
      89      2       41       38       43
      90      2       42       38       43
      91      2       43       44       47
      92      2       43       44       48
      93      1       43       44       49
      94      2       44       43       45
      95      2       44       43       46
      96      1       44       49       50
      97      2       44       49       51
      98      2       44       49       52
      99      3       45       43       46
     100      3       47       44       48
     101      2       47       44       49
     102      2       48       44       49
     103      2       49       50       53
     104      2       49       50       54
     105      1       49       50       55
     106      2       50       49       51
     107      2       50       49       52
     108      1       50       55       56
     109      2       50       55       57
     110      2       50       55       58
     111      3       51       49       52
     112      3       53       50       54
     113      2       53       50       55
     114      2       54       50       55
     115      2       55       56       59
     116      2       55       56       60
     117      1       55       56       61
     118      2       56       55       57
     119      2       56       55       58
     120      1       56       61       62
     121      2       56       61       63
     122      2       56       61       64
     123      3       57       55       58
     124      3       59       56       60
     125      2       59       56       61
     126      2       60       56       61
     127      2       61       62       65
     128      2       61       62       66
     129      1       61       62       67
     130      2       62       61       63
     131      2       62       61       64
     132      1       62       67       68
     133      2       62       67       69
     134      2       62       67       70
     135      3       63       61       64
     136      3       65       62       66
     137      2       65       62       67
     138      2       66       62       67
     139      2       67       68       71
     140      2       67       68       72
     141      1       67       68       73
     142      2       68       67       69
     143      2       68       67       70
     144      1       68       73       74
     145      2       68       73       75
     146      2       68       73       76
     147      3       69       67       70
     148      3       71       68       72
     149      2       71       68       73
     150      2       72       68       73
     151      2       73       74       77
     152      2       73       74       78
     153      1       73       74       79
     154      2       74       73       75
     155      2       74       73       76
     156      1       74       79       80
     157      2       74       79       81
     158      2       74       79       82
     159      3       75       73       76
     160      3       77       74       78
     161      2       77       74       79
     162      2       78       74       79
     163      2       79       80       83
     164      2       79       80       84
     165      1       79       80       85
     166      2       80       79       81
     167      2       80       79       82
     168      1       80       85       86
     169      2       80       85       87
     170      2       80       85       88
     171      3       81       79       82
     172      3       83       80       84
     173      2       83       80       85
     174      2       84       80       85
     175      2       85       86       89
     176      2       85       86       90
     177      1       85       86       91
     178      2       86       85       87
     179      2       86       85       88
     180      1       86       91       92
     181      2       86       91       93
     182      2       86       91       94
     183      3       87       85       88
     184      3       89       86       90
     185      2       89       86       91
     186      2       90       86       91
     187      2       91       92       95
     188      2       91       92       96
     189      1       91       92       97
     190      2       92       91       93
     191      2       92       91       94
     192      1       92       97       98
     193      2       92       97       99
     194      2       92       97      100
     195      3       93       91       94
     196      3       95       92       96
     197      2       95       92       97
     198      2       96       92       97
     199      2       97       98      101
     200      2       97       98      102
     201      1       97       98      103
     202      2       98       97       99
     203      2       98       97      100
     204      1       98      103      104
     205      2       98      103      105
     206      2       98      103      106
     207      3       99       97      100
     208      3      101       98      102
     209      2      101       98      103
     210      2      102       98      103
     211      2      103      104      107
     212      2      103      104      108
     213      1      103      104      109
     214      2      104      103      105
     215      2      104      103      106
     216      1      104      109      110
     217      2      104      109      111
     218      2      104      109      112
     219      3      105      103      106
     220      3      107      104      108
     221      2      107      104      109
     222      2      108      104      109
     223      2      109      110      113
     224      2      109      110      114
     225      1      109      110      116
     226      2      110      109      111
     227      2      110      109      112
     228      1      110      116      115
     229      2      110      116      119
     230      2      110      116      120
     231      3      111      109      112
     232      3      113      110      114
     233      2      113      110      116
     234      2      114      110      116
     235      2      115      116      119
     236      2      115      116      120
     237      2      116      115      117
     238      2      116      115      118
     239      3      117      115      118
     240      3      119      116      120

Dihedrals

       1      1        1        2      115      116
       2      2        1        2      115      117
       3      2        1        2      115      118
       4      2        1        7        8       11
       5      2        1        7        8       12
       6      1        1        7        8       13
       7      1        2        1        7        8
       8      2        2        1        7        9
       9      2        2        1        7       10
      10      1        2      115      116      110
      11      2        2      115      116      119
      12      2        2      115      116      120
      13      3        3        1        2        5
      14      3        3        1        2        6
      15      2        3        1        2      115
      16      2        3        1        7        8
      17      3        3        1        7        9
      18      3        3        1        7       10
      19      3        4        1        2        5
      20      3        4        1        2        6
      21      2        4        1        2      115
      22      2        4        1        7        8
      23      3        4        1        7        9
      24      3        4        1        7       10
      25      2        5        2        1        7
      26      2        5        2      115      116
      27      3        5        2      115      117
      28      3        5        2      115      118
      29      2        6        2        1        7
      30      2        6        2      115      116
      31      3        6        2      115      117
      32      3        6        2      115      118
      33      1        7        1        2      115
      34      1        7        8       13       14
      35      2        7        8       13       15
      36      2        7        8       13       16
      37      2        8       13       14       17
      38      2        8       13       14       18
      39      1        8       13       14       19
      40      3        9        7        8       11
      41      3        9        7        8       12
      42      2        9        7        8       13
      43      3       10        7        8       11
      44      3       10        7        8       12
      45      2       10        7        8       13
      46      2       11        8       13       14
      47      3       11        8       13       15
      48      3       11        8       13       16
      49      2       12        8       13       14
      50      3       12        8       13       15
      51      3       12        8       13       16
      52      1       13       14       19       20
      53      2       13       14       19       21
      54      2       13       14       19       22
      55      2       14       19       20       23
      56      2       14       19       20       24
      57      1       14       19       20       25
      58      3       15       13       14       17
      59      3       15       13       14       18
      60      2       15       13       14       19
      61      3       16       13       14       17
      62      3       16       13       14       18
      63      2       16       13       14       19
      64      2       17       14       19       20
      65      3       17       14       19       21
      66      3       17       14       19       22
      67      2       18       14       19       20
      68      3       18       14       19       21
      69      3       18       14       19       22
      70      1       19       20       25       26
      71      2       19       20       25       27
      72      2       19       20       25       28
      73      2       20       25       26       29
      74      2       20       25       26       30
      75      1       20       25       26       31
      76      3       21       19       20       23
      77      3       21       19       20       24
      78      2       21       19       20       25
      79      3       22       19       20       23
      80      3       22       19       20       24
      81      2       22       19       20       25
      82      2       23       20       25       26
      83      3       23       20       25       27
      84      3       23       20       25       28
      85      2       24       20       25       26
      86      3       24       20       25       27
      87      3       24       20       25       28
      88      1       25       26       31       32
      89      2       25       26       31       33
      90      2       25       26       31       34
      91      2       26       31       32       35
      92      2       26       31       32       36
      93      1       26       31       32       37
      94      3       27       25       26       29
      95      3       27       25       26       30
      96      2       27       25       26       31
      97      3       28       25       26       29
      98      3       28       25       26       30
      99      2       28       25       26       31
     100      2       29       26       31       32
     101      3       29       26       31       33
     102      3       29       26       31       34
     103      2       30       26       31       32
     104      3       30       26       31       33
     105      3       30       26       31       34
     106      1       31       32       37       38
     107      2       31       32       37       39
     108      2       31       32       37       40
     109      2       32       37       38       41
     110      2       32       37       38       42
     111      1       32       37       38       43
     112      3       33       31       32       35
     113      3       33       31       32       36
     114      2       33       31       32       37
     115      3       34       31       32       35
     116      3       34       31       32       36
     117      2       34       31       32       37
     118      2       35       32       37       38
     119      3       35       32       37       39
     120      3       35       32       37       40
     121      2       36       32       37       38
     122      3       36       32       37       39
     123      3       36       32       37       40
     124      1       37       38       43       44
     125      2       37       38       43       45
     126      2       37       38       43       46
     127      2       38       43       44       47
     128      2       38       43       44       48
     129      1       38       43       44       49
     130      3       39       37       38       41
     131      3       39       37       38       42
     132      2       39       37       38       43
     133      3       40       37       38       41
     134      3       40       37       38       42
     135      2       40       37       38       43
     136      2       41       38       43       44
     137      3       41       38       43       45
     138      3       41       38       43       46
     139      2       42       38       43       44
     140      3       42       38       43       45
     141      3       42       38       43       46
     142      1       43       44       49       50
     143      2       43       44       49       51
     144      2       43       44       49       52
     145      2       44       49       50       53
     146      2       44       49       50       54
     147      1       44       49       50       55
     148      3       45       43       44       47
     149      3       45       43       44       48
     150      2       45       43       44       49
     151      3       46       43       44       47
     152      3       46       43       44       48
     153      2       46       43       44       49
     154      2       47       44       49       50
     155      3       47       44       49       51
     156      3       47       44       49       52
     157      2       48       44       49       50
     158      3       48       44       49       51
     159      3       48       44       49       52
     160      1       49       50       55       56
     161      2       49       50       55       57
     162      2       49       50       55       58
     163      2       50       55       56       59
     164      2       50       55       56       60
     165      1       50       55       56       61
     166      3       51       49       50       53
     167      3       51       49       50       54
     168      2       51       49       50       55
     169      3       52       49       50       53
     170      3       52       49       50       54
     171      2       52       49       50       55
     172      2       53       50       55       56
     173      3       53       50       55       57
     174      3       53       50       55       58
     175      2       54       50       55       56
     176      3       54       50       55       57
     177      3       54       50       55       58
     178      1       55       56       61       62
     179      2       55       56       61       63
     180      2       55       56       61       64
     181      2       56       61       62       65
     182      2       56       61       62       66
     183      1       56       61       62       67
     184      3       57       55       56       59
     185      3       57       55       56       60
     186      2       57       55       56       61
     187      3       58       55       56       59
     188      3       58       55       56       60
     189      2       58       55       56       61
     190      2       59       56       61       62
     191      3       59       56       61       63
     192      3       59       56       61       64
     193      2       60       56       61       62
     194      3       60       56       61       63
     195      3       60       56       61       64
     196      1       61       62       67       68
     197      2       61       62       67       69
     198      2       61       62       67       70
     199      2       62       67       68       71
     200      2       62       67       68       72
     201      1       62       67       68       73
     202      3       63       61       62       65
     203      3       63       61       62       66
     204      2       63       61       62       67
     205      3       64       61       62       65
     206      3       64       61       62       66
     207      2       64       61       62       67
     208      2       65       62       67       68
     209      3       65       62       67       69
     210      3       65       62       67       70
     211      2       66       62       67       68
     212      3       66       62       67       69
     213      3       66       62       67       70
     214      1       67       68       73       74
     215      2       67       68       73       75
     216      2       67       68       73       76
     217      2       68       73       74       77
     218      2       68       73       74       78
     219      1       68       73       74       79
     220      3       69       67       68       71
     221      3       69       67       68       72
     222      2       69       67       68       73
     223      3       70       67       68       71
     224      3       70       67       68       72
     225      2       70       67       68       73
     226      2       71       68       73       74
     227      3       71       68       73       75
     228      3       71       68       73       76
     229      2       72       68       73       74
     230      3       72       68       73       75
     231      3       72       68       73       76
     232      1       73       74       79       80
     233      2       73       74       79       81
     234      2       73       74       79       82
     235      2       74       79       80       83
     236      2       74       79       80       84
     237      1       74       79       80       85
     238      3       75       73       74       77
     239      3       75       73       74       78
     240      2       75       73       74       79
     241      3       76       73       74       77
     242      3       76       73       74       78
     243      2       76       73       74       79
     244      2       77       74       79       80
     245      3       77       74       79       81
     246      3       77       74       79       82
     247      2       78       74       79       80
     248      3       78       74       79       81
     249      3       78       74       79       82
     250      1       79       80       85       86
     251      2       79       80       85       87
     252      2       79       80       85       88
     253      2       80       85       86       89
     254      2       80       85       86       90
     255      1       80       85       86       91
     256      3       81       79       80       83
     257      3       81       79       80       84
     258      2       81       79       80       85
     259      3       82       79       80       83
     260      3       82       79       80       84
     261      2       82       79       80       85
     262      2       83       80       85       86
     263      3       83       80       85       87
     264      3       83       80       85       88
     265      2       84       80       85       86
     266      3       84       80       85       87
     267      3       84       80       85       88
     268      1       85       86       91       92
     269      2       85       86       91       93
     270      2       85       86       91       94
     271      2       86       91       92       95
     272      2       86       91       92       96
     273      1       86       91       92       97
     274      3       87       85       86       89
     275      3       87       85       86       90
     276      2       87       85       86       91
     277      3       88       85       86       89
     278      3       88       85       86       90
     279      2       88       85       86       91
     280      2       89       86       91       92
     281      3       89       86       91       93
     282      3       89       86       91       94
     283      2       90       86       91       92
     284      3       90       86       91       93
     285      3       90       86       91       94
     286      1       91       92       97       98
     287      2       91       92       97       99
     288      2       91       92       97      100
     289      2       92       97       98      101
     290      2       92       97       98      102
     291      1       92       97       98      103
     292      3       93       91       92       95
     293      3       93       91       92       96
     294      2       93       91       92       97
     295      3       94       91       92       95
     296      3       94       91       92       96
     297      2       94       91       92       97
     298      2       95       92       97       98
     299      3       95       92       97       99
     300      3       95       92       97      100
     301      2       96       92       97       98
     302      3       96       92       97       99
     303      3       96       92       97      100
     304      1       97       98      103      104
     305      2       97       98      103      105
     306      2       97       98      103      106
     307      2       98      103      104      107
     308      2       98      103      104      108
     309      1       98      103      104      109
     310      3       99       97       98      101
     311      3       99       97       98      102
     312      2       99       97       98      103
     313      3      100       97       98      101
     314      3      100       97       98      102
     315      2      100       97       98      103
     316      2      101       98      103      104
     317      3      101       98      103      105
     318      3      101       98      103      106
     319      2      102       98      103      104
     320      3      102       98      103      105
     321      3      102       98      103      106
     322      1      103      104      109      110
     323      2      103      104      109      111
     324      2      103      104      109      112
     325      2      104      109      110      113
     326      2      104      109      110      114
     327      1      104      109      110      116
     328      3      105      103      104      107
     329      3      105      103      104      108
     330      2      105      103      104      109
     331      3      106      103      104      107
     332      3      106      103      104      108
     333      2      106      103      104      109
     334      2      107      104      109      110
     335      3      107      104      109      111
     336      3      107      104      109      112
     337      2      108      104      109      110
     338      3      108      104      109      111
     339      3      108      104      109      112
     340      1      109      110      116      115
     341      2      109      110      116      119
     342      2      109      110      116      120
     343      2      110      116      115      117
     344      2      110      116      115      118
     345      3      111      109      110      113
     346      3      111      109      110      114
     347      2      111      109      110      116
     348      3      112      109      110      113
     349      3      112      109      110      114
     350      2      112      109      110      116
     351      2      113      110      116      115
     352      3      113      110      116      119
     353      3      113      110      116      120
     354      2      114      110      116      115
     355      3      114      110      116      119
     356      3      114      110      116      120
     357      3      117      115      116      119
     358      3      117      115      116      120
     359      3      118      115      116      119
     360      3      118      115      116      120

Impropers


