LAMMPS data file generated by clean-room 1-hop pipeline

     227 atoms
     226 bonds
     450 angles
     666 dihedrals
       0 impropers

       4 atom types
       5 bond types
      10 angle types
      11 dihedral types
       0 improper types

  -28.247900    28.960600 xlo xhi
  -37.624900    40.159500 ylo yhi
  -36.940100    39.412400 zlo zhi

Masses

       1    12.011000
       2    12.011000
       3    12.011000
       4     1.008000

Pair Coeffs

       1     0.066000     3.500000
       2     0.066000     3.500000
       3     0.066000     3.500000
       4     0.030000     2.500000

Bond Coeffs

       1   268.000000     1.529000
       2   340.000000     1.090000
       3   268.000000     1.529000
       4   268.000000     1.529000
       5   340.000000     1.090000

Angle Coeffs

       1    58.350000   112.700000
       2    37.500000   110.700000
       3    37.500000   110.700000
       4    58.350000   112.700000
       5    58.350000   112.700000
       6    37.500000   110.700000
       7    58.350000   112.700000
       8    37.500000   110.700000
       9    33.000000   107.800000
      10    33.000000   107.800000

Dihedral Coeffs

       1     0.850000    -0.200000     0.200000     0.000000
       2     0.000000     0.000000     0.300000     0.000000
       3     0.000000     0.000000     0.300000     0.000000
       4     0.850000    -0.200000     0.200000     0.000000
       5     0.850000    -0.200000     0.200000     0.000000
       6     0.000000     0.000000     0.300000     0.000000
       7     0.850000    -0.200000     0.200000     0.000000
       8     0.000000     0.000000     0.300000     0.000000
       9     0.000000     0.000000     0.300000     0.000000
      10     0.000000     0.000000     0.300000     0.000000
      11     0.000000     0.000000     0.300000     0.000000

Improper Coeffs


Atoms

       1    1      1  -0.26501692    -1.002600    -9.411600    18.493100
       2    1      2  -0.19436555    -1.624100   -10.742600    18.031300
       3    1      4   0.09684404    -0.351100    -9.586600    19.412400
       4    1      4   0.09684404    -0.366300    -8.981600    17.650400
       5    1      4   0.09684404    -1.835900    -8.678000    18.751500
       6    1      4   0.09684404    -2.267200   -11.174100    18.867800
       7    1      4   0.09684404    -0.793900   -11.479300    17.771200
       8    1      1  -0.26501692    -7.070400   -16.873900   -16.207300
       9    1      2  -0.19436555    -7.387500   -15.516600   -15.549300
      10    1      4   0.09684404    -6.206300   -16.746400   -16.940100
      11    1      4   0.09684404    -6.776900   -17.624900   -15.401300
      12    1      4   0.09684404    -7.988900   -17.255000   -16.765300
      13    1      4   0.09684404    -8.247900   -15.644500   -14.812200
      14    1      4   0.09684404    -7.681200   -14.762400   -16.352400
      15    1      1  -0.26501692    -1.277500    15.596900     1.224000
      16    1      2  -0.19436555    -1.206000    14.142600     1.728600
      17    1      4   0.09684404    -1.112600    15.608200     0.096200
      18    1      4   0.09684404    -2.301400    16.038200     1.462200
      19    1      4   0.09684404    -0.467400    16.217300     1.732200
      20    1      4   0.09684404    -1.365500    14.113800     2.857200
      21    1      4   0.09684404    -2.015500    13.526800     1.213400
      22    1      1  -0.26501692     7.936200    19.433700    -0.576500
      23    1      2  -0.19436555     6.923800    18.277900    -0.687200
      24    1      4   0.09684404     8.001200    19.981300    -1.574300
      25    1      4   0.09684404     7.596000    20.159500     0.234300
      26    1      4   0.09684404     8.960600    19.013600    -0.304900
      27    1      4   0.09684404     7.261100    17.546600    -1.494100
      28    1      4   0.09684404     5.899100    18.698500    -0.956700
      29    1      2  -0.19436555    -2.493600   -10.490300    16.784700
      30    1      2  -0.19436555    -1.610800    -9.883500    15.678600
      31    1      4   0.09684404    -2.941100   -11.474500    16.422500
      32    1      4   0.09684404    -3.331200    -9.760500    17.041400
      33    1      4   0.09684404    -1.168500    -8.900500    16.050200
      34    1      4   0.09684404    -0.766900   -10.608300    15.429800
      35    1      2  -0.19436555    -2.451600    -9.629000    14.411900
      36    1      2  -0.19436555    -1.548800    -9.005400    13.330300
      37    1      4   0.09684404    -2.876000   -10.617700    14.034700
      38    1      4   0.09684404    -3.305700    -8.912800    14.652500
      39    1      4   0.09684404    -1.134800    -8.017700    13.720200
      40    1      4   0.09684404    -0.684600    -9.713600    13.105000
      41    1      2  -0.19436555    -2.345300    -8.744100    12.037600
      42    1      2  -0.19436555    -1.406300    -8.085700    11.009000
      43    1      4   0.09684404    -3.216000    -8.042900    12.260600
      44    1      4   0.09684404    -2.745200    -9.728100    11.623300
      45    1      4   0.09684404    -1.017400    -7.104700    11.440200
      46    1      4   0.09684404    -0.525900    -8.780700    10.806200
      47    1      2  -0.19436555    -2.139100    -7.803400     9.683700
      48    1      2  -0.19436555    -1.158300    -7.105800     8.720500
      49    1      4   0.09684404    -3.033800    -7.122700     9.871500
      50    1      4   0.09684404    -2.496500    -8.785100     9.228200
      51    1      4   0.09684404    -0.812400    -6.126300     9.190600
      52    1      4   0.09684404    -0.256700    -7.782400     8.549900
      53    1      2  -0.19436555    -1.829700    -6.811100     7.363700
      54    1      2  -0.19436555    -0.826000    -6.082800     6.445200
      55    1      4   0.09684404    -2.747300    -6.153000     7.521200
      56    1      4   0.09684404    -2.143100    -7.794600     6.879500
      57    1      4   0.09684404    -0.532400    -5.087800     6.918200
      58    1      4   0.09684404     0.102000    -6.731900     6.312700
      59    1      2  -0.19436555    -1.468700    -5.830600     5.065800
      60    1      2  -0.19436555    -0.494600    -5.098100     4.119100
      61    1      4   0.09684404    -2.410100    -5.200400     5.194300
      62    1      4   0.09684404    -1.747200    -6.835000     4.603100
      63    1      4   0.09684404    -0.246800    -4.064600     4.531300
      64    1      4   0.09684404     0.461400    -5.709500     4.012700
      65    1      2  -0.19436555    -1.183100    -4.990800     2.745500
      66    1      2  -0.19436555    -0.330000    -4.320100     1.646900
      67    1      4   0.09684404    -2.160000    -4.413500     2.854700
      68    1      4   0.09684404    -1.421100    -6.051500     2.402400
      69    1      4   0.09684404    -0.146700    -3.219100     1.878800
      70    1      4   0.09684404     0.661700    -4.870200     1.531800
      71    1      2  -0.19436555    -1.170600    -4.502100     0.371000
      72    1      2  -0.19436555    -0.602100    -4.022900    -0.983800
      73    1      4   0.09684404    -2.179200    -3.993600     0.526100
      74    1      4   0.09684404    -1.346000    -5.624000     0.268000
      75    1      4   0.09684404    -1.363000    -4.406400    -1.736200
      76    1      4   0.09684404     0.404500    -4.506700    -1.214200
      77    1      2  -0.19436555    -2.064300    -2.967900    -4.714200
      78    1      2  -0.19436555    -1.320600    -4.142500    -5.380700
      79    1      4   0.09684404    -1.936400    -1.984700    -5.276900
      80    1      4   0.09684404    -3.164200    -3.265500    -4.751900
      81    1      4   0.09684404    -0.225400    -3.903800    -5.588400
      82    1      4   0.09684404    -1.388800    -5.034800    -4.674800
      83    1      2  -0.19436555    -2.125000    -4.511500    -6.645700
      84    1      2  -0.19436555    -1.677400    -5.848200    -7.277100
      85    1      4   0.09684404    -2.082200    -3.671300    -7.415200
      86    1      4   0.09684404    -3.205500    -4.652300    -6.310200
      87    1      4   0.09684404    -0.643000    -5.744000    -7.745000
      88    1      4   0.09684404    -1.653400    -6.647900    -6.464800
      89    1      2  -0.19436555    -2.731300    -6.267800    -8.325800
      90    1      2  -0.19436555    -2.421600    -7.652300    -8.937100
      91    1      4   0.09684404    -2.793700    -5.483600    -9.151300
      92    1      4   0.09684404    -3.739100    -6.338600    -7.797200
      93    1      4   0.09684404    -1.449900    -7.607800    -9.532000
      94    1      4   0.09684404    -2.318500    -8.414000    -8.095100
      95    1      2  -0.19436555    -3.592200    -8.083200    -9.847100
      96    1      2  -0.19436555    -3.325700    -9.471300   -10.464200
      97    1      4   0.09684404    -3.727100    -7.321600   -10.684500
      98    1      4   0.09684404    -4.544500    -8.130600    -9.221900
      99    1      4   0.09684404    -2.397500    -9.415800   -11.123600
     100    1      4   0.09684404    -3.152900   -10.230900    -9.631900
     101    1      2  -0.19436555    -4.541100    -9.920300   -11.303000
     102    1      2  -0.19436555    -4.272700   -11.300900   -11.932800
     103    1      4   0.09684404    -4.741800    -9.161600   -12.129800
     104    1      4   0.09684404    -5.453800    -9.990700   -10.623700
     105    1      4   0.09684404    -3.374400   -11.224700   -12.630600
     106    1      4   0.09684404    -4.045300   -12.052800   -11.106700
     107    1      2  -0.19436555    -5.506200   -11.776900   -12.728700
     108    1      2  -0.19436555    -5.216000   -13.145400   -13.371600
     109    1      4   0.09684404    -5.747600   -11.023100   -13.548800
     110    1      4   0.09684404    -6.399600   -11.869500   -12.027000
     111    1      4   0.09684404    -4.951800   -13.898300   -12.557700
     112    1      4   0.09684404    -4.336700   -13.041400   -14.089400
     113    1      2  -0.19436555    -6.454800   -13.644800   -14.141100
     114    1      2  -0.19436555    -6.144800   -15.006300   -14.792400
     115    1      4   0.09684404    -6.728500   -12.892900   -14.953100
     116    1      4   0.09684404    -7.329900   -13.758400   -13.419000
     117    1      4   0.09684404    -5.276100   -14.885400   -15.520500
     118    1      4   0.09684404    -5.862200   -15.760500   -13.985700
     119    1      2  -0.19436555     2.151400    -2.713200    -2.671500
     120    1      2  -0.19436555     2.681900    -1.270900    -2.738300
     121    1      4   0.09684404     2.893200    -3.378600    -3.225400
     122    1      4   0.09684404     2.108600    -3.040500    -1.580200
     123    1      4   0.09684404     2.020500    -0.585100    -2.112300
     124    1      4   0.09684404     2.696800    -0.915000    -3.821300
     125    1      2  -0.19436555     4.119900    -1.282700    -2.184500
     126    1      2  -0.19436555     4.774200     0.114200    -2.207300
     127    1      4   0.09684404     4.744100    -1.992400    -2.822200
     128    1      4   0.09684404     4.102600    -1.662700    -1.110000
     129    1      4   0.09684404     4.793500     0.517700    -3.273200
     130    1      4   0.09684404     5.842000     0.022900    -1.818300
     131    1      2  -0.19436555     3.996700     1.080400    -1.295400
     132    1      2  -0.19436555     4.710800     2.446100    -1.240500
     133    1      4   0.09684404     2.938200     1.212600    -1.697300
     134    1      4   0.09684404     3.951100     0.650300    -0.240500
     135    1      4   0.09684404     4.764800     2.894000    -2.287200
     136    1      4   0.09684404     5.763100     2.317700    -0.821300
     137    1      2  -0.19436555     3.888400     3.369700    -0.324400
     138    1      2  -0.19436555     4.509800     4.778100    -0.220500
     139    1      4   0.09684404     2.838900     3.458400    -0.761200
     140    1      4   0.09684404     3.821100     2.912300     0.717900
     141    1      4   0.09684404     4.596900     5.234200    -1.261500
     142    1      4   0.09684404     5.537600     4.732500     0.270500
     143    1      2  -0.19436555     3.539100     5.624800     0.620000
     144    1      2  -0.19436555     3.959900     7.102900     0.734500
     145    1      4   0.09684404     2.531200     5.593600     0.088400
     146    1      4   0.09684404     3.424700     5.172000     1.659700
     147    1      4   0.09684404     4.114700     7.527300    -0.311900
     148    1      4   0.09684404     4.916300     7.236200     1.340400
     149    1      2  -0.19436555     2.767500     7.822500     1.390600
     150    1      2  -0.19436555     2.904000     9.352500     1.300600
     151    1      4   0.09684404     1.830300     7.540500     0.806400
     152    1      4   0.09684404     2.648500     7.485000     2.472700
     153    1      4   0.09684404     3.013500     9.634200     0.203300
     154    1      4   0.09684404     3.804500     9.732500     1.887600
     155    1      2  -0.19436555     1.593600     9.983400     1.805800
     156    1      2  -0.19436555     1.599500    11.487100     1.477100
     157    1      4   0.09684404     0.726500     9.505500     1.240400
     158    1      4   0.09684404     1.463300     9.805000     2.924400
     159    1      4   0.09684404     2.439500    12.018000     2.035700
     160    1      4   0.09684404     1.751400    11.612100     0.354100
     161    1      2  -0.19436555     0.233300    12.087200     1.855600
     162    1      2  -0.19436555     0.178900    13.555100     1.395300
     163    1      4   0.09684404    -0.588400    11.504000     1.322300
     164    1      4   0.09684404     0.077500    12.021200     2.983000
     165    1      4   0.09684404     0.988500    14.153500     1.930100
     166    1      4   0.09684404     0.349800    13.603300     0.268800
     167    1      2  -0.19436555     0.011800     0.519100    -2.350600
     168    1      2  -0.19436555     1.243100     1.160800    -3.029200
     169    1      4   0.09684404    -0.772100     1.341300    -2.449300
     170    1      4   0.09684404     0.198100     0.354300    -1.238100
     171    1      4   0.09684404     1.021800     1.310400    -4.137400
     172    1      4   0.09684404     2.203500     0.566200    -2.900900
     173    1      2  -0.19436555     1.360300     2.549700    -2.368100
     174    1      2  -0.19436555     2.423500     3.469000    -3.002600
     175    1      4   0.09684404     0.349700     3.063200    -2.487900
     176    1      4   0.09684404     1.583900     2.428200    -1.256700
     177    1      4   0.09684404     2.224400     3.569000    -4.120400
     178    1      4   0.09684404     3.463700     3.035700    -2.836000
     179    1      2  -0.19436555     2.292400     4.857800    -2.343700
     180    1      2  -0.19436555     3.307500     5.876900    -2.897400
     181    1      4   0.09684404     1.240300     5.251700    -2.536100
     182    1      4   0.09684404     2.450300     4.760100    -1.219000
     183    1      4   0.09684404     3.169800     6.001500    -4.022000
     184    1      4   0.09684404     4.365100     5.511900    -2.677800
     185    1      2  -0.19436555     3.060300     7.223700    -2.187500
     186    1      2  -0.19436555     4.100100     8.290300    -2.590200
     187    1      4   0.09684404     2.013000     7.596700    -2.439700
     188    1      4   0.09684404     3.122000     7.045100    -1.066300
     189    1      4   0.09684404     4.011300     8.518400    -3.703600
     190    1      4   0.09684404     5.147500     7.903000    -2.362000
     191    1      2  -0.19436555     3.853500     9.564400    -1.756200
     192    1      2  -0.19436555     4.861700    10.689200    -2.066400
     193    1      4   0.09684404     2.796500     9.944600    -1.949700
     194    1      4   0.09684404     3.957900     9.279100    -0.658500
     195    1      4   0.09684404     4.777100    10.999600    -3.159800
     196    1      4   0.09684404     5.919100    10.318900    -1.857400
     197    1      2  -0.19436555     4.551700    11.896100    -1.156300
     198    1      2  -0.19436555     5.564000    13.044100    -1.350400
     199    1      4   0.09684404     3.500700    12.275800    -1.381600
     200    1      4   0.09684404     4.598100    11.553200    -0.070100
     201    1      4   0.09684404     5.524900    13.425900    -2.423700
     202    1      4   0.09684404     6.613200    12.663300    -1.118400
     203    1      2  -0.19436555     5.209000    14.183600    -0.373200
     204    1      2  -0.19436555     6.228500    15.340200    -0.437600
     205    1      4   0.09684404     4.166500    14.576100    -0.615900
     206    1      4   0.09684404     5.212500    13.765300     0.687200
     207    1      4   0.09684404     7.264600    14.938400    -0.183700
     208    1      4   0.09684404     6.242000    15.806600    -1.477900
     209    1      2  -0.19436555     5.825400    16.396100     0.610300
     210    1      2  -0.19436555     6.845700    17.550300     0.667800
     211    1      4   0.09684404     4.795000    16.810400     0.352800
     212    1      4   0.09684404     5.784800    15.896200     1.634000
     213    1      4   0.09684404     6.522200    18.293100     1.470200
     214    1      4   0.09684404     7.872800    17.132500     0.932900
     215    1      3  -0.05463839    -0.439100    -2.216500    -2.686100
     216    1      2  -0.19436555    -0.521700    -2.493100    -1.167400
     217    1      2  -0.19436555    -1.743800    -2.859200    -3.209900
     218    1      2  -0.19436555     0.771000    -2.932200    -3.323500
     219    1      2  -0.19436555    -0.693700    -0.714900    -2.964700
     220    1      4   0.09684404     0.356400    -2.046000    -0.594000
     221    1      4   0.09684404    -1.497700    -2.034100    -0.798100
     222    1      4   0.09684404    -1.824500    -3.926100    -2.825300
     223    1      4   0.09684404    -2.581700    -2.250300    -2.734000
     224    1      4   0.09684404     0.563800    -4.048200    -3.219500
     225    1      4   0.09684404     0.812200    -2.675800    -4.433700
     226    1      4   0.09684404    -0.771000    -0.560800    -4.091300
     227    1      4   0.09684404    -1.746100    -0.608100    -2.540200

Bonds

       1      1        1        2
       2      2        1        3
       3      2        1        4
       4      2        1        5
       5      5        2        6
       6      5        2        7
       7      3        2       29
       8      1        8        9
       9      2        8       10
      10      2        8       11
      11      2        8       12
      12      5        9       13
      13      5        9       14
      14      3        9      114
      15      1       15       16
      16      2       15       17
      17      2       15       18
      18      2       15       19
      19      5       16       20
      20      5       16       21
      21      3       16      162
      22      1       22       23
      23      2       22       24
      24      2       22       25
      25      2       22       26
      26      5       23       27
      27      5       23       28
      28      3       23      210
      29      3       29       30
      30      5       29       31
      31      5       29       32
      32      5       30       33
      33      5       30       34
      34      3       30       35
      35      3       35       36
      36      5       35       37
      37      5       35       38
      38      5       36       39
      39      5       36       40
      40      3       36       41
      41      3       41       42
      42      5       41       43
      43      5       41       44
      44      5       42       45
      45      5       42       46
      46      3       42       47
      47      3       47       48
      48      5       47       49
      49      5       47       50
      50      5       48       51
      51      5       48       52
      52      3       48       53
      53      3       53       54
      54      5       53       55
      55      5       53       56
      56      5       54       57
      57      5       54       58
      58      3       54       59
      59      3       59       60
      60      5       59       61
      61      5       59       62
      62      5       60       63
      63      5       60       64
      64      3       60       65
      65      3       65       66
      66      5       65       67
      67      5       65       68
      68      5       66       69
      69      5       66       70
      70      3       66       71
      71      3       71       72
      72      5       71       73
      73      5       71       74
      74      5       72       75
      75      5       72       76
      76      3       72      216
      77      3       77       78
      78      5       77       79
      79      5       77       80
      80      3       77      217
      81      5       78       81
      82      5       78       82
      83      3       78       83
      84      3       83       84
      85      5       83       85
      86      5       83       86
      87      5       84       87
      88      5       84       88
      89      3       84       89
      90      3       89       90
      91      5       89       91
      92      5       89       92
      93      5       90       93
      94      5       90       94
      95      3       90       95
      96      3       95       96
      97      5       95       97
      98      5       95       98
      99      5       96       99
     100      5       96      100
     101      3       96      101
     102      3      101      102
     103      5      101      103
     104      5      101      104
     105      5      102      105
     106      5      102      106
     107      3      102      107
     108      3      107      108
     109      5      107      109
     110      5      107      110
     111      5      108      111
     112      5      108      112
     113      3      108      113
     114      3      113      114
     115      5      113      115
     116      5      113      116
     117      5      114      117
     118      5      114      118
     119      3      119      120
     120      5      119      121
     121      5      119      122
     122      3      119      218
     123      5      120      123
     124      5      120      124
     125      3      120      125
     126      3      125      126
     127      5      125      127
     128      5      125      128
     129      5      126      129
     130      5      126      130
     131      3      126      131
     132      3      131      132
     133      5      131      133
     134      5      131      134
     135      5      132      135
     136      5      132      136
     137      3      132      137
     138      3      137      138
     139      5      137      139
     140      5      137      140
     141      5      138      141
     142      5      138      142
     143      3      138      143
     144      3      143      144
     145      5      143      145
     146      5      143      146
     147      5      144      147
     148      5      144      148
     149      3      144      149
     150      3      149      150
     151      5      149      151
     152      5      149      152
     153      5      150      153
     154      5      150      154
     155      3      150      155
     156      3      155      156
     157      5      155      157
     158      5      155      158
     159      5      156      159
     160      5      156      160
     161      3      156      161
     162      3      161      162
     163      5      161      163
     164      5      161      164
     165      5      162      165
     166      5      162      166
     167      3      167      168
     168      5      167      169
     169      5      167      170
     170      3      167      219
     171      5      168      171
     172      5      168      172
     173      3      168      173
     174      3      173      174
     175      5      173      175
     176      5      173      176
     177      5      174      177
     178      5      174      178
     179      3      174      179
     180      3      179      180
     181      5      179      181
     182      5      179      182
     183      5      180      183
     184      5      180      184
     185      3      180      185
     186      3      185      186
     187      5      185      187
     188      5      185      188
     189      5      186      189
     190      5      186      190
     191      3      186      191
     192      3      191      192
     193      5      191      193
     194      5      191      194
     195      5      192      195
     196      5      192      196
     197      3      192      197
     198      3      197      198
     199      5      197      199
     200      5      197      200
     201      5      198      201
     202      5      198      202
     203      3      198      203
     204      3      203      204
     205      5      203      205
     206      5      203      206
     207      5      204      207
     208      5      204      208
     209      3      204      209
     210      3      209      210
     211      5      209      211
     212      5      209      212
     213      5      210      213
     214      5      210      214
     215      4      215      216
     216      4      215      217
     217      4      215      218
     218      4      215      219
     219      5      216      220
     220      5      216      221
     221      5      217      222
     222      5      217      223
     223      5      218      224
     224      5      218      225
     225      5      219      226
     226      5      219      227

Angles

       1      2        1        2        6
       2      2        1        2        7
       3      1        1        2       29
       4      3        2        1        3
       5      3        2        1        4
       6      3        2        1        5
       7      4        2       29       30
       8      6        2       29       31
       9      6        2       29       32
      10      9        3        1        4
      11      9        3        1        5
      12      9        4        1        5
      13     10        6        2        7
      14      6        6        2       29
      15      6        7        2       29
      16      2        8        9       13
      17      2        8        9       14
      18      1        8        9      114
      19      3        9        8       10
      20      3        9        8       11
      21      3        9        8       12
      22      4        9      114      113
      23      6        9      114      117
      24      6        9      114      118
      25      9       10        8       11
      26      9       10        8       12
      27      9       11        8       12
      28     10       13        9       14
      29      6       13        9      114
      30      6       14        9      114
      31      2       15       16       20
      32      2       15       16       21
      33      1       15       16      162
      34      3       16       15       17
      35      3       16       15       18
      36      3       16       15       19
      37      4       16      162      161
      38      6       16      162      165
      39      6       16      162      166
      40      9       17       15       18
      41      9       17       15       19
      42      9       18       15       19
      43     10       20       16       21
      44      6       20       16      162
      45      6       21       16      162
      46      2       22       23       27
      47      2       22       23       28
      48      1       22       23      210
      49      3       23       22       24
      50      3       23       22       25
      51      3       23       22       26
      52      4       23      210      209
      53      6       23      210      213
      54      6       23      210      214
      55      9       24       22       25
      56      9       24       22       26
      57      9       25       22       26
      58     10       27       23       28
      59      6       27       23      210
      60      6       28       23      210
      61      6       29       30       33
      62      6       29       30       34
      63      4       29       30       35
      64      6       30       29       31
      65      6       30       29       32
      66      4       30       35       36
      67      6       30       35       37
      68      6       30       35       38
      69     10       31       29       32
      70     10       33       30       34
      71      6       33       30       35
      72      6       34       30       35
      73      6       35       36       39
      74      6       35       36       40
      75      4       35       36       41
      76      6       36       35       37
      77      6       36       35       38
      78      4       36       41       42
      79      6       36       41       43
      80      6       36       41       44
      81     10       37       35       38
      82     10       39       36       40
      83      6       39       36       41
      84      6       40       36       41
      85      6       41       42       45
      86      6       41       42       46
      87      4       41       42       47
      88      6       42       41       43
      89      6       42       41       44
      90      4       42       47       48
      91      6       42       47       49
      92      6       42       47       50
      93     10       43       41       44
      94     10       45       42       46
      95      6       45       42       47
      96      6       46       42       47
      97      6       47       48       51
      98      6       47       48       52
      99      4       47       48       53
     100      6       48       47       49
     101      6       48       47       50
     102      4       48       53       54
     103      6       48       53       55
     104      6       48       53       56
     105     10       49       47       50
     106     10       51       48       52
     107      6       51       48       53
     108      6       52       48       53
     109      6       53       54       57
     110      6       53       54       58
     111      4       53       54       59
     112      6       54       53       55
     113      6       54       53       56
     114      4       54       59       60
     115      6       54       59       61
     116      6       54       59       62
     117     10       55       53       56
     118     10       57       54       58
     119      6       57       54       59
     120      6       58       54       59
     121      6       59       60       63
     122      6       59       60       64
     123      4       59       60       65
     124      6       60       59       61
     125      6       60       59       62
     126      4       60       65       66
     127      6       60       65       67
     128      6       60       65       68
     129     10       61       59       62
     130     10       63       60       64
     131      6       63       60       65
     132      6       64       60       65
     133      6       65       66       69
     134      6       65       66       70
     135      4       65       66       71
     136      6       66       65       67
     137      6       66       65       68
     138      4       66       71       72
     139      6       66       71       73
     140      6       66       71       74
     141     10       67       65       68
     142     10       69       66       70
     143      6       69       66       71
     144      6       70       66       71
     145      6       71       72       75
     146      6       71       72       76
     147      4       71       72      216
     148      6       72       71       73
     149      6       72       71       74
     150      5       72      216      215
     151      6       72      216      220
     152      6       72      216      221
     153     10       73       71       74
     154     10       75       72       76
     155      6       75       72      216
     156      6       76       72      216
     157      6       77       78       81
     158      6       77       78       82
     159      4       77       78       83
     160      5       77      217      215
     161      6       77      217      222
     162      6       77      217      223
     163      6       78       77       79
     164      6       78       77       80
     165      4       78       77      217
     166      4       78       83       84
     167      6       78       83       85
     168      6       78       83       86
     169     10       79       77       80
     170      6       79       77      217
     171      6       80       77      217
     172     10       81       78       82
     173      6       81       78       83
     174      6       82       78       83
     175      6       83       84       87
     176      6       83       84       88
     177      4       83       84       89
     178      6       84       83       85
     179      6       84       83       86
     180      4       84       89       90
     181      6       84       89       91
     182      6       84       89       92
     183     10       85       83       86
     184     10       87       84       88
     185      6       87       84       89
     186      6       88       84       89
     187      6       89       90       93
     188      6       89       90       94
     189      4       89       90       95
     190      6       90       89       91
     191      6       90       89       92
     192      4       90       95       96
     193      6       90       95       97
     194      6       90       95       98
     195     10       91       89       92
     196     10       93       90       94
     197      6       93       90       95
     198      6       94       90       95
     199      6       95       96       99
     200      6       95       96      100
     201      4       95       96      101
     202      6       96       95       97
     203      6       96       95       98
     204      4       96      101      102
     205      6       96      101      103
     206      6       96      101      104
     207     10       97       95       98
     208     10       99       96      100
     209      6       99       96      101
     210      6      100       96      101
     211      6      101      102      105
     212      6      101      102      106
     213      4      101      102      107
     214      6      102      101      103
     215      6      102      101      104
     216      4      102      107      108
     217      6      102      107      109
     218      6      102      107      110
     219     10      103      101      104
     220     10      105      102      106
     221      6      105      102      107
     222      6      106      102      107
     223      6      107      108      111
     224      6      107      108      112
     225      4      107      108      113
     226      6      108      107      109
     227      6      108      107      110
     228      4      108      113      114
     229      6      108      113      115
     230      6      108      113      116
     231     10      109      107      110
     232     10      111      108      112
     233      6      111      108      113
     234      6      112      108      113
     235      6      113      114      117
     236      6      113      114      118
     237      6      114      113      115
     238      6      114      113      116
     239     10      115      113      116
     240     10      117      114      118
     241      6      119      120      123
     242      6      119      120      124
     243      4      119      120      125
     244      5      119      218      215
     245      6      119      218      224
     246      6      119      218      225
     247      6      120      119      121
     248      6      120      119      122
     249      4      120      119      218
     250      4      120      125      126
     251      6      120      125      127
     252      6      120      125      128
     253     10      121      119      122
     254      6      121      119      218
     255      6      122      119      218
     256     10      123      120      124
     257      6      123      120      125
     258      6      124      120      125
     259      6      125      126      129
     260      6      125      126      130
     261      4      125      126      131
     262      6      126      125      127
     263      6      126      125      128
     264      4      126      131      132
     265      6      126      131      133
     266      6      126      131      134
     267     10      127      125      128
     268     10      129      126      130
     269      6      129      126      131
     270      6      130      126      131
     271      6      131      132      135
     272      6      131      132      136
     273      4      131      132      137
     274      6      132      131      133
     275      6      132      131      134
     276      4      132      137      138
     277      6      132      137      139
     278      6      132      137      140
     279     10      133      131      134
     280     10      135      132      136
     281      6      135      132      137
     282      6      136      132      137
     283      6      137      138      141
     284      6      137      138      142
     285      4      137      138      143
     286      6      138      137      139
     287      6      138      137      140
     288      4      138      143      144
     289      6      138      143      145
     290      6      138      143      146
     291     10      139      137      140
     292     10      141      138      142
     293      6      141      138      143
     294      6      142      138      143
     295      6      143      144      147
     296      6      143      144      148
     297      4      143      144      149
     298      6      144      143      145
     299      6      144      143      146
     300      4      144      149      150
     301      6      144      149      151
     302      6      144      149      152
     303     10      145      143      146
     304     10      147      144      148
     305      6      147      144      149
     306      6      148      144      149
     307      6      149      150      153
     308      6      149      150      154
     309      4      149      150      155
     310      6      150      149      151
     311      6      150      149      152
     312      4      150      155      156
     313      6      150      155      157
     314      6      150      155      158
     315     10      151      149      152
     316     10      153      150      154
     317      6      153      150      155
     318      6      154      150      155
     319      6      155      156      159
     320      6      155      156      160
     321      4      155      156      161
     322      6      156      155      157
     323      6      156      155      158
     324      4      156      161      162
     325      6      156      161      163
     326      6      156      161      164
     327     10      157      155      158
     328     10      159      156      160
     329      6      159      156      161
     330      6      160      156      161
     331      6      161      162      165
     332      6      161      162      166
     333      6      162      161      163
     334      6      162      161      164
     335     10      163      161      164
     336     10      165      162      166
     337      6      167      168      171
     338      6      167      168      172
     339      4      167      168      173
     340      5      167      219      215
     341      6      167      219      226
     342      6      167      219      227
     343      6      168      167      169
     344      6      168      167      170
     345      4      168      167      219
     346      4      168      173      174
     347      6      168      173      175
     348      6      168      173      176
     349     10      169      167      170
     350      6      169      167      219
     351      6      170      167      219
     352     10      171      168      172
     353      6      171      168      173
     354      6      172      168      173
     355      6      173      174      177
     356      6      173      174      178
     357      4      173      174      179
     358      6      174      173      175
     359      6      174      173      176
     360      4      174      179      180
     361      6      174      179      181
     362      6      174      179      182
     363     10      175      173      176
     364     10      177      174      178
     365      6      177      174      179
     366      6      178      174      179
     367      6      179      180      183
     368      6      179      180      184
     369      4      179      180      185
     370      6      180      179      181
     371      6      180      179      182
     372      4      180      185      186
     373      6      180      185      187
     374      6      180      185      188
     375     10      181      179      182
     376     10      183      180      184
     377      6      183      180      185
     378      6      184      180      185
     379      6      185      186      189
     380      6      185      186      190
     381      4      185      186      191
     382      6      186      185      187
     383      6      186      185      188
     384      4      186      191      192
     385      6      186      191      193
     386      6      186      191      194
     387     10      187      185      188
     388     10      189      186      190
     389      6      189      186      191
     390      6      190      186      191
     391      6      191      192      195
     392      6      191      192      196
     393      4      191      192      197
     394      6      192      191      193
     395      6      192      191      194
     396      4      192      197      198
     397      6      192      197      199
     398      6      192      197      200
     399     10      193      191      194
     400     10      195      192      196
     401      6      195      192      197
     402      6      196      192      197
     403      6      197      198      201
     404      6      197      198      202
     405      4      197      198      203
     406      6      198      197      199
     407      6      198      197      200
     408      4      198      203      204
     409      6      198      203      205
     410      6      198      203      206
     411     10      199      197      200
     412     10      201      198      202
     413      6      201      198      203
     414      6      202      198      203
     415      6      203      204      207
     416      6      203      204      208
     417      4      203      204      209
     418      6      204      203      205
     419      6      204      203      206
     420      4      204      209      210
     421      6      204      209      211
     422      6      204      209      212
     423     10      205      203      206
     424     10      207      204      208
     425      6      207      204      209
     426      6      208      204      209
     427      6      209      210      213
     428      6      209      210      214
     429      6      210      209      211
     430      6      210      209      212
     431     10      211      209      212
     432     10      213      210      214
     433      8      215      216      220
     434      8      215      216      221
     435      8      215      217      222
     436      8      215      217      223
     437      8      215      218      224
     438      8      215      218      225
     439      8      215      219      226
     440      8      215      219      227
     441      7      216      215      217
     442      7      216      215      218
     443      7      216      215      219
     444      7      217      215      218
     445      7      217      215      219
     446      7      218      215      219
     447     10      220      216      221
     448     10      222      217      223
     449     10      224      218      225
     450     10      226      219      227

Dihedrals

       1      1        1        2       29       30
       2      2        1        2       29       31
       3      2        1        2       29       32
       4      6        2       29       30       33
       5      6        2       29       30       34
       6      4        2       29       30       35
       7     10        3        1        2        6
       8     10        3        1        2        7
       9      3        3        1        2       29
      10     10        4        1        2        6
      11     10        4        1        2        7
      12      3        4        1        2       29
      13     10        5        1        2        6
      14     10        5        1        2        7
      15      3        5        1        2       29
      16      6        6        2       29       30
      17     11        6        2       29       31
      18     11        6        2       29       32
      19      6        7        2       29       30
      20     11        7        2       29       31
      21     11        7        2       29       32
      22      1        8        9      114      113
      23      2        8        9      114      117
      24      2        8        9      114      118
      25      4        9      114      113      108
      26      6        9      114      113      115
      27      6        9      114      113      116
      28     10       10        8        9       13
      29     10       10        8        9       14
      30      3       10        8        9      114
      31     10       11        8        9       13
      32     10       11        8        9       14
      33      3       11        8        9      114
      34     10       12        8        9       13
      35     10       12        8        9       14
      36      3       12        8        9      114
      37      6       13        9      114      113
      38     11       13        9      114      117
      39     11       13        9      114      118
      40      6       14        9      114      113
      41     11       14        9      114      117
      42     11       14        9      114      118
      43      1       15       16      162      161
      44      2       15       16      162      165
      45      2       15       16      162      166
      46      4       16      162      161      156
      47      6       16      162      161      163
      48      6       16      162      161      164
      49     10       17       15       16       20
      50     10       17       15       16       21
      51      3       17       15       16      162
      52     10       18       15       16       20
      53     10       18       15       16       21
      54      3       18       15       16      162
      55     10       19       15       16       20
      56     10       19       15       16       21
      57      3       19       15       16      162
      58      6       20       16      162      161
      59     11       20       16      162      165
      60     11       20       16      162      166
      61      6       21       16      162      161
      62     11       21       16      162      165
      63     11       21       16      162      166
      64      1       22       23      210      209
      65      2       22       23      210      213
      66      2       22       23      210      214
      67      4       23      210      209      204
      68      6       23      210      209      211
      69      6       23      210      209      212
      70     10       24       22       23       27
      71     10       24       22       23       28
      72      3       24       22       23      210
      73     10       25       22       23       27
      74     10       25       22       23       28
      75      3       25       22       23      210
      76     10       26       22       23       27
      77     10       26       22       23       28
      78      3       26       22       23      210
      79      6       27       23      210      209
      80     11       27       23      210      213
      81     11       27       23      210      214
      82      6       28       23      210      209
      83     11       28       23      210      213
      84     11       28       23      210      214
      85      4       29       30       35       36
      86      6       29       30       35       37
      87      6       29       30       35       38
      88      6       30       35       36       39
      89      6       30       35       36       40
      90      4       30       35       36       41
      91     11       31       29       30       33
      92     11       31       29       30       34
      93      6       31       29       30       35
      94     11       32       29       30       33
      95     11       32       29       30       34
      96      6       32       29       30       35
      97      6       33       30       35       36
      98     11       33       30       35       37
      99     11       33       30       35       38
     100      6       34       30       35       36
     101     11       34       30       35       37
     102     11       34       30       35       38
     103      4       35       36       41       42
     104      6       35       36       41       43
     105      6       35       36       41       44
     106      6       36       41       42       45
     107      6       36       41       42       46
     108      4       36       41       42       47
     109     11       37       35       36       39
     110     11       37       35       36       40
     111      6       37       35       36       41
     112     11       38       35       36       39
     113     11       38       35       36       40
     114      6       38       35       36       41
     115      6       39       36       41       42
     116     11       39       36       41       43
     117     11       39       36       41       44
     118      6       40       36       41       42
     119     11       40       36       41       43
     120     11       40       36       41       44
     121      4       41       42       47       48
     122      6       41       42       47       49
     123      6       41       42       47       50
     124      6       42       47       48       51
     125      6       42       47       48       52
     126      4       42       47       48       53
     127     11       43       41       42       45
     128     11       43       41       42       46
     129      6       43       41       42       47
     130     11       44       41       42       45
     131     11       44       41       42       46
     132      6       44       41       42       47
     133      6       45       42       47       48
     134     11       45       42       47       49
     135     11       45       42       47       50
     136      6       46       42       47       48
     137     11       46       42       47       49
     138     11       46       42       47       50
     139      4       47       48       53       54
     140      6       47       48       53       55
     141      6       47       48       53       56
     142      6       48       53       54       57
     143      6       48       53       54       58
     144      4       48       53       54       59
     145     11       49       47       48       51
     146     11       49       47       48       52
     147      6       49       47       48       53
     148     11       50       47       48       51
     149     11       50       47       48       52
     150      6       50       47       48       53
     151      6       51       48       53       54
     152     11       51       48       53       55
     153     11       51       48       53       56
     154      6       52       48       53       54
     155     11       52       48       53       55
     156     11       52       48       53       56
     157      4       53       54       59       60
     158      6       53       54       59       61
     159      6       53       54       59       62
     160      6       54       59       60       63
     161      6       54       59       60       64
     162      4       54       59       60       65
     163     11       55       53       54       57
     164     11       55       53       54       58
     165      6       55       53       54       59
     166     11       56       53       54       57
     167     11       56       53       54       58
     168      6       56       53       54       59
     169      6       57       54       59       60
     170     11       57       54       59       61
     171     11       57       54       59       62
     172      6       58       54       59       60
     173     11       58       54       59       61
     174     11       58       54       59       62
     175      4       59       60       65       66
     176      6       59       60       65       67
     177      6       59       60       65       68
     178      6       60       65       66       69
     179      6       60       65       66       70
     180      4       60       65       66       71
     181     11       61       59       60       63
     182     11       61       59       60       64
     183      6       61       59       60       65
     184     11       62       59       60       63
     185     11       62       59       60       64
     186      6       62       59       60       65
     187      6       63       60       65       66
     188     11       63       60       65       67
     189     11       63       60       65       68
     190      6       64       60       65       66
     191     11       64       60       65       67
     192     11       64       60       65       68
     193      4       65       66       71       72
     194      6       65       66       71       73
     195      6       65       66       71       74
     196      6       66       71       72       75
     197      6       66       71       72       76
     198      4       66       71       72      216
     199     11       67       65       66       69
     200     11       67       65       66       70
     201      6       67       65       66       71
     202     11       68       65       66       69
     203     11       68       65       66       70
     204      6       68       65       66       71
     205      6       69       66       71       72
     206     11       69       66       71       73
     207     11       69       66       71       74
     208      6       70       66       71       72
     209     11       70       66       71       73
     210     11       70       66       71       74
     211      5       71       72      216      215
     212      6       71       72      216      220
     213      6       71       72      216      221
     214      7       72      216      215      217
     215      7       72      216      215      218
     216      7       72      216      215      219
     217     11       73       71       72       75
     218     11       73       71       72       76
     219      6       73       71       72      216
     220     11       74       71       72       75
     221     11       74       71       72       76
     222      6       74       71       72      216
     223      9       75       72      216      215
     224     11       75       72      216      220
     225     11       75       72      216      221
     226      9       76       72      216      215
     227     11       76       72      216      220
     228     11       76       72      216      221
     229      4       77       78       83       84
     230      6       77       78       83       85
     231      6       77       78       83       86
     232      7       77      217      215      216
     233      7       77      217      215      218
     234      7       77      217      215      219
     235      5       78       77      217      215
     236      6       78       77      217      222
     237      6       78       77      217      223
     238      6       78       83       84       87
     239      6       78       83       84       88
     240      4       78       83       84       89
     241     11       79       77       78       81
     242     11       79       77       78       82
     243      6       79       77       78       83
     244      9       79       77      217      215
     245     11       79       77      217      222
     246     11       79       77      217      223
     247     11       80       77       78       81
     248     11       80       77       78       82
     249      6       80       77       78       83
     250      9       80       77      217      215
     251     11       80       77      217      222
     252     11       80       77      217      223
     253      6       81       78       77      217
     254      6       81       78       83       84
     255     11       81       78       83       85
     256     11       81       78       83       86
     257      6       82       78       77      217
     258      6       82       78       83       84
     259     11       82       78       83       85
     260     11       82       78       83       86
     261      4       83       78       77      217
     262      4       83       84       89       90
     263      6       83       84       89       91
     264      6       83       84       89       92
     265      6       84       89       90       93
     266      6       84       89       90       94
     267      4       84       89       90       95
     268     11       85       83       84       87
     269     11       85       83       84       88
     270      6       85       83       84       89
     271     11       86       83       84       87
     272     11       86       83       84       88
     273      6       86       83       84       89
     274      6       87       84       89       90
     275     11       87       84       89       91
     276     11       87       84       89       92
     277      6       88       84       89       90
     278     11       88       84       89       91
     279     11       88       84       89       92
     280      4       89       90       95       96
     281      6       89       90       95       97
     282      6       89       90       95       98
     283      6       90       95       96       99
     284      6       90       95       96      100
     285      4       90       95       96      101
     286     11       91       89       90       93
     287     11       91       89       90       94
     288      6       91       89       90       95
     289     11       92       89       90       93
     290     11       92       89       90       94
     291      6       92       89       90       95
     292      6       93       90       95       96
     293     11       93       90       95       97
     294     11       93       90       95       98
     295      6       94       90       95       96
     296     11       94       90       95       97
     297     11       94       90       95       98
     298      4       95       96      101      102
     299      6       95       96      101      103
     300      6       95       96      101      104
     301      6       96      101      102      105
     302      6       96      101      102      106
     303      4       96      101      102      107
     304     11       97       95       96       99
     305     11       97       95       96      100
     306      6       97       95       96      101
     307     11       98       95       96       99
     308     11       98       95       96      100
     309      6       98       95       96      101
     310      6       99       96      101      102
     311     11       99       96      101      103
     312     11       99       96      101      104
     313      6      100       96      101      102
     314     11      100       96      101      103
     315     11      100       96      101      104
     316      4      101      102      107      108
     317      6      101      102      107      109
     318      6      101      102      107      110
     319      6      102      107      108      111
     320      6      102      107      108      112
     321      4      102      107      108      113
     322     11      103      101      102      105
     323     11      103      101      102      106
     324      6      103      101      102      107
     325     11      104      101      102      105
     326     11      104      101      102      106
     327      6      104      101      102      107
     328      6      105      102      107      108
     329     11      105      102      107      109
     330     11      105      102      107      110
     331      6      106      102      107      108
     332     11      106      102      107      109
     333     11      106      102      107      110
     334      4      107      108      113      114
     335      6      107      108      113      115
     336      6      107      108      113      116
     337      6      108      113      114      117
     338      6      108      113      114      118
     339     11      109      107      108      111
     340     11      109      107      108      112
     341      6      109      107      108      113
     342     11      110      107      108      111
     343     11      110      107      108      112
     344      6      110      107      108      113
     345      6      111      108      113      114
     346     11      111      108      113      115
     347     11      111      108      113      116
     348      6      112      108      113      114
     349     11      112      108      113      115
     350     11      112      108      113      116
     351     11      115      113      114      117
     352     11      115      113      114      118
     353     11      116      113      114      117
     354     11      116      113      114      118
     355      4      119      120      125      126
     356      6      119      120      125      127
     357      6      119      120      125      128
     358      7      119      218      215      216
     359      7      119      218      215      217
     360      7      119      218      215      219
     361      5      120      119      218      215
     362      6      120      119      218      224
     363      6      120      119      218      225
     364      6      120      125      126      129
     365      6      120      125      126      130
     366      4      120      125      126      131
     367     11      121      119      120      123
     368     11      121      119      120      124
     369      6      121      119      120      125
     370      9      121      119      218      215
     371     11      121      119      218      224
     372     11      121      119      218      225
     373     11      122      119      120      123
     374     11      122      119      120      124
     375      6      122      119      120      125
     376      9      122      119      218      215
     377     11      122      119      218      224
     378     11      122      119      218      225
     379      6      123      120      119      218
     380      6      123      120      125      126
     381     11      123      120      125      127
     382     11      123      120      125      128
     383      6      124      120      119      218
     384      6      124      120      125      126
     385     11      124      120      125      127
     386     11      124      120      125      128
     387      4      125      120      119      218
     388      4      125      126      131      132
     389      6      125      126      131      133
     390      6      125      126      131      134
     391      6      126      131      132      135
     392      6      126      131      132      136
     393      4      126      131      132      137
     394     11      127      125      126      129
     395     11      127      125      126      130
     396      6      127      125      126      131
     397     11      128      125      126      129
     398     11      128      125      126      130
     399      6      128      125      126      131
     400      6      129      126      131      132
     401     11      129      126      131      133
     402     11      129      126      131      134
     403      6      130      126      131      132
     404     11      130      126      131      133
     405     11      130      126      131      134
     406      4      131      132      137      138
     407      6      131      132      137      139
     408      6      131      132      137      140
     409      6      132      137      138      141
     410      6      132      137      138      142
     411      4      132      137      138      143
     412     11      133      131      132      135
     413     11      133      131      132      136
     414      6      133      131      132      137
     415     11      134      131      132      135
     416     11      134      131      132      136
     417      6      134      131      132      137
     418      6      135      132      137      138
     419     11      135      132      137      139
     420     11      135      132      137      140
     421      6      136      132      137      138
     422     11      136      132      137      139
     423     11      136      132      137      140
     424      4      137      138      143      144
     425      6      137      138      143      145
     426      6      137      138      143      146
     427      6      138      143      144      147
     428      6      138      143      144      148
     429      4      138      143      144      149
     430     11      139      137      138      141
     431     11      139      137      138      142
     432      6      139      137      138      143
     433     11      140      137      138      141
     434     11      140      137      138      142
     435      6      140      137      138      143
     436      6      141      138      143      144
     437     11      141      138      143      145
     438     11      141      138      143      146
     439      6      142      138      143      144
     440     11      142      138      143      145
     441     11      142      138      143      146
     442      4      143      144      149      150
     443      6      143      144      149      151
     444      6      143      144      149      152
     445      6      144      149      150      153
     446      6      144      149      150      154
     447      4      144      149      150      155
     448     11      145      143      144      147
     449     11      145      143      144      148
     450      6      145      143      144      149
     451     11      146      143      144      147
     452     11      146      143      144      148
     453      6      146      143      144      149
     454      6      147      144      149      150
     455     11      147      144      149      151
     456     11      147      144      149      152
     457      6      148      144      149      150
     458     11      148      144      149      151
     459     11      148      144      149      152
     460      4      149      150      155      156
     461      6      149      150      155      157
     462      6      149      150      155      158
     463      6      150      155      156      159
     464      6      150      155      156      160
     465      4      150      155      156      161
     466     11      151      149      150      153
     467     11      151      149      150      154
     468      6      151      149      150      155
     469     11      152      149      150      153
     470     11      152      149      150      154
     471      6      152      149      150      155
     472      6      153      150      155      156
     473     11      153      150      155      157
     474     11      153      150      155      158
     475      6      154      150      155      156
     476     11      154      150      155      157
     477     11      154      150      155      158
     478      4      155      156      161      162
     479      6      155      156      161      163
     480      6      155      156      161      164
     481      6      156      161      162      165
     482      6      156      161      162      166
     483     11      157      155      156      159
     484     11      157      155      156      160
     485      6      157      155      156      161
     486     11      158      155      156      159
     487     11      158      155      156      160
     488      6      158      155      156      161
     489      6      159      156      161      162
     490     11      159      156      161      163
     491     11      159      156      161      164
     492      6      160      156      161      162
     493     11      160      156      161      163
     494     11      160      156      161      164
     495     11      163      161      162      165
     496     11      163      161      162      166
     497     11      164      161      162      165
     498     11      164      161      162      166
     499      4      167      168      173      174
     500      6      167      168      173      175
     501      6      167      168      173      176
     502      7      167      219      215      216
     503      7      167      219      215      217
     504      7      167      219      215      218
     505      5      168      167      219      215
     506      6      168      167      219      226
     507      6      168      167      219      227
     508      6      168      173      174      177
     509      6      168      173      174      178
     510      4      168      173      174      179
     511     11      169      167      168      171
     512     11      169      167      168      172
     513      6      169      167      168      173
     514      9      169      167      219      215
     515     11      169      167      219      226
     516     11      169      167      219      227
     517     11      170      167      168      171
     518     11      170      167      168      172
     519      6      170      167      168      173
     520      9      170      167      219      215
     521     11      170      167      219      226
     522     11      170      167      219      227
     523      6      171      168      167      219
     524      6      171      168      173      174
     525     11      171      168      173      175
     526     11      171      168      173      176
     527      6      172      168      167      219
     528      6      172      168      173      174
     529     11      172      168      173      175
     530     11      172      168      173      176
     531      4      173      168      167      219
     532      4      173      174      179      180
     533      6      173      174      179      181
     534      6      173      174      179      182
     535      6      174      179      180      183
     536      6      174      179      180      184
     537      4      174      179      180      185
     538     11      175      173      174      177
     539     11      175      173      174      178
     540      6      175      173      174      179
     541     11      176      173      174      177
     542     11      176      173      174      178
     543      6      176      173      174      179
     544      6      177      174      179      180
     545     11      177      174      179      181
     546     11      177      174      179      182
     547      6      178      174      179      180
     548     11      178      174      179      181
     549     11      178      174      179      182
     550      4      179      180      185      186
     551      6      179      180      185      187
     552      6      179      180      185      188
     553      6      180      185      186      189
     554      6      180      185      186      190
     555      4      180      185      186      191
     556     11      181      179      180      183
     557     11      181      179      180      184
     558      6      181      179      180      185
     559     11      182      179      180      183
     560     11      182      179      180      184
     561      6      182      179      180      185
     562      6      183      180      185      186
     563     11      183      180      185      187
     564     11      183      180      185      188
     565      6      184      180      185      186
     566     11      184      180      185      187
     567     11      184      180      185      188
     568      4      185      186      191      192
     569      6      185      186      191      193
     570      6      185      186      191      194
     571      6      186      191      192      195
     572      6      186      191      192      196
     573      4      186      191      192      197
     574     11      187      185      186      189
     575     11      187      185      186      190
     576      6      187      185      186      191
     577     11      188      185      186      189
     578     11      188      185      186      190
     579      6      188      185      186      191
     580      6      189      186      191      192
     581     11      189      186      191      193
     582     11      189      186      191      194
     583      6      190      186      191      192
     584     11      190      186      191      193
     585     11      190      186      191      194
     586      4      191      192      197      198
     587      6      191      192      197      199
     588      6      191      192      197      200
     589      6      192      197      198      201
     590      6      192      197      198      202
     591      4      192      197      198      203
     592     11      193      191      192      195
     593     11      193      191      192      196
     594      6      193      191      192      197
     595     11      194      191      192      195
     596     11      194      191      192      196
     597      6      194      191      192      197
     598      6      195      192      197      198
     599     11      195      192      197      199
     600     11      195      192      197      200
     601      6      196      192      197      198
     602     11      196      192      197      199
     603     11      196      192      197      200
     604      4      197      198      203      204
     605      6      197      198      203      205
     606      6      197      198      203      206
     607      6      198      203      204      207
     608      6      198      203      204      208
     609      4      198      203      204      209
     610     11      199      197      198      201
     611     11      199      197      198      202
     612      6      199      197      198      203
     613     11      200      197      198      201
     614     11      200      197      198      202
     615      6      200      197      198      203
     616      6      201      198      203      204
     617     11      201      198      203      205
     618     11      201      198      203      206
     619      6      202      198      203      204
     620     11      202      198      203      205
     621     11      202      198      203      206
     622      4      203      204      209      210
     623      6      203      204      209      211
     624      6      203      204      209      212
     625      6      204      209      210      213
     626      6      204      209      210      214
     627     11      205      203      204      207
     628     11      205      203      204      208
     629      6      205      203      204      209
     630     11      206      203      204      207
     631     11      206      203      204      208
     632      6      206      203      204      209
     633      6      207      204      209      210
     634     11      207      204      209      211
     635     11      207      204      209      212
     636      6      208      204      209      210
     637     11      208      204      209      211
     638     11      208      204      209      212
     639     11      211      209      210      213
     640     11      211      209      210      214
     641     11      212      209      210      213
     642     11      212      209      210      214
     643      8      216      215      217      222
     644      8      216      215      217      223
     645      8      216      215      218      224
     646      8      216      215      218      225
     647      8      216      215      219      226
     648      8      216      215      219      227
     649      8      217      215      216      220
     650      8      217      215      216      221
     651      8      217      215      218      224
     652      8      217      215      218      225
     653      8      217      215      219      226
     654      8      217      215      219      227
     655      8      218      215      216      220
     656      8      218      215      216      221
     657      8      218      215      217      222
     658      8      218      215      217      223
     659      8      218      215      219      226
     660      8      218      215      219      227
     661      8      219      215      216      220
     662      8      219      215      216      221
     663      8      219      215      217      222
     664      8      219      215      217      223
     665      8      219      215      218      224
     666      8      219      215      218      225

Impropers


