LAMMPS data file generated by clean-room 1-hop pipeline

     185 atoms
     184 bonds
     366 angles
     540 dihedrals
       0 impropers

       5 atom types
       7 bond types
      14 angle types
      22 dihedral types
       0 improper types

  -29.635900    29.584900 xlo xhi
  -24.187400    29.053100 ylo yhi
  -29.823100    30.849200 zlo zhi

Masses

       1    12.011000
       2    12.011000
       3    12.011000
       4    12.011000
       5     1.008000

Pair Coeffs

       1     0.066000     3.500000
       2     0.066000     3.500000
       3     0.066000     3.500000
       4     0.066000     3.500000
       5     0.030000     2.500000

Bond Coeffs

       1   268.000000     1.529000
       2   340.000000     1.090000
       3   268.000000     1.529000
       4   268.000000     1.529000
       5   268.000000     1.529000
       6   340.000000     1.090000
       7   340.000000     1.090000

Angle Coeffs

       1    58.350000   112.700000
       2    37.500000   110.700000
       3    37.500000   110.700000
       4    58.350000   112.700000
       5    58.350000   112.700000
       6    58.350000   112.700000
       7    37.500000   110.700000
       8    58.350000   112.700000
       9    37.500000   110.700000
      10    58.350000   112.700000
      11    37.500000   110.700000
      12    37.500000   110.700000
      13    33.000000   107.800000
      14    33.000000   107.800000

Dihedral Coeffs

       1     0.850000    -0.200000     0.200000     0.000000
       2     0.850000    -0.200000     0.200000     0.000000
       3     0.850000    -0.200000     0.200000     0.000000
       4     0.000000     0.000000     0.300000     0.000000
       5     0.000000     0.000000     0.300000     0.000000
       6     0.850000    -0.200000     0.200000     0.000000
       7     0.850000    -0.200000     0.200000     0.000000
       8     0.850000    -0.200000     0.200000     0.000000
       9     0.000000     0.000000     0.300000     0.000000
      10     0.850000    -0.200000     0.200000     0.000000
      11     0.000000     0.000000     0.300000     0.000000
      12     0.850000    -0.200000     0.200000     0.000000
      13     0.000000     0.000000     0.300000     0.000000
      14     0.000000     0.000000     0.300000     0.000000
      15     0.850000    -0.200000     0.200000     0.000000
      16     0.850000    -0.200000     0.200000     0.000000
      17     0.000000     0.000000     0.300000     0.000000
      18     0.850000    -0.200000     0.200000     0.000000
      19     0.000000     0.000000     0.300000     0.000000
      20     0.000000     0.000000     0.300000     0.000000
      21     0.000000     0.000000     0.300000     0.000000
      22     0.000000     0.000000     0.300000     0.000000

Improper Coeffs


Atoms

       1    1      1  -0.26495606    -0.264400     2.565600    -5.246400
       2    1      2  -0.19430469    -0.924600     1.176000    -5.299900
       3    1      5   0.09690490     0.139600     2.835300    -6.277000
       4    1      5   0.09690490    -1.035100     3.340700    -4.923800
       5    1      5   0.09690490     0.592200     2.545700    -4.493600
       6    1      5   0.09690490    -1.786300     1.184100    -6.046700
       7    1      5   0.09690490    -0.150200     0.402000    -5.619100
       8    1      1  -0.26495606    -8.331000    -1.787000     1.291500
       9    1      2  -0.19430469    -7.432100    -0.696900     1.903200
      10    1      5   0.09690490    -9.396600    -1.660600     1.676200
      11    1      5   0.09690490    -8.323500    -1.690000     0.155100
      12    1      5   0.09690490    -7.938400    -2.815500     1.588200
      13    1      5   0.09690490    -7.438100    -0.786800     3.038800
      14    1      5   0.09690490    -7.830500     0.328700     1.602300
      15    1      1  -0.26495606    -8.878700     3.917300     3.297500
      16    1      2  -0.19430469    -7.555900     3.712400     2.536800
      17    1      5   0.09690490    -9.285200     4.961000     3.080100
      18    1      5   0.09690490    -9.635900     3.136500     2.958800
      19    1      5   0.09690490    -8.692800     3.806900     4.416300
      20    1      5   0.09690490    -7.148100     2.670300     2.753800
      21    1      5   0.09690490    -7.740600     3.820900     1.417000
      22    1      1  -0.26495606    -3.672800     8.001300     2.862600
      23    1      2  -0.19430469    -4.707600     6.966500     2.383400
      24    1      5   0.09690490    -2.699000     7.860800     2.288200
      25    1      5   0.09690490    -4.074300     9.053100     2.680100
      26    1      5   0.09690490    -3.480700     7.856600     3.977800
      27    1      5   0.09690490    -5.679800     7.107000     2.963500
      28    1      5   0.09690490    -4.906400     7.106400     1.269800
      29    1      1  -0.26495606    -0.877700    -0.593800     8.148800
      30    1      2  -0.19430469    -1.897300     0.455900     7.671300
      31    1      5   0.09690490    -1.323900    -1.636600     8.032900
      32    1      5   0.09690490     0.071300    -0.513900     7.523400
      33    1      5   0.09690490    -0.628200    -0.407100     9.245400
      34    1      5   0.09690490    -1.456500     1.501100     7.789400
      35    1      5   0.09690490    -2.844800     0.372800     8.299000
      36    1      1  -0.26495606    -7.837200     3.638500     9.893300
      37    1      2  -0.19430469    -8.659300     2.996600     8.760800
      38    1      5   0.09690490    -6.894700     3.022700    10.067800
      39    1      5   0.09690490    -7.547900     4.700400     9.597900
      40    1      5   0.09690490    -8.459000     3.665100    10.849200
      41    1      5   0.09690490    -9.602900     3.609200     8.573700
      42    1      5   0.09690490    -8.945000     1.932800     9.054700
      43    1      1  -0.26495606    -8.313100    -1.328300     7.762400
      44    1      2  -0.19430469    -7.862300     0.031300     7.195500
      45    1      5   0.09690490    -7.397600    -1.968400     7.988700
      46    1      5   0.09690490    -8.903800    -1.159500     8.723600
      47    1      5   0.09690490    -8.971900    -1.861100     7.000500
      48    1      5   0.09690490    -8.776900     0.676800     6.978900
      49    1      5   0.09690490    -7.264300    -0.121600     6.236700
      50    1      1  -0.26495606     5.409500    -3.247700    -1.368400
      51    1      2  -0.19430469     4.545800    -3.037600    -2.627200
      52    1      5   0.09690490     6.291800    -3.922100    -1.622200
      53    1      5   0.09690490     5.787600    -2.257500    -0.962200
      54    1      5   0.09690490     4.772600    -3.746600    -0.566800
      55    1      5   0.09690490     4.137200    -4.063000    -2.922200
      56    1      5   0.09690490     5.149000    -2.618200    -3.498300
      57    1      1  -0.26495606     6.863500     0.460400    -0.257000
      58    1      2  -0.19430469     6.027100    -0.171500    -1.383500
      59    1      5   0.09690490     6.572500     1.555900    -0.140300
      60    1      5   0.09690490     6.668100    -0.092500     0.719200
      61    1      5   0.09690490     7.970100     0.387700    -0.522000
      62    1      5   0.09690490     6.338700    -1.258000    -1.508600
      63    1      5   0.09690490     6.248200     0.387800    -2.351800
      64    1      1  -0.26495606     8.900700    -2.376700    -4.656800
      65    1      2  -0.19430469     7.728400    -2.719800    -3.719500
      66    1      5   0.09690490     9.564700    -3.295900    -4.782100
      67    1      5   0.09690490     8.496500    -2.075000    -5.673700
      68    1      5   0.09690490     9.510200    -1.522400    -4.212200
      69    1      5   0.09690490     8.150800    -3.082500    -2.724400
      70    1      5   0.09690490     7.103500    -3.555900    -4.175500
      71    1      1  -0.26495606     8.612400     0.824200    -3.549800
      72    1      2  -0.19430469     7.861500     1.129700    -4.858700
      73    1      5   0.09690490     9.397400     0.018500    -3.734100
      74    1      5   0.09690490     9.120900     1.775300    -3.184000
      75    1      5   0.09690490     7.874400     0.480300    -2.754800
      76    1      5   0.09690490     7.041700     1.892700    -4.641400
      77    1      5   0.09690490     8.602800     1.581400    -5.599800
      78    1      1  -0.26495606     8.858800    -2.875200    -9.034000
      79    1      2  -0.19430469     7.913900    -3.459200    -7.966800
      80    1      5   0.09690490     9.444500    -3.720900    -9.527200
      81    1      5   0.09690490     8.246200    -2.327200    -9.823100
      82    1      5   0.09690490     9.584900    -2.146600    -8.543200
      83    1      5   0.09690490     8.527600    -4.007400    -7.176100
      84    1      5   0.09690490     7.187400    -4.187400    -8.456900
      85    1      2  -0.19430469    -1.453800     0.820400    -3.899400
      86    1      2  -0.19430469    -0.272500     0.836000    -2.913600
      87    1      5   0.09690490    -1.922100    -0.219600    -3.922800
      88    1      5   0.09690490    -2.234600     1.584500    -3.573800
      89    1      5   0.09690490     0.183800     1.880900    -2.887900
      90    1      5   0.09690490     0.492000     0.085800    -3.290700
      91    1      2  -0.19430469    -5.136600     0.278700     1.977100
      92    1      2  -0.19430469    -5.991400    -0.853500     1.381600
      93    1      5   0.09690490    -5.615900     1.262500     1.663700
      94    1      5   0.09690490    -5.124800     0.195000     3.113400
      95    1      5   0.09690490    -5.992900    -0.766400     0.244600
      96    1      5   0.09690490    -5.568400    -1.866700     1.687400
      97    1      2  -0.19430469     6.193000    -2.900700    -6.219200
      98    1      2  -0.19430469     7.126900    -2.316900    -7.298500
      99    1      5   0.09690490     5.474800    -3.619000    -6.737700
     100    1      5   0.09690490     6.808700    -3.482400    -5.460100
     101    1      5   0.09690490     6.509000    -1.766900    -8.083600
     102    1      5   0.09690490     7.872800    -1.595200    -6.833700
     103    1      3  -0.12805131     0.240100     0.529300    -0.361100
     104    1      2  -0.19430469    -0.788000     0.449100    -1.513900
     105    1      2  -0.19430469    -0.613400     0.269300     0.904400
     106    1      2  -0.19430469     1.464900    -0.406700    -0.537600
     107    1      5   0.09690490     0.644800     1.592600    -0.299400
     108    1      5   0.09690490    -1.631400     1.174300    -1.270300
     109    1      5   0.09690490    -1.216800    -0.606200    -1.557300
     110    1      5   0.09690490     0.017300     0.244900     1.852900
     111    1      5   0.09690490    -1.165700    -0.719600     0.775200
     112    1      5   0.09690490     1.157600    -1.503400    -0.583600
     113    1      5   0.09690490     2.163700    -0.241500     0.347800
     114    1      3  -0.12805131    -5.226400     4.518900     2.204300
     115    1      2  -0.19430469    -4.728600     3.099800     2.526400
     116    1      2  -0.19430469    -6.526600     4.764900     2.988000
     117    1      2  -0.19430469    -4.166900     5.547700     2.637300
     118    1      5   0.09690490    -5.440100     4.614900     1.086500
     119    1      5   0.09690490    -4.459400     3.070900     3.632400
     120    1      5   0.09690490    -5.568700     2.362200     2.314200
     121    1      5   0.09690490    -6.917200     5.812700     2.764500
     122    1      5   0.09690490    -6.329800     4.658800     4.105500
     123    1      5   0.09690490    -3.959700     5.422100     3.751800
     124    1      5   0.09690490    -3.202800     5.383400     2.050100
     125    1      3  -0.12805131    -3.305000     1.255700     5.792400
     126    1      2  -0.19430469    -3.719500     1.077600     4.317900
     127    1      2  -0.19430469    -2.249600     0.211500     6.192300
     128    1      2  -0.19430469    -4.454100     1.123600     6.815200
     129    1      5   0.09690490    -2.860900     2.298400     5.900300
     130    1      5   0.09690490    -4.505600     1.865200     4.090800
     131    1      5   0.09690490    -4.172300     0.046600     4.141500
     132    1      5   0.09690490    -1.322900     0.315100     5.536500
     133    1      5   0.09690490    -2.688300    -0.834500     6.076800
     134    1      5   0.09690490    -4.016500     1.381400     7.835400
     135    1      5   0.09690490    -4.848600     0.054400     6.842400
     136    1      3  -0.12805131    -6.541900     2.121400     7.773500
     137    1      2  -0.19430469    -5.632200     2.073700     6.527900
     138    1      2  -0.19430469    -7.801000     2.958100     7.483700
     139    1      2  -0.19430469    -6.985400     0.726500     8.249900
     140    1      5   0.09690490    -5.953800     2.603600     8.623200
     141    1      5   0.09690490    -5.246600     3.129400     6.336500
     142    1      5   0.09690490    -6.198500     1.701800     5.610800
     143    1      5   0.09690490    -8.395200     2.472200     6.640100
     144    1      5   0.09690490    -7.503400     4.016700     7.184100
     145    1      5   0.09690490    -7.597800     0.849600     9.204000
     146    1      5   0.09690490    -6.066600     0.088200     8.469700
     147    1      4  -0.05457753    -2.829500     1.398000     1.912400
     148    1      2  -0.19430469    -1.604300     1.454900     0.970400
     149    1      2  -0.19430469    -3.707900     0.234800     1.404900
     150    1      2  -0.19430469    -3.486800     2.777900     1.672900
     151    1      2  -0.19430469    -2.477500     1.265500     3.412900
     152    1      5   0.09690490    -2.050100     1.576600    -0.069700
     153    1      5   0.09690490    -1.001300     2.392100     1.209400
     154    1      5   0.09690490    -3.800500     0.336000     0.272400
     155    1      5   0.09690490    -3.204900    -0.758900     1.649100
     156    1      5   0.09690490    -3.764300     2.859300     0.570100
     157    1      5   0.09690490    -2.707400     3.574500     1.911900
     158    1      5   0.09690490    -1.788500     0.373200     3.576200
     159    1      5   0.09690490    -1.929700     2.218000     3.717400
     160    1      4  -0.05457753     3.586000    -0.578400    -2.162500
     161    1      2  -0.19430469     2.192000     0.002400    -1.838600
     162    1      2  -0.19430469     3.361300    -2.103700    -2.319400
     163    1      2  -0.19430469     4.526100    -0.055100    -1.053500
     164    1      2  -0.19430469     3.874100     0.112600    -3.518900
     165    1      5   0.09690490     1.525000    -0.279900    -2.710300
     166    1      5   0.09690490     2.315900     1.135500    -1.811700
     167    1      5   0.09690490     2.861100    -2.498200    -1.372900
     168    1      5   0.09690490     2.623200    -2.209900    -3.181300
     169    1      5   0.09690490     4.315600     1.059700    -0.935400
     170    1      5   0.09690490     4.287100    -0.579800    -0.070300
     171    1      5   0.09690490     3.500900     1.178200    -3.363100
     172    1      5   0.09690490     3.187300    -0.379400    -4.285200
     173    1      4  -0.05457753     6.174200    -0.814700    -4.654600
     174    1      2  -0.19430469     5.255400     0.334700    -4.185900
     175    1      2  -0.19430469     6.834700    -1.496000    -3.438100
     176    1      2  -0.19430469     7.236700    -0.113500    -5.524600
     177    1      2  -0.19430469     5.358800    -1.811600    -5.508100
     178    1      5   0.09690490     5.015800     0.927600    -5.129600
     179    1      5   0.09690490     5.877700     1.007600    -3.508500
     180    1      5   0.09690490     7.463300    -0.727200    -2.886500
     181    1      5   0.09690490     6.008100    -1.825500    -2.733600
     182    1      5   0.09690490     6.724200     0.246200    -6.479900
     183    1      5   0.09690490     8.064300    -0.839700    -5.796900
     184    1      5   0.09690490     4.796700    -1.229800    -6.312100
     185    1      5   0.09690490     4.601400    -2.314300    -4.821300

Bonds

       1      1        1        2
       2      2        1        3
       3      2        1        4
       4      2        1        5
       5      6        2        6
       6      6        2        7
       7      3        2       85
       8      1        8        9
       9      2        8       10
      10      2        8       11
      11      2        8       12
      12      6        9       13
      13      6        9       14
      14      3        9       92
      15      1       15       16
      16      2       15       17
      17      2       15       18
      18      2       15       19
      19      6       16       20
      20      6       16       21
      21      3       16      116
      22      1       22       23
      23      2       22       24
      24      2       22       25
      25      2       22       26
      26      6       23       27
      27      6       23       28
      28      3       23      117
      29      1       29       30
      30      2       29       31
      31      2       29       32
      32      2       29       33
      33      6       30       34
      34      6       30       35
      35      3       30      127
      36      1       36       37
      37      2       36       38
      38      2       36       39
      39      2       36       40
      40      6       37       41
      41      6       37       42
      42      3       37      138
      43      1       43       44
      44      2       43       45
      45      2       43       46
      46      2       43       47
      47      6       44       48
      48      6       44       49
      49      3       44      139
      50      1       50       51
      51      2       50       52
      52      2       50       53
      53      2       50       54
      54      6       51       55
      55      6       51       56
      56      3       51      162
      57      1       57       58
      58      2       57       59
      59      2       57       60
      60      2       57       61
      61      6       58       62
      62      6       58       63
      63      3       58      163
      64      1       64       65
      65      2       64       66
      66      2       64       67
      67      2       64       68
      68      6       65       69
      69      6       65       70
      70      3       65      175
      71      1       71       72
      72      2       71       73
      73      2       71       74
      74      2       71       75
      75      6       72       76
      76      6       72       77
      77      3       72      176
      78      1       78       79
      79      2       78       80
      80      2       78       81
      81      2       78       82
      82      6       79       83
      83      6       79       84
      84      3       79       98
      85      3       85       86
      86      6       85       87
      87      6       85       88
      88      6       86       89
      89      6       86       90
      90      3       86      104
      91      3       91       92
      92      6       91       93
      93      6       91       94
      94      3       91      149
      95      6       92       95
      96      6       92       96
      97      3       97       98
      98      6       97       99
      99      6       97      100
     100      3       97      177
     101      6       98      101
     102      6       98      102
     103      4      103      104
     104      4      103      105
     105      4      103      106
     106      7      103      107
     107      6      104      108
     108      6      104      109
     109      6      105      110
     110      6      105      111
     111      3      105      148
     112      6      106      112
     113      6      106      113
     114      3      106      161
     115      4      114      115
     116      4      114      116
     117      4      114      117
     118      7      114      118
     119      6      115      119
     120      6      115      120
     121      3      115      150
     122      6      116      121
     123      6      116      122
     124      6      117      123
     125      6      117      124
     126      4      125      126
     127      4      125      127
     128      4      125      128
     129      7      125      129
     130      6      126      130
     131      6      126      131
     132      3      126      151
     133      6      127      132
     134      6      127      133
     135      6      128      134
     136      6      128      135
     137      3      128      137
     138      4      136      137
     139      4      136      138
     140      4      136      139
     141      7      136      140
     142      6      137      141
     143      6      137      142
     144      6      138      143
     145      6      138      144
     146      6      139      145
     147      6      139      146
     148      5      147      148
     149      5      147      149
     150      5      147      150
     151      5      147      151
     152      6      148      152
     153      6      148      153
     154      6      149      154
     155      6      149      155
     156      6      150      156
     157      6      150      157
     158      6      151      158
     159      6      151      159
     160      5      160      161
     161      5      160      162
     162      5      160      163
     163      5      160      164
     164      6      161      165
     165      6      161      166
     166      6      162      167
     167      6      162      168
     168      6      163      169
     169      6      163      170
     170      6      164      171
     171      6      164      172
     172      3      164      174
     173      5      173      174
     174      5      173      175
     175      5      173      176
     176      5      173      177
     177      6      174      178
     178      6      174      179
     179      6      175      180
     180      6      175      181
     181      6      176      182
     182      6      176      183
     183      6      177      184
     184      6      177      185

Angles

       1      2        1        2        6
       2      2        1        2        7
       3      1        1        2       85
       4      3        2        1        3
       5      3        2        1        4
       6      3        2        1        5
       7      4        2       85       86
       8      7        2       85       87
       9      7        2       85       88
      10     13        3        1        4
      11     13        3        1        5
      12     13        4        1        5
      13     14        6        2        7
      14      7        6        2       85
      15      7        7        2       85
      16      2        8        9       13
      17      2        8        9       14
      18      1        8        9       92
      19      3        9        8       10
      20      3        9        8       11
      21      3        9        8       12
      22      4        9       92       91
      23      7        9       92       95
      24      7        9       92       96
      25     13       10        8       11
      26     13       10        8       12
      27     13       11        8       12
      28     14       13        9       14
      29      7       13        9       92
      30      7       14        9       92
      31      2       15       16       20
      32      2       15       16       21
      33      1       15       16      116
      34      3       16       15       17
      35      3       16       15       18
      36      3       16       15       19
      37      5       16      116      114
      38      7       16      116      121
      39      7       16      116      122
      40     13       17       15       18
      41     13       17       15       19
      42     13       18       15       19
      43     14       20       16       21
      44      7       20       16      116
      45      7       21       16      116
      46      2       22       23       27
      47      2       22       23       28
      48      1       22       23      117
      49      3       23       22       24
      50      3       23       22       25
      51      3       23       22       26
      52      5       23      117      114
      53      7       23      117      123
      54      7       23      117      124
      55     13       24       22       25
      56     13       24       22       26
      57     13       25       22       26
      58     14       27       23       28
      59      7       27       23      117
      60      7       28       23      117
      61      2       29       30       34
      62      2       29       30       35
      63      1       29       30      127
      64      3       30       29       31
      65      3       30       29       32
      66      3       30       29       33
      67      5       30      127      125
      68      7       30      127      132
      69      7       30      127      133
      70     13       31       29       32
      71     13       31       29       33
      72     13       32       29       33
      73     14       34       30       35
      74      7       34       30      127
      75      7       35       30      127
      76      2       36       37       41
      77      2       36       37       42
      78      1       36       37      138
      79      3       37       36       38
      80      3       37       36       39
      81      3       37       36       40
      82      5       37      138      136
      83      7       37      138      143
      84      7       37      138      144
      85     13       38       36       39
      86     13       38       36       40
      87     13       39       36       40
      88     14       41       37       42
      89      7       41       37      138
      90      7       42       37      138
      91      2       43       44       48
      92      2       43       44       49
      93      1       43       44      139
      94      3       44       43       45
      95      3       44       43       46
      96      3       44       43       47
      97      5       44      139      136
      98      7       44      139      145
      99      7       44      139      146
     100     13       45       43       46
     101     13       45       43       47
     102     13       46       43       47
     103     14       48       44       49
     104      7       48       44      139
     105      7       49       44      139
     106      2       50       51       55
     107      2       50       51       56
     108      1       50       51      162
     109      3       51       50       52
     110      3       51       50       53
     111      3       51       50       54
     112      6       51      162      160
     113      7       51      162      167
     114      7       51      162      168
     115     13       52       50       53
     116     13       52       50       54
     117     13       53       50       54
     118     14       55       51       56
     119      7       55       51      162
     120      7       56       51      162
     121      2       57       58       62
     122      2       57       58       63
     123      1       57       58      163
     124      3       58       57       59
     125      3       58       57       60
     126      3       58       57       61
     127      6       58      163      160
     128      7       58      163      169
     129      7       58      163      170
     130     13       59       57       60
     131     13       59       57       61
     132     13       60       57       61
     133     14       62       58       63
     134      7       62       58      163
     135      7       63       58      163
     136      2       64       65       69
     137      2       64       65       70
     138      1       64       65      175
     139      3       65       64       66
     140      3       65       64       67
     141      3       65       64       68
     142      6       65      175      173
     143      7       65      175      180
     144      7       65      175      181
     145     13       66       64       67
     146     13       66       64       68
     147     13       67       64       68
     148     14       69       65       70
     149      7       69       65      175
     150      7       70       65      175
     151      2       71       72       76
     152      2       71       72       77
     153      1       71       72      176
     154      3       72       71       73
     155      3       72       71       74
     156      3       72       71       75
     157      6       72      176      173
     158      7       72      176      182
     159      7       72      176      183
     160     13       73       71       74
     161     13       73       71       75
     162     13       74       71       75
     163     14       76       72       77
     164      7       76       72      176
     165      7       77       72      176
     166      2       78       79       83
     167      2       78       79       84
     168      1       78       79       98
     169      3       79       78       80
     170      3       79       78       81
     171      3       79       78       82
     172      4       79       98       97
     173      7       79       98      101
     174      7       79       98      102
     175     13       80       78       81
     176     13       80       78       82
     177     13       81       78       82
     178     14       83       79       84
     179      7       83       79       98
     180      7       84       79       98
     181      7       85       86       89
     182      7       85       86       90
     183      4       85       86      104
     184      7       86       85       87
     185      7       86       85       88
     186      5       86      104      103
     187      7       86      104      108
     188      7       86      104      109
     189     14       87       85       88
     190     14       89       86       90
     191      7       89       86      104
     192      7       90       86      104
     193      7       91       92       95
     194      7       91       92       96
     195      6       91      149      147
     196      7       91      149      154
     197      7       91      149      155
     198      7       92       91       93
     199      7       92       91       94
     200      4       92       91      149
     201     14       93       91       94
     202      7       93       91      149
     203      7       94       91      149
     204     14       95       92       96
     205      7       97       98      101
     206      7       97       98      102
     207      6       97      177      173
     208      7       97      177      184
     209      7       97      177      185
     210      7       98       97       99
     211      7       98       97      100
     212      4       98       97      177
     213     14       99       97      100
     214      7       99       97      177
     215      7      100       97      177
     216     14      101       98      102
     217     11      103      104      108
     218     11      103      104      109
     219     11      103      105      110
     220     11      103      105      111
     221      5      103      105      148
     222     11      103      106      112
     223     11      103      106      113
     224      5      103      106      161
     225      8      104      103      105
     226      8      104      103      106
     227      9      104      103      107
     228      8      105      103      106
     229      9      105      103      107
     230      6      105      148      147
     231      7      105      148      152
     232      7      105      148      153
     233      9      106      103      107
     234      6      106      161      160
     235      7      106      161      165
     236      7      106      161      166
     237     14      108      104      109
     238     14      110      105      111
     239      7      110      105      148
     240      7      111      105      148
     241     14      112      106      113
     242      7      112      106      161
     243      7      113      106      161
     244     11      114      115      119
     245     11      114      115      120
     246      5      114      115      150
     247     11      114      116      121
     248     11      114      116      122
     249     11      114      117      123
     250     11      114      117      124
     251      8      115      114      116
     252      8      115      114      117
     253      9      115      114      118
     254      6      115      150      147
     255      7      115      150      156
     256      7      115      150      157
     257      8      116      114      117
     258      9      116      114      118
     259      9      117      114      118
     260     14      119      115      120
     261      7      119      115      150
     262      7      120      115      150
     263     14      121      116      122
     264     14      123      117      124
     265     11      125      126      130
     266     11      125      126      131
     267      5      125      126      151
     268     11      125      127      132
     269     11      125      127      133
     270     11      125      128      134
     271     11      125      128      135
     272      5      125      128      137
     273      8      126      125      127
     274      8      126      125      128
     275      9      126      125      129
     276      6      126      151      147
     277      7      126      151      158
     278      7      126      151      159
     279      8      127      125      128
     280      9      127      125      129
     281      9      128      125      129
     282      5      128      137      136
     283      7      128      137      141
     284      7      128      137      142
     285     14      130      126      131
     286      7      130      126      151
     287      7      131      126      151
     288     14      132      127      133
     289     14      134      128      135
     290      7      134      128      137
     291      7      135      128      137
     292     11      136      137      141
     293     11      136      137      142
     294     11      136      138      143
     295     11      136      138      144
     296     11      136      139      145
     297     11      136      139      146
     298      8      137      136      138
     299      8      137      136      139
     300      9      137      136      140
     301      8      138      136      139
     302      9      138      136      140
     303      9      139      136      140
     304     14      141      137      142
     305     14      143      138      144
     306     14      145      139      146
     307     12      147      148      152
     308     12      147      148      153
     309     12      147      149      154
     310     12      147      149      155
     311     12      147      150      156
     312     12      147      150      157
     313     12      147      151      158
     314     12      147      151      159
     315     10      148      147      149
     316     10      148      147      150
     317     10      148      147      151
     318     10      149      147      150
     319     10      149      147      151
     320     10      150      147      151
     321     14      152      148      153
     322     14      154      149      155
     323     14      156      150      157
     324     14      158      151      159
     325     12      160      161      165
     326     12      160      161      166
     327     12      160      162      167
     328     12      160      162      168
     329     12      160      163      169
     330     12      160      163      170
     331     12      160      164      171
     332     12      160      164      172
     333      6      160      164      174
     334     10      161      160      162
     335     10      161      160      163
     336     10      161      160      164
     337     10      162      160      163
     338     10      162      160      164
     339     10      163      160      164
     340      6      164      174      173
     341      7      164      174      178
     342      7      164      174      179
     343     14      165      161      166
     344     14      167      162      168
     345     14      169      163      170
     346     14      171      164      172
     347      7      171      164      174
     348      7      172      164      174
     349     12      173      174      178
     350     12      173      174      179
     351     12      173      175      180
     352     12      173      175      181
     353     12      173      176      182
     354     12      173      176      183
     355     12      173      177      184
     356     12      173      177      185
     357     10      174      173      175
     358     10      174      173      176
     359     10      174      173      177
     360     10      175      173      176
     361     10      175      173      177
     362     10      176      173      177
     363     14      178      174      179
     364     14      180      175      181
     365     14      182      176      183
     366     14      184      177      185

Dihedrals

       1      1        1        2       85       86
       2      4        1        2       85       87
       3      4        1        2       85       88
       4      9        2       85       86       89
       5      9        2       85       86       90
       6      6        2       85       86      104
       7     20        3        1        2        6
       8     20        3        1        2        7
       9      5        3        1        2       85
      10     20        4        1        2        6
      11     20        4        1        2        7
      12      5        4        1        2       85
      13     20        5        1        2        6
      14     20        5        1        2        7
      15      5        5        1        2       85
      16      9        6        2       85       86
      17     21        6        2       85       87
      18     21        6        2       85       88
      19      9        7        2       85       86
      20     21        7        2       85       87
      21     21        7        2       85       88
      22      1        8        9       92       91
      23      4        8        9       92       95
      24      4        8        9       92       96
      25      9        9       92       91       93
      26      9        9       92       91       94
      27      6        9       92       91      149
      28     20       10        8        9       13
      29     20       10        8        9       14
      30      5       10        8        9       92
      31     20       11        8        9       13
      32     20       11        8        9       14
      33      5       11        8        9       92
      34     20       12        8        9       13
      35     20       12        8        9       14
      36      5       12        8        9       92
      37      9       13        9       92       91
      38     21       13        9       92       95
      39     21       13        9       92       96
      40      9       14        9       92       91
      41     21       14        9       92       95
      42     21       14        9       92       96
      43      2       15       16      116      114
      44      4       15       16      116      121
      45      4       15       16      116      122
      46     10       16      116      114      115
      47     10       16      116      114      117
      48     11       16      116      114      118
      49     20       17       15       16       20
      50     20       17       15       16       21
      51      5       17       15       16      116
      52     20       18       15       16       20
      53     20       18       15       16       21
      54      5       18       15       16      116
      55     20       19       15       16       20
      56     20       19       15       16       21
      57      5       19       15       16      116
      58     17       20       16      116      114
      59     21       20       16      116      121
      60     21       20       16      116      122
      61     17       21       16      116      114
      62     21       21       16      116      121
      63     21       21       16      116      122
      64      2       22       23      117      114
      65      4       22       23      117      123
      66      4       22       23      117      124
      67     10       23      117      114      115
      68     10       23      117      114      116
      69     11       23      117      114      118
      70     20       24       22       23       27
      71     20       24       22       23       28
      72      5       24       22       23      117
      73     20       25       22       23       27
      74     20       25       22       23       28
      75      5       25       22       23      117
      76     20       26       22       23       27
      77     20       26       22       23       28
      78      5       26       22       23      117
      79     17       27       23      117      114
      80     21       27       23      117      123
      81     21       27       23      117      124
      82     17       28       23      117      114
      83     21       28       23      117      123
      84     21       28       23      117      124
      85      2       29       30      127      125
      86      4       29       30      127      132
      87      4       29       30      127      133
      88     10       30      127      125      126
      89     10       30      127      125      128
      90     11       30      127      125      129
      91     20       31       29       30       34
      92     20       31       29       30       35
      93      5       31       29       30      127
      94     20       32       29       30       34
      95     20       32       29       30       35
      96      5       32       29       30      127
      97     20       33       29       30       34
      98     20       33       29       30       35
      99      5       33       29       30      127
     100     17       34       30      127      125
     101     21       34       30      127      132
     102     21       34       30      127      133
     103     17       35       30      127      125
     104     21       35       30      127      132
     105     21       35       30      127      133
     106      2       36       37      138      136
     107      4       36       37      138      143
     108      4       36       37      138      144
     109     10       37      138      136      137
     110     10       37      138      136      139
     111     11       37      138      136      140
     112     20       38       36       37       41
     113     20       38       36       37       42
     114      5       38       36       37      138
     115     20       39       36       37       41
     116     20       39       36       37       42
     117      5       39       36       37      138
     118     20       40       36       37       41
     119     20       40       36       37       42
     120      5       40       36       37      138
     121     17       41       37      138      136
     122     21       41       37      138      143
     123     21       41       37      138      144
     124     17       42       37      138      136
     125     21       42       37      138      143
     126     21       42       37      138      144
     127      2       43       44      139      136
     128      4       43       44      139      145
     129      4       43       44      139      146
     130     10       44      139      136      137
     131     10       44      139      136      138
     132     11       44      139      136      140
     133     20       45       43       44       48
     134     20       45       43       44       49
     135      5       45       43       44      139
     136     20       46       43       44       48
     137     20       46       43       44       49
     138      5       46       43       44      139
     139     20       47       43       44       48
     140     20       47       43       44       49
     141      5       47       43       44      139
     142     17       48       44      139      136
     143     21       48       44      139      145
     144     21       48       44      139      146
     145     17       49       44      139      136
     146     21       49       44      139      145
     147     21       49       44      139      146
     148      3       50       51      162      160
     149      4       50       51      162      167
     150      4       50       51      162      168
     151     12       51      162      160      161
     152     12       51      162      160      163
     153     12       51      162      160      164
     154     20       52       50       51       55
     155     20       52       50       51       56
     156      5       52       50       51      162
     157     20       53       50       51       55
     158     20       53       50       51       56
     159      5       53       50       51      162
     160     20       54       50       51       55
     161     20       54       50       51       56
     162      5       54       50       51      162
     163     19       55       51      162      160
     164     21       55       51      162      167
     165     21       55       51      162      168
     166     19       56       51      162      160
     167     21       56       51      162      167
     168     21       56       51      162      168
     169      3       57       58      163      160
     170      4       57       58      163      169
     171      4       57       58      163      170
     172     12       58      163      160      161
     173     12       58      163      160      162
     174     12       58      163      160      164
     175     20       59       57       58       62
     176     20       59       57       58       63
     177      5       59       57       58      163
     178     20       60       57       58       62
     179     20       60       57       58       63
     180      5       60       57       58      163
     181     20       61       57       58       62
     182     20       61       57       58       63
     183      5       61       57       58      163
     184     19       62       58      163      160
     185     21       62       58      163      169
     186     21       62       58      163      170
     187     19       63       58      163      160
     188     21       63       58      163      169
     189     21       63       58      163      170
     190      3       64       65      175      173
     191      4       64       65      175      180
     192      4       64       65      175      181
     193     12       65      175      173      174
     194     12       65      175      173      176
     195     12       65      175      173      177
     196     20       66       64       65       69
     197     20       66       64       65       70
     198      5       66       64       65      175
     199     20       67       64       65       69
     200     20       67       64       65       70
     201      5       67       64       65      175
     202     20       68       64       65       69
     203     20       68       64       65       70
     204      5       68       64       65      175
     205     19       69       65      175      173
     206     21       69       65      175      180
     207     21       69       65      175      181
     208     19       70       65      175      173
     209     21       70       65      175      180
     210     21       70       65      175      181
     211      3       71       72      176      173
     212      4       71       72      176      182
     213      4       71       72      176      183
     214     12       72      176      173      174
     215     12       72      176      173      175
     216     12       72      176      173      177
     217     20       73       71       72       76
     218     20       73       71       72       77
     219      5       73       71       72      176
     220     20       74       71       72       76
     221     20       74       71       72       77
     222      5       74       71       72      176
     223     20       75       71       72       76
     224     20       75       71       72       77
     225      5       75       71       72      176
     226     19       76       72      176      173
     227     21       76       72      176      182
     228     21       76       72      176      183
     229     19       77       72      176      173
     230     21       77       72      176      182
     231     21       77       72      176      183
     232      1       78       79       98       97
     233      4       78       79       98      101
     234      4       78       79       98      102
     235      9       79       98       97       99
     236      9       79       98       97      100
     237      6       79       98       97      177
     238     20       80       78       79       83
     239     20       80       78       79       84
     240      5       80       78       79       98
     241     20       81       78       79       83
     242     20       81       78       79       84
     243      5       81       78       79       98
     244     20       82       78       79       83
     245     20       82       78       79       84
     246      5       82       78       79       98
     247      9       83       79       98       97
     248     21       83       79       98      101
     249     21       83       79       98      102
     250      9       84       79       98       97
     251     21       84       79       98      101
     252     21       84       79       98      102
     253      7       85       86      104      103
     254      9       85       86      104      108
     255      9       85       86      104      109
     256     10       86      104      103      105
     257     10       86      104      103      106
     258     11       86      104      103      107
     259     21       87       85       86       89
     260     21       87       85       86       90
     261      9       87       85       86      104
     262     21       88       85       86       89
     263     21       88       85       86       90
     264      9       88       85       86      104
     265     17       89       86      104      103
     266     21       89       86      104      108
     267     21       89       86      104      109
     268     17       90       86      104      103
     269     21       90       86      104      108
     270     21       90       86      104      109
     271     12       91      149      147      148
     272     12       91      149      147      150
     273     12       91      149      147      151
     274      8       92       91      149      147
     275      9       92       91      149      154
     276      9       92       91      149      155
     277     21       93       91       92       95
     278     21       93       91       92       96
     279     19       93       91      149      147
     280     21       93       91      149      154
     281     21       93       91      149      155
     282     21       94       91       92       95
     283     21       94       91       92       96
     284     19       94       91      149      147
     285     21       94       91      149      154
     286     21       94       91      149      155
     287      9       95       92       91      149
     288      9       96       92       91      149
     289     12       97      177      173      174
     290     12       97      177      173      175
     291     12       97      177      173      176
     292      8       98       97      177      173
     293      9       98       97      177      184
     294      9       98       97      177      185
     295     21       99       97       98      101
     296     21       99       97       98      102
     297     19       99       97      177      173
     298     21       99       97      177      184
     299     21       99       97      177      185
     300     21      100       97       98      101
     301     21      100       97       98      102
     302     19      100       97      177      173
     303     21      100       97      177      184
     304     21      100       97      177      185
     305      9      101       98       97      177
     306      9      102       98       97      177
     307     16      103      105      148      147
     308     17      103      105      148      152
     309     17      103      105      148      153
     310     16      103      106      161      160
     311     17      103      106      161      165
     312     17      103      106      161      166
     313     13      104      103      105      110
     314     13      104      103      105      111
     315     10      104      103      105      148
     316     13      104      103      106      112
     317     13      104      103      106      113
     318     10      104      103      106      161
     319     13      105      103      104      108
     320     13      105      103      104      109
     321     13      105      103      106      112
     322     13      105      103      106      113
     323     10      105      103      106      161
     324     12      105      148      147      149
     325     12      105      148      147      150
     326     12      105      148      147      151
     327     13      106      103      104      108
     328     13      106      103      104      109
     329     13      106      103      105      110
     330     13      106      103      105      111
     331     10      106      103      105      148
     332     12      106      161      160      162
     333     12      106      161      160      163
     334     12      106      161      160      164
     335     22      107      103      104      108
     336     22      107      103      104      109
     337     22      107      103      105      110
     338     22      107      103      105      111
     339     11      107      103      105      148
     340     22      107      103      106      112
     341     22      107      103      106      113
     342     11      107      103      106      161
     343     19      110      105      148      147
     344     21      110      105      148      152
     345     21      110      105      148      153
     346     19      111      105      148      147
     347     21      111      105      148      152
     348     21      111      105      148      153
     349     19      112      106      161      160
     350     21      112      106      161      165
     351     21      112      106      161      166
     352     19      113      106      161      160
     353     21      113      106      161      165
     354     21      113      106      161      166
     355     16      114      115      150      147
     356     17      114      115      150      156
     357     17      114      115      150      157
     358     13      115      114      116      121
     359     13      115      114      116      122
     360     13      115      114      117      123
     361     13      115      114      117      124
     362     12      115      150      147      148
     363     12      115      150      147      149
     364     12      115      150      147      151
     365     13      116      114      115      119
     366     13      116      114      115      120
     367     10      116      114      115      150
     368     13      116      114      117      123
     369     13      116      114      117      124
     370     13      117      114      115      119
     371     13      117      114      115      120
     372     10      117      114      115      150
     373     13      117      114      116      121
     374     13      117      114      116      122
     375     22      118      114      115      119
     376     22      118      114      115      120
     377     11      118      114      115      150
     378     22      118      114      116      121
     379     22      118      114      116      122
     380     22      118      114      117      123
     381     22      118      114      117      124
     382     19      119      115      150      147
     383     21      119      115      150      156
     384     21      119      115      150      157
     385     19      120      115      150      147
     386     21      120      115      150      156
     387     21      120      115      150      157
     388     16      125      126      151      147
     389     17      125      126      151      158
     390     17      125      126      151      159
     391     15      125      128      137      136
     392     17      125      128      137      141
     393     17      125      128      137      142
     394     13      126      125      127      132
     395     13      126      125      127      133
     396     13      126      125      128      134
     397     13      126      125      128      135
     398     10      126      125      128      137
     399     12      126      151      147      148
     400     12      126      151      147      149
     401     12      126      151      147      150
     402     13      127      125      126      130
     403     13      127      125      126      131
     404     10      127      125      126      151
     405     13      127      125      128      134
     406     13      127      125      128      135
     407     10      127      125      128      137
     408     13      128      125      126      130
     409     13      128      125      126      131
     410     10      128      125      126      151
     411     13      128      125      127      132
     412     13      128      125      127      133
     413     10      128      137      136      138
     414     10      128      137      136      139
     415     11      128      137      136      140
     416     22      129      125      126      130
     417     22      129      125      126      131
     418     11      129      125      126      151
     419     22      129      125      127      132
     420     22      129      125      127      133
     421     22      129      125      128      134
     422     22      129      125      128      135
     423     11      129      125      128      137
     424     19      130      126      151      147
     425     21      130      126      151      158
     426     21      130      126      151      159
     427     19      131      126      151      147
     428     21      131      126      151      158
     429     21      131      126      151      159
     430     17      134      128      137      136
     431     21      134      128      137      141
     432     21      134      128      137      142
     433     17      135      128      137      136
     434     21      135      128      137      141
     435     21      135      128      137      142
     436     13      137      136      138      143
     437     13      137      136      138      144
     438     13      137      136      139      145
     439     13      137      136      139      146
     440     13      138      136      137      141
     441     13      138      136      137      142
     442     13      138      136      139      145
     443     13      138      136      139      146
     444     13      139      136      137      141
     445     13      139      136      137      142
     446     13      139      136      138      143
     447     13      139      136      138      144
     448     22      140      136      137      141
     449     22      140      136      137      142
     450     22      140      136      138      143
     451     22      140      136      138      144
     452     22      140      136      139      145
     453     22      140      136      139      146
     454     14      148      147      149      154
     455     14      148      147      149      155
     456     14      148      147      150      156
     457     14      148      147      150      157
     458     14      148      147      151      158
     459     14      148      147      151      159
     460     14      149      147      148      152
     461     14      149      147      148      153
     462     14      149      147      150      156
     463     14      149      147      150      157
     464     14      149      147      151      158
     465     14      149      147      151      159
     466     14      150      147      148      152
     467     14      150      147      148      153
     468     14      150      147      149      154
     469     14      150      147      149      155
     470     14      150      147      151      158
     471     14      150      147      151      159
     472     14      151      147      148      152
     473     14      151      147      148      153
     474     14      151      147      149      154
     475     14      151      147      149      155
     476     14      151      147      150      156
     477     14      151      147      150      157
     478     18      160      164      174      173
     479     19      160      164      174      178
     480     19      160      164      174      179
     481     14      161      160      162      167
     482     14      161      160      162      168
     483     14      161      160      163      169
     484     14      161      160      163      170
     485     14      161      160      164      171
     486     14      161      160      164      172
     487     12      161      160      164      174
     488     14      162      160      161      165
     489     14      162      160      161      166
     490     14      162      160      163      169
     491     14      162      160      163      170
     492     14      162      160      164      171
     493     14      162      160      164      172
     494     12      162      160      164      174
     495     14      163      160      161      165
     496     14      163      160      161      166
     497     14      163      160      162      167
     498     14      163      160      162      168
     499     14      163      160      164      171
     500     14      163      160      164      172
     501     12      163      160      164      174
     502     14      164      160      161      165
     503     14      164      160      161      166
     504     14      164      160      162      167
     505     14      164      160      162      168
     506     14      164      160      163      169
     507     14      164      160      163      170
     508     12      164      174      173      175
     509     12      164      174      173      176
     510     12      164      174      173      177
     511     19      171      164      174      173
     512     21      171      164      174      178
     513     21      171      164      174      179
     514     19      172      164      174      173
     515     21      172      164      174      178
     516     21      172      164      174      179
     517     14      174      173      175      180
     518     14      174      173      175      181
     519     14      174      173      176      182
     520     14      174      173      176      183
     521     14      174      173      177      184
     522     14      174      173      177      185
     523     14      175      173      174      178
     524     14      175      173      174      179
     525     14      175      173      176      182
     526     14      175      173      176      183
     527     14      175      173      177      184
     528     14      175      173      177      185
     529     14      176      173      174      178
     530     14      176      173      174      179
     531     14      176      173      175      180
     532     14      176      173      175      181
     533     14      176      173      177      184
     534     14      176      173      177      185
     535     14      177      173      174      178
     536     14      177      173      174      179
     537     14      177      173      175      180
     538     14      177      173      175      181
     539     14      177      173      176      182
     540     14      177      173      176      183

Impropers


