LAMMPS data file generated by clean-room 1-hop pipeline

     241 atoms
     254 bonds
     450 angles
     668 dihedrals
      84 impropers

      10 atom types
      20 bond types
      50 angle types
      86 dihedral types
      11 improper types

  -31.575600    31.926400 xlo xhi
  -31.858500    35.876700 ylo yhi
  -25.834600    29.304800 zlo zhi

Masses

       1    12.011000
       2    12.011000
       3    12.011000
       4    12.011000
       5    12.011000
       6    12.011000
       7    12.011000
       8    12.011000
       9     1.008000
      10     1.008000

Pair Coeffs

       1     0.070000     3.550000
       2     0.070000     3.550000
       3     0.070000     3.550000
       4     0.066000     3.500000
       5     0.066000     3.500000
       6     0.066000     3.500000
       7     0.066000     3.500000
       8     0.066000     3.500000
       9     0.030000     2.420000
      10     0.030000     2.500000

Bond Coeffs

       1   469.000000     1.400000
       2   469.000000     1.400000
       3   317.000000     1.510000
       4   469.000000     1.400000
       5   469.000000     1.400000
       6   367.000000     1.080000
       7   385.000000     1.460000
       8   268.000000     1.529000
       9   268.000000     1.529000
      10   268.000000     1.529000
      11   268.000000     1.529000
      12   268.000000     1.529000
      13   340.000000     1.090000
      14   268.000000     1.529000
      15   340.000000     1.090000
      16   268.000000     1.529000
      17   268.000000     1.529000
      18   268.000000     1.529000
      19   340.000000     1.090000
      20   340.000000     1.090000

Angle Coeffs

       1    63.000000   120.000000
       2    63.000000   120.000000
       3    63.000000   120.000000
       4    35.000000   120.000000
       5    63.000000   120.000000
       6    63.000000   120.000000
       7    63.000000   114.000000
       8    63.000000   114.000000
       9    63.000000   114.000000
      10    63.000000   114.000000
      11    63.000000   114.000000
      12    35.000000   109.500000
      13    63.000000   120.000000
      14    63.000000   120.000000
      15    70.000000   120.000000
      16    63.000000   120.000000
      17    63.000000   120.000000
      18    35.000000   120.000000
      19    63.000000   120.000000
      20    63.000000   120.000000
      21    70.000000   120.000000
      22    63.000000   120.000000
      23    35.000000   120.000000
      24    63.000000   120.000000
      25    37.500000   110.700000
      26    37.500000   110.700000
      27    58.350000   112.700000
      28    37.500000   110.700000
      29    58.350000   112.700000
      30    58.350000   112.700000
      31    37.500000   110.700000
      32    58.350000   112.700000
      33    58.350000   112.700000
      34    37.500000   110.700000
      35    58.350000   112.700000
      36    37.500000   110.700000
      37    37.500000   110.700000
      38    37.500000   110.700000
      39    58.350000   112.700000
      40    58.350000   112.700000
      41    37.500000   110.700000
      42    37.500000   110.700000
      43    58.350000   112.700000
      44    37.500000   110.700000
      45    37.500000   110.700000
      46    37.500000   110.700000
      47    37.500000   110.700000
      48    33.000000   107.800000
      49    33.000000   107.800000
      50    33.000000   107.800000

Dihedral Coeffs

       1     0.000000     7.250000     0.000000     0.000000
       2     0.000000     7.250000     0.000000     0.000000
       3     0.000000     7.250000     0.000000     0.000000
       4     0.000000     7.250000     0.000000     0.000000
       5     0.000000     7.250000     0.000000     0.000000
       6     0.000000     7.250000     0.000000     0.000000
       7     0.000000     7.250000     0.000000     0.000000
       8     0.000000     7.250000     0.000000     0.000000
       9     0.000000     7.250000     0.000000     0.000000
      10     0.000000     7.250000     0.000000     0.000000
      11     0.000000     1.650000     0.000000    -0.050000
      12     0.000000     1.650000     0.000000    -0.050000
      13     0.000000     0.000000     0.000000     0.000000
      14     0.000000     0.000000     0.462000     0.000000
      15     0.000000     0.000000     0.462000     0.000000
      16     0.000000     0.000000     0.000000     0.000000
      17     0.000000     0.000000     0.462000     0.000000
      18     0.000000     0.000000     0.000000     0.000000
      19     0.000000     0.000000     0.000000     0.000000
      20     0.000000     0.000000     0.462000     0.000000
      21     0.000000     0.000000     0.000000     0.000000
      22     0.000000     0.000000     0.000000     0.000000
      23     0.000000     7.250000     0.000000     0.000000
      24     0.000000     7.250000     0.000000     0.000000
      25     0.000000     7.250000     0.000000     0.000000
      26     0.000000     7.250000     0.000000     0.000000
      27     0.000000     7.250000     0.000000     0.000000
      28    -0.250000     0.000000     0.000000     0.000000
      29    -0.250000     0.000000     0.000000     0.000000
      30    -0.250000     0.000000     0.000000     0.000000
      31    -0.250000     0.000000     0.000000     0.000000
      32    -0.250000     0.000000     0.000000     0.000000
      33     0.000000     0.000000     0.000000     0.000000
      34     0.000000     7.250000     0.000000     0.000000
      35     0.000000     7.250000     0.000000     0.000000
      36     0.000000     7.250000     0.000000     0.000000
      37     0.000000     7.250000     0.000000     0.000000
      38     0.000000     7.250000     0.000000     0.000000
      39     0.000000     7.250000     0.000000     0.000000
      40     0.000000     7.250000     0.000000     0.000000
      41     0.000000     7.250000     0.000000     0.000000
      42     0.000000     7.250000     0.000000     0.000000
      43     0.000000     1.650000     0.000000    -0.050000
      44     0.000000     1.650000     0.000000    -0.050000
      45     0.000000     7.250000     0.000000     0.000000
      46     0.000000     7.250000     0.000000     0.000000
      47    -0.250000     0.000000     0.000000     0.000000
      48    -0.250000     0.000000     0.000000     0.000000
      49     0.000000     0.000000     0.000000     0.000000
      50     0.000000     7.250000     0.000000     0.000000
      51     0.000000     7.250000     0.000000     0.000000
      52     0.000000     7.250000     0.000000     0.000000
      53     0.000000     7.250000     0.000000     0.000000
      54     0.000000     7.250000     0.000000     0.000000
      55     0.000000     7.250000     0.000000     0.000000
      56     0.000000     1.650000     0.000000    -0.050000
      57     0.000000     7.250000     0.000000     0.000000
      58     0.850000    -0.200000     0.200000     0.000000
      59     0.000000     0.000000     0.300000     0.000000
      60     0.000000     0.000000     0.300000     0.000000
      61     0.850000    -0.200000     0.200000     0.000000
      62     0.000000     0.000000     0.300000     0.000000
      63     0.000000     0.000000     0.300000     0.000000
      64     0.850000    -0.200000     0.200000     0.000000
      65     0.000000     0.000000     0.300000     0.000000
      66     0.850000    -0.200000     0.200000     0.000000
      67     0.850000    -0.200000     0.200000     0.000000
      68     0.000000     0.000000     0.300000     0.000000
      69     0.000000     0.000000     0.300000     0.000000
      70     0.000000     0.000000     0.300000     0.000000
      71     0.000000     0.000000     0.300000     0.000000
      72     0.850000    -0.200000     0.200000     0.000000
      73     0.000000     0.000000     0.300000     0.000000
      74     0.000000     0.000000     0.300000     0.000000
      75     0.000000     0.000000     0.300000     0.000000
      76     0.850000    -0.200000     0.200000     0.000000
      77     0.000000     0.000000     0.300000     0.000000
      78     0.000000     0.000000     0.300000     0.000000
      79     0.000000     7.250000     0.000000     0.000000
      80     0.000000     0.000000     0.300000     0.000000
      81     0.000000     0.000000     0.300000     0.000000
      82     0.000000     0.000000     0.300000     0.000000
      83     0.000000     0.000000     0.300000     0.000000
      84     0.000000     0.000000     0.300000     0.000000
      85     0.000000     0.000000     0.300000     0.000000
      86     0.000000     0.000000     0.300000     0.000000

Improper Coeffs

       1     2.500000   -1    2
       2     2.500000   -1    2
       3     2.500000   -1    2
       4     2.500000   -1    2
       5     2.500000   -1    2
       6     2.500000   -1    2
       7     2.500000   -1    2
       8     2.500000   -1    2
       9     2.500000   -1    2
      10     2.500000   -1    2
      11     2.500000   -1    2

Atoms

       1    1      5  -0.26158056    -8.027400   -10.756500    -3.508900
       2    1      4  -0.14253177    -8.538200    -9.784100    -4.588300
       3    1     10   0.10028040    -8.062100   -11.823200    -3.909200
       4    1     10   0.10028040    -6.954700   -10.485700    -3.234100
       5    1     10   0.10028040    -8.687500   -10.674400    -2.582900
       6    1     10   0.10028040    -9.612700   -10.047400    -4.863500
       7    1     10   0.10028040    -7.877500    -9.856600    -5.514400
       8    1      5  -0.26158056    -3.031200    -7.611600    -3.737500
       9    1      4  -0.14253177    -3.850500    -6.424300    -4.276800
      10    1     10   0.10028040    -2.057900    -7.221900    -3.291600
      11    1     10   0.10028040    -3.629000    -8.154300    -2.932600
      12    1     10   0.10028040    -2.797200    -8.331400    -4.589800
      13    1     10   0.10028040    -4.823200    -6.809000    -4.730000
      14    1     10   0.10028040    -3.247300    -5.877900    -5.075000
      15    1      5  -0.26158056     2.697700   -10.491500    -4.488100
      16    1      6  -0.19092919     1.166900   -10.586100    -4.351500
      17    1     10   0.10028040     3.112500   -11.493600    -4.840000
      18    1     10   0.10028040     2.962100    -9.682700    -5.246800
      19    1     10   0.10028040     3.150200   -10.225300    -3.475900
      20    1     10   0.10028040     0.903700   -11.393900    -3.591500
      21    1     10   0.10028040     0.704900   -10.845400    -5.360900
      22    1      5  -0.26158056     0.158500   -10.993700     4.742900
      23    1      6  -0.19092919    -0.610300    -9.661700     4.811500
      24    1     10   0.10028040     0.644700   -11.100100     3.717200
      25    1     10   0.10028040     0.963900   -11.010700     5.549400
      26    1     10   0.10028040    -0.565200   -11.858500     4.910500
      27    1     10   0.10028040    -1.097000    -9.562700     5.837200
      28    1     10   0.10028040    -1.416700    -9.649500     4.005800
      29    1      5  -0.26158056    -1.391900    -0.477900    -3.636900
      30    1      4  -0.14253177    -1.856300    -0.618900    -2.175900
      31    1     10   0.10028040    -1.723200    -1.392100    -4.231800
      32    1     10   0.10028040    -1.850400     0.461300    -4.092300
      33    1     10   0.10028040    -0.255200    -0.396600    -3.666700
      34    1     10   0.10028040    -1.389000    -1.553100    -1.719800
      35    1     10   0.10028040    -2.992600    -0.701200    -2.135800
      36    1      5  -0.26158056     6.320100    10.241600     0.326200
      37    1      6  -0.19092919     5.935300     8.980500    -0.462700
      38    1     10   0.10028040     6.609700    11.069800    -0.401400
      39    1     10   0.10028040     5.434300    10.586400     0.955700
      40    1     10   0.10028040     7.209000    10.005400     0.998800
      41    1     10   0.10028040     6.847600     8.677300    -1.075300
      42    1     10   0.10028040     5.088600     9.233200    -1.182200
      43    1      5  -0.26158056     5.528500    14.779100     1.708400
      44    1      4  -0.14253177     4.221600    14.676700     0.899700
      45    1     10   0.10028040     6.369800    14.261100     1.139600
      46    1     10   0.10028040     5.794400    15.876700     1.863700
      47    1     10   0.10028040     5.390300    14.274000     2.721000
      48    1     10   0.10028040     3.380000    15.189900     1.472400
      49    1     10   0.10028040     4.356000    15.176700    -0.115900
      50    1      5  -0.26158056     3.731000    14.312400     4.053900
      51    1      4  -0.14253177     3.431400    12.943800     4.694000
      52    1     10   0.10028040     4.821500    14.588300     4.239700
      53    1     10   0.10028040     3.545300    14.253500     2.930500
      54    1     10   0.10028040     3.051100    15.105600     4.510100
      55    1     10   0.10028040     3.612500    12.997900     5.818100
      56    1     10   0.10028040     2.346800    12.657700     4.491300
      57    1      1  -0.09005469    -8.486500    -8.354400    -4.021600
      58    1      2  -0.15004233    -7.849900    -8.098400    -2.643500
      59    1      2  -0.15004233    -7.840800    -6.676800    -2.051800
      60    1      1  -0.09005469    -8.457900    -5.510100    -2.845700
      61    1      2  -0.15004233    -9.075500    -5.762700    -4.232600
      62    1      2  -0.15004233    -9.101100    -7.187100    -4.815400
      63    1      9   0.16533285    -7.390100    -8.962400    -2.058800
      64    1      9   0.16533285    -7.367700    -6.484900    -1.032400
      65    1      9   0.16533285    -9.518900    -4.896000    -4.825800
      66    1      9   0.16533285    -9.574800    -7.377800    -5.834600
      67    1      3  -0.04177969    -0.278100    -4.822200    -0.978300
      68    1      2  -0.15004233    -1.253300    -5.995800    -1.191500
      69    1      2  -0.15004233    -0.735800    -7.345200    -1.723800
      70    1      1  -0.09005469     0.765100    -7.537600    -2.004000
      71    1      2  -0.15004233     1.747700    -6.380300    -1.752800
      72    1      2  -0.15004233     1.227600    -5.028400    -1.229000
      73    1      9   0.16533285    -2.356200    -5.874000    -0.932200
      74    1      9   0.16533285    -1.464300    -8.203300    -1.904900
      75    1      9   0.16533285     2.861100    -6.525000    -1.950000
      76    1      9   0.16533285     1.958400    -4.176300    -1.029800
      77    1      3  -0.04177969    -4.172300    -3.684900     4.740900
      78    1      2  -0.15004233    -4.672300    -5.104700     5.061300
      79    1      2  -0.15004233    -6.053400    -5.318300     5.694700
      80    1      3  -0.04177969    -6.914500    -4.108000     6.078700
      81    1      2  -0.15004233    -6.452700    -2.682500     5.699600
      82    1      2  -0.15004233    -5.090000    -2.472200     4.995200
      83    1      9   0.16533285    -4.005700    -6.003000     4.839300
      84    1      9   0.16533285    -6.420100    -6.373700     5.921900
      85    1      9   0.16533285    -7.110000    -1.785100     5.949800
      86    1      9   0.16533285    -4.746200    -1.422800     4.711900
      87    1      1  -0.09005469     3.338800    10.175900     0.412800
      88    1      2  -0.15004233     2.719400    10.957400     1.583200
      89    1      2  -0.15004233     2.999600    12.462200     1.738100
      90    1      1  -0.09005469     3.877500    13.189300     0.704500
      91    1      2  -0.15004233     4.355000    12.443300    -0.554900
      92    1      2  -0.15004233     4.064800    10.939200    -0.711100
      93    1      9   0.16533285     2.086700    10.413200     2.359900
      94    1      9   0.16533285     2.578800    13.032200     2.631100
      95    1      9   0.16533285     4.937000    12.999400    -1.361900
      96    1      9   0.16533285     4.424100    10.383800    -1.639000
      97    1      4  -0.14253177    -8.409200    -4.081900    -2.274800
      98    1      4  -0.14253177    -7.417100    -4.018800    -1.098800
      99    1     10   0.10028040    -9.448900    -3.807600    -1.896100
     100    1     10   0.10028040    -8.093900    -3.344400    -3.084800
     101    1     10   0.10028040    -7.723100    -4.784700    -0.311700
     102    1     10   0.10028040    -7.466300    -2.976100    -0.640300
     103    1      4  -0.14253177     1.285500    -8.893300    -2.515300
     104    1      6  -0.19092919     0.627500    -9.228200    -3.866400
     105    1     10   0.10028040     1.029100    -9.706700    -1.758900
     106    1     10   0.10028040     2.416600    -8.842700    -2.649400
     107    1     10   0.10028040     0.887300    -8.419200    -4.626400
     108    1     10   0.10028040    -0.504200    -9.284400    -3.739900
     109    1      1  -0.09005469    -5.959100    -4.280800    -1.529400
     110    1      2  -0.15004233    -5.635000    -5.221500    -2.705200
     111    1      1  -0.09005469    -4.171100    -5.460200    -3.119800
     112    1      2  -0.15004233    -3.030900    -4.725600    -2.390500
     113    1      3  -0.04177969    -3.353700    -3.784900    -1.215400
     114    1      2  -0.15004233    -4.819000    -3.534000    -0.816800
     115    1      9   0.16533285    -6.475200    -5.742500    -3.270300
     116    1      9   0.16533285    -1.951500    -4.871700    -2.726100
     117    1      9   0.16533285    -5.059400    -2.802100     0.023500
     118    1      3  -0.04177969    -0.776900    -2.413400     2.811900
     119    1      2  -0.15004233    -2.191100    -2.330300     3.444900
     120    1      3  -0.04177969    -2.719900    -3.549100     4.240900
     121    1      2  -0.15004233    -1.808500    -4.757800     4.484000
     122    1      1  -0.09005469    -0.329700    -4.717000     4.085300
     123    1      2  -0.15004233     0.191700    -3.530500     3.256800
     124    1      9   0.16533285    -2.877900    -1.450400     3.213000
     125    1      9   0.16533285    -2.239900    -5.692900     4.970500
     126    1      9   0.16533285     1.264300    -3.537400     2.871100
     127    1      1  -0.09005469     4.750400     9.469700     3.022300
     128    1      2  -0.15004233     6.217500     9.832500     2.736800
     129    1      3  -0.04177969     6.713900    11.271400     2.974000
     130    1      2  -0.15004233     5.786600    12.305100     3.635300
     131    1      1  -0.09005469     4.369000    11.895700     4.069100
     132    1      2  -0.15004233     3.848200    10.478300     3.760200
     133    1      9   0.16533285     6.915200     9.059300     2.272900
     134    1      9   0.16533285     6.147000    13.374700     3.797900
     135    1      9   0.16533285     2.781800    10.189200     4.041000
     136    1      3  -0.04177969    -2.252000    -3.008400    -0.469100
     137    1      3  -0.04177969    -0.765600    -3.480000    -0.392500
     138    1      2  -0.15004233     0.208400    -2.652500     0.474600
     139    1      3  -0.04177969    -0.465800    -1.711400     1.472900
     140    1      3  -0.04177969    -1.522500    -0.826000     0.812100
     141    1      2  -0.15004233    -2.632300    -1.640800     0.143700
     142    1      9   0.16533285     1.309400    -2.933700     0.566300
     143    1      9   0.16533285    -3.661300    -1.186800    -0.041200
     144    1      3  -0.04177969    -1.140800     0.512000     0.128500
     145    1      1  -0.09005469    -1.395800     0.618500    -1.385000
     146    1      2  -0.15004233    -1.069100     1.911100    -2.140200
     147    1      3  -0.04177969    -0.586500     3.151400    -1.377300
     148    1      1  -0.09005469    -0.222200     3.040900     0.129900
     149    1      2  -0.15004233    -0.485600     1.701300     0.876900
     150    1      9   0.16533285    -1.231000     1.964800    -3.267500
     151    1      9   0.16533285    -0.226400     1.605100     1.982900
     152    1      3  -0.04177969    -8.203700    -4.355600     6.886600
     153    1      2  -0.15004233    -9.012200    -3.184100     7.472900
     154    1      2  -0.15004233   -10.239700    -3.468200     8.362000
     155    1      2  -0.15004233   -10.669800    -4.920300     8.644900
     156    1      2  -0.15004233    -9.879600    -6.090100     8.031900
     157    1      2  -0.15004233    -8.645200    -5.807100     7.156700
     158    1      9   0.16533285    -8.692500    -2.109700     7.265800
     159    1      9   0.16533285   -10.830000    -2.602400     8.810700
     160    1      9   0.16533285   -11.575600    -5.128500     9.304800
     161    1      9   0.16533285   -10.203400    -7.164900     8.231400
     162    1      9   0.16533285    -8.048700    -6.673400     6.716800
     163    1      1  -0.09005469    -2.307900    -7.906400     6.033400
     164    1      2  -0.15004233    -2.744500    -8.540600     7.366400
     165    1      2  -0.15004233    -3.963700    -9.481800     7.406700
     166    1      2  -0.15004233    -4.732700    -9.803300     6.111000
     167    1      2  -0.15004233    -4.277100    -9.191400     4.773900
     168    1      2  -0.15004233    -3.061200    -8.247800     4.735000
     169    1      9   0.16533285    -2.172000    -8.307500     8.324200
     170    1      9   0.16533285    -4.297000    -9.941000     8.395400
     171    1      9   0.16533285    -5.636400   -10.497700     6.141700
     172    1      9   0.16533285    -4.839400    -9.437200     3.813100
     173    1      9   0.16533285    -2.719700    -7.798700     3.744200
     174    1      3  -0.04177969    -0.473000     4.472500    -2.163300
     175    1      2  -0.15004233     0.330300     4.499100    -3.477600
     176    1      2  -0.15004233     0.523300     5.823000    -4.238100
     177    1      2  -0.15004233    -0.156600     7.107300    -3.730200
     178    1      2  -0.15004233    -1.026900     7.066400    -2.459500
     179    1      2  -0.15004233    -1.172000     5.753500    -1.664700
     180    1      9   0.16533285     0.813300     3.543200    -3.868200
     181    1      9   0.16533285     1.166000     5.851700    -5.179300
     182    1      9   0.16533285    -0.016000     8.088300    -4.293800
     183    1      9   0.16533285    -1.547800     8.012800    -2.095600
     184    1      9   0.16533285    -1.790900     5.730400    -0.708000
     185    1      1  -0.09005469     2.263600     6.471300    -1.534100
     186    1      2  -0.15004233     1.432100     7.767500    -1.571800
     187    1      2  -0.15004233     1.989800     9.028100    -2.253800
     188    1      2  -0.15004233     3.402000     9.005500    -2.864000
     189    1      2  -0.15004233     4.243500     7.715300    -2.814700
     190    1      2  -0.15004233     3.665300     6.438800    -2.172800
     191    1      9   0.16533285     0.394300     7.788500    -1.101300
     192    1      9   0.16533285     1.363100     9.979300    -2.297900
     193    1      9   0.16533285     3.827400     9.945200    -3.349400
     194    1      9   0.16533285     5.292000     7.702700    -3.261500
     195    1      9   0.16533285     4.275400     5.476100    -2.162700
     196    1      3  -0.04177969     8.116500    11.694900     2.501100
     197    1      2  -0.15004233     8.586000    13.148400     2.698800
     198    1      2  -0.15004233     9.976700    13.583400     2.198900
     199    1      2  -0.15004233    10.897400    12.564600     1.500700
     200    1      2  -0.15004233    10.427800    11.111300     1.304400
     201    1      2  -0.15004233     9.037000    10.676400     1.803800
     202    1      9   0.16533285     7.901700    13.903200     3.210300
     203    1      9   0.16533285    10.323700    14.659500     2.344200
     204    1      9   0.16533285    11.926400    12.886300     1.130100
     205    1      9   0.16533285    11.108600    10.357800     0.786500
     206    1      9   0.16533285     8.685500     9.602600     1.650900
     207    1      7  -0.12467581    -0.401500    -7.142300     4.607200
     208    1      4  -0.14253177     0.551200    -5.961800     4.322700
     209    1      4  -0.14253177    -1.089000    -6.967600     5.977500
     210    1      6  -0.19092919     0.357800    -8.484400     4.582900
     211    1     10   0.10028040    -1.190300    -7.144200     3.783800
     212    1     10   0.10028040     1.133900    -6.171500     3.365600
     213    1     10   0.10028040     1.274400    -5.811800     5.191100
     214    1     10   0.10028040    -1.477600    -5.902800     6.084000
     215    1     10   0.10028040    -0.350100    -7.176700     6.819900
     216    1     10   0.10028040     1.154800    -8.486300     5.397900
     217    1     10   0.10028040     0.856500    -8.607800     3.565200
     218    1      7  -0.12467581     1.760900     4.782400     0.502600
     219    1      4  -0.14253177     0.355300     4.258800     0.906500
     220    1      4  -0.14253177     1.601800     5.200100    -0.968900
     221    1      6  -0.19092919     2.169200     6.061300     1.268400
     222    1     10   0.10028040     2.571200     3.994000     0.648900
     223    1     10   0.10028040    -0.378200     5.120700     0.768300
     224    1     10   0.10028040     0.384100     3.987200     2.013100
     225    1     10   0.10028040     1.656500     4.305900    -1.673800
     226    1     10   0.10028040     0.530500     5.565100    -0.946300
     227    1     10   0.10028040     1.483700     6.905900     0.926800
     228    1     10   0.10028040     2.105000     5.936900     2.399700
     229    1      8  -0.05120203     4.135500     7.786600     1.094200
     230    1      6  -0.19092919     3.635300     6.343800     0.870900
     231    1      6  -0.19092919     5.492700     7.746100     0.352800
     232    1      4  -0.14253177     3.124100     8.652400     0.314800
     233    1      4  -0.14253177     4.198700     8.087300     2.613200
     234    1     10   0.10028040     3.712600     6.175100    -0.248800
     235    1     10   0.10028040     4.324000     5.592600     1.381900
     236    1     10   0.10028040     6.312800     7.367600     1.048200
     237    1     10   0.10028040     5.335800     6.961900    -0.460000
     238    1     10   0.10028040     2.079900     8.422900     0.711000
     239    1     10   0.10028040     3.188700     8.338800    -0.777400
     240    1     10   0.10028040     3.147900     7.980300     3.041700
     241    1     10   0.10028040     4.865700     7.298000     3.094700

Bonds

       1      9        1        2
       2     15        1        3
       3     15        1        4
       4     15        1        5
       5     13        2        6
       6     13        2        7
       7      3        2       57
       8      9        8        9
       9     15        8       10
      10     15        8       11
      11     15        8       12
      12     13        9       13
      13     13        9       14
      14      3        9      111
      15     14       15       16
      16     15       15       17
      17     15       15       18
      18     15       15       19
      19     19       16       20
      20     19       16       21
      21     16       16      104
      22     14       22       23
      23     15       22       24
      24     15       22       25
      25     15       22       26
      26     19       23       27
      27     19       23       28
      28     16       23      210
      29      9       29       30
      30     15       29       31
      31     15       29       32
      32     15       29       33
      33     13       30       34
      34     13       30       35
      35      3       30      145
      36     14       36       37
      37     15       36       38
      38     15       36       39
      39     15       36       40
      40     19       37       41
      41     19       37       42
      42     16       37      231
      43      9       43       44
      44     15       43       45
      45     15       43       46
      46     15       43       47
      47     13       44       48
      48     13       44       49
      49      3       44       90
      50      9       50       51
      51     15       50       52
      52     15       50       53
      53     15       50       54
      54     13       51       55
      55     13       51       56
      56      3       51      131
      57      1       57       58
      58      4       58       59
      59      6       58       63
      60      1       59       60
      61      6       59       64
      62      1       60       61
      63      3       60       97
      64      4       61       62
      65      6       61       65
      66      1       62       57
      67      6       62       66
      68      5       67       68
      69      7       67      137
      70      4       68       69
      71      6       68       73
      72      1       69       70
      73      6       69       74
      74      1       70       71
      75      3       70      103
      76      4       71       72
      77      6       71       75
      78      5       72       67
      79      6       72       76
      80      5       77       78
      81      7       77      120
      82      4       78       79
      83      6       78       83
      84      5       79       80
      85      6       79       84
      86      5       80       81
      87      7       80      152
      88      4       81       82
      89      6       81       85
      90      5       82       77
      91      6       82       86
      92      1       87       88
      93      3       87      232
      94      4       88       89
      95      6       88       93
      96      1       89       90
      97      6       89       94
      98      1       90       91
      99      4       91       92
     100      6       91       95
     101      1       92       87
     102      6       92       96
     103      8       97       98
     104     13       97       99
     105     13       97      100
     106     13       98      101
     107     13       98      102
     108      3       98      109
     109     10      103      104
     110     13      103      105
     111     13      103      106
     112     19      104      107
     113     19      104      108
     114      1      109      110
     115      1      110      111
     116      6      110      115
     117      1      111      112
     118      5      112      113
     119      6      112      116
     120      5      113      114
     121      7      113      136
     122      1      114      109
     123      6      114      117
     124      5      118      119
     125      7      118      139
     126      5      119      120
     127      6      119      124
     128      5      120      121
     129      1      121      122
     130      6      121      125
     131      1      122      123
     132      3      122      208
     133      5      123      118
     134      6      123      126
     135      1      127      128
     136      3      127      233
     137      5      128      129
     138      6      128      133
     139      5      129      130
     140      7      129      196
     141      1      130      131
     142      6      130      134
     143      1      131      132
     144      1      132      127
     145      6      132      135
     146      7      136      137
     147      5      137      138
     148      5      138      139
     149      6      138      142
     150      7      139      140
     151      5      140      141
     152      7      140      144
     153      5      141      136
     154      6      141      143
     155      2      144      145
     156      1      145      146
     157      5      146      147
     158      6      146      150
     159      2      147      148
     160      7      147      174
     161      1      148      149
     162      3      148      219
     163      5      149      144
     164      6      149      151
     165      5      152      153
     166      4      153      154
     167      6      153      158
     168      4      154      155
     169      6      154      159
     170      4      155      156
     171      6      155      160
     172      4      156      157
     173      6      156      161
     174      5      157      152
     175      6      157      162
     176      1      163      164
     177      3      163      209
     178      4      164      165
     179      6      164      169
     180      4      165      166
     181      6      165      170
     182      4      166      167
     183      6      166      171
     184      4      167      168
     185      6      167      172
     186      1      168      163
     187      6      168      173
     188      5      174      175
     189      4      175      176
     190      6      175      180
     191      4      176      177
     192      6      176      181
     193      4      177      178
     194      6      177      182
     195      4      178      179
     196      6      178      183
     197      5      179      174
     198      6      179      184
     199      1      185      186
     200      3      185      220
     201      4      186      187
     202      6      186      191
     203      4      187      188
     204      6      187      192
     205      4      188      189
     206      6      188      193
     207      4      189      190
     208      6      189      194
     209      1      190      185
     210      6      190      195
     211      5      196      197
     212      4      197      198
     213      6      197      202
     214      4      198      199
     215      6      198      203
     216      4      199      200
     217      6      199      204
     218      4      200      201
     219      6      200      205
     220      5      201      196
     221      6      201      206
     222     11      207      208
     223     11      207      209
     224     17      207      210
     225     20      207      211
     226     13      208      212
     227     13      208      213
     228     13      209      214
     229     13      209      215
     230     19      210      216
     231     19      210      217
     232     11      218      219
     233     11      218      220
     234     17      218      221
     235     20      218      222
     236     13      219      223
     237     13      219      224
     238     13      220      225
     239     13      220      226
     240     19      221      227
     241     19      221      228
     242     16      221      230
     243     18      229      230
     244     18      229      231
     245     12      229      232
     246     12      229      233
     247     19      230      234
     248     19      230      235
     249     19      231      236
     250     19      231      237
     251     13      232      238
     252     13      232      239
     253     13      233      240
     254     13      233      241

Angles

       1     34        1        2        6
       2     34        1        2        7
       3      8        1        2       57
       4     26        2        1        3
       5     26        2        1        4
       6     26        2        1        5
       7     15        2       57       58
       8     15        2       57       62
       9     49        3        1        4
      10     49        3        1        5
      11     49        4        1        5
      12     48        6        2        7
      13     12        6        2       57
      14     12        7        2       57
      15     34        8        9       13
      16     34        8        9       14
      17      8        8        9      111
      18     26        9        8       10
      19     26        9        8       11
      20     26        9        8       12
      21     15        9      111      110
      22     15        9      111      112
      23     49       10        8       11
      24     49       10        8       12
      25     49       11        8       12
      26     48       13        9       14
      27     12       13        9      111
      28     12       14        9      111
      29     36       15       16       20
      30     36       15       16       21
      31     35       15       16      104
      32     38       16       15       17
      33     38       16       15       18
      34     38       16       15       19
      35     27       16      104      103
      36     41       16      104      107
      37     41       16      104      108
      38     49       17       15       18
      39     49       17       15       19
      40     49       18       15       19
      41     50       20       16       21
      42     41       20       16      104
      43     41       21       16      104
      44     36       22       23       27
      45     36       22       23       28
      46     35       22       23      210
      47     38       23       22       24
      48     38       23       22       25
      49     38       23       22       26
      50     39       23      210      207
      51     41       23      210      216
      52     41       23      210      217
      53     49       24       22       25
      54     49       24       22       26
      55     49       25       22       26
      56     50       27       23       28
      57     41       27       23      210
      58     41       28       23      210
      59     34       29       30       34
      60     34       29       30       35
      61      8       29       30      145
      62     26       30       29       31
      63     26       30       29       32
      64     26       30       29       33
      65     21       30      145      144
      66     15       30      145      146
      67     49       31       29       32
      68     49       31       29       33
      69     49       32       29       33
      70     48       34       30       35
      71     12       34       30      145
      72     12       35       30      145
      73     36       36       37       41
      74     36       36       37       42
      75     35       36       37      231
      76     38       37       36       38
      77     38       37       36       39
      78     38       37       36       40
      79     40       37      231      229
      80     41       37      231      236
      81     41       37      231      237
      82     49       38       36       39
      83     49       38       36       40
      84     49       39       36       40
      85     50       41       37       42
      86     41       41       37      231
      87     41       42       37      231
      88     34       43       44       48
      89     34       43       44       49
      90      8       43       44       90
      91     26       44       43       45
      92     26       44       43       46
      93     26       44       43       47
      94     15       44       90       89
      95     15       44       90       91
      96     49       45       43       46
      97     49       45       43       47
      98     49       46       43       47
      99     48       48       44       49
     100     12       48       44       90
     101     12       49       44       90
     102     34       50       51       55
     103     34       50       51       56
     104      8       50       51      131
     105     26       51       50       52
     106     26       51       50       53
     107     26       51       50       54
     108     15       51      131      130
     109     15       51      131      132
     110     49       52       50       53
     111     49       52       50       54
     112     49       53       50       54
     113     48       55       51       56
     114     12       55       51      131
     115     12       56       51      131
     116      2       57       58       59
     117      4       57       58       63
     118      2       57       62       61
     119      4       57       62       66
     120     13       58       57       62
     121      2       58       59       60
     122     18       58       59       64
     123     18       59       58       63
     124     13       59       60       61
     125     15       59       60       97
     126      4       60       59       64
     127      2       60       61       62
     128      4       60       61       65
     129      7       60       97       98
     130     12       60       97       99
     131     12       60       97      100
     132     15       61       60       97
     133     18       61       62       66
     134     18       62       61       65
     135     17       67       68       69
     136     23       67       68       73
     137     17       67       72       71
     138     23       67       72       76
     139     24       67      137      136
     140     20       67      137      138
     141     19       68       67       72
     142     20       68       67      137
     143      2       68       69       70
     144     18       68       69       74
     145     18       69       68       73
     146     13       69       70       71
     147     15       69       70      103
     148      4       70       69       74
     149      2       70       71       72
     150      4       70       71       75
     151      9       70      103      104
     152     12       70      103      105
     153     12       70      103      106
     154     15       71       70      103
     155     18       71       72       76
     156     20       72       67      137
     157     18       72       71       75
     158     17       77       78       79
     159     23       77       78       83
     160     17       77       82       81
     161     23       77       82       86
     162     20       77      120      119
     163     20       77      120      121
     164     19       78       77       82
     165     20       78       77      120
     166     17       78       79       80
     167     18       78       79       84
     168     18       79       78       83
     169     19       79       80       81
     170     20       79       80      152
     171     23       80       79       84
     172     17       80       81       82
     173     23       80       81       85
     174     20       80      152      153
     175     20       80      152      157
     176     20       81       80      152
     177     18       81       82       86
     178     20       82       77      120
     179     18       82       81       85
     180      2       87       88       89
     181      4       87       88       93
     182      2       87       92       91
     183      4       87       92       96
     184     11       87      232      229
     185     12       87      232      238
     186     12       87      232      239
     187     13       88       87       92
     188     15       88       87      232
     189      2       88       89       90
     190     18       88       89       94
     191     18       89       88       93
     192     13       89       90       91
     193      4       90       89       94
     194      2       90       91       92
     195      4       90       91       95
     196     18       91       92       96
     197     15       92       87      232
     198     18       92       91       95
     199     25       97       98      101
     200     25       97       98      102
     201      7       97       98      109
     202     25       98       97       99
     203     25       98       97      100
     204     15       98      109      110
     205     15       98      109      114
     206     48       99       97      100
     207     48      101       98      102
     208     12      101       98      109
     209     12      102       98      109
     210     28      103      104      107
     211     28      103      104      108
     212     37      104      103      105
     213     37      104      103      106
     214     48      105      103      106
     215     50      107      104      108
     216      1      109      110      111
     217      4      109      110      115
     218      3      109      114      113
     219      4      109      114      117
     220     13      110      109      114
     221     13      110      111      112
     222      4      111      110      115
     223      3      111      112      113
     224      4      111      112      116
     225     19      112      113      114
     226     20      112      113      136
     227     23      113      112      116
     228     23      113      114      117
     229     24      113      136      137
     230     20      113      136      141
     231     20      114      113      136
     232     22      118      119      120
     233     23      118      119      124
     234      3      118      123      122
     235     23      118      123      126
     236     20      118      139      138
     237     24      118      139      140
     238     19      119      118      123
     239     20      119      118      139
     240     19      119      120      121
     241     23      120      119      124
     242      3      120      121      122
     243     23      120      121      125
     244     13      121      122      123
     245     15      121      122      208
     246      4      122      121      125
     247      4      122      123      126
     248     10      122      208      207
     249     12      122      208      212
     250     12      122      208      213
     251     20      123      118      139
     252     15      123      122      208
     253      3      127      128      129
     254      4      127      128      133
     255      1      127      132      131
     256      4      127      132      135
     257     11      127      233      229
     258     12      127      233      240
     259     12      127      233      241
     260     13      128      127      132
     261     15      128      127      233
     262     19      128      129      130
     263     20      128      129      196
     264     23      129      128      133
     265      3      129      130      131
     266     23      129      130      134
     267     20      129      196      197
     268     20      129      196      201
     269     20      130      129      196
     270     13      130      131      132
     271      4      131      130      134
     272      4      131      132      135
     273     15      132      127      233
     274     20      136      137      138
     275     22      136      141      140
     276     23      136      141      143
     277     20      137      136      141
     278     22      137      138      139
     279     23      137      138      142
     280     20      138      139      140
     281     23      139      138      142
     282     20      139      140      141
     283     24      139      140      144
     284     23      140      141      143
     285      6      140      144      145
     286     20      140      144      149
     287     20      141      140      144
     288     14      144      145      146
     289      3      144      149      148
     290     23      144      149      151
     291      5      145      144      149
     292      3      145      146      147
     293      4      145      146      150
     294      5      146      147      148
     295     20      146      147      174
     296     23      147      146      150
     297     14      147      148      149
     298     21      147      148      219
     299     20      147      174      175
     300     20      147      174      179
     301      6      148      147      174
     302      4      148      149      151
     303     10      148      219      218
     304     12      148      219      223
     305     12      148      219      224
     306     15      149      148      219
     307     17      152      153      154
     308     23      152      153      158
     309     17      152      157      156
     310     23      152      157      162
     311     19      153      152      157
     312     16      153      154      155
     313     18      153      154      159
     314     18      154      153      158
     315     16      154      155      156
     316     18      154      155      160
     317     18      155      154      159
     318     16      155      156      157
     319     18      155      156      161
     320     18      156      155      160
     321     18      156      157      162
     322     18      157      156      161
     323      2      163      164      165
     324      4      163      164      169
     325      2      163      168      167
     326      4      163      168      173
     327     10      163      209      207
     328     12      163      209      214
     329     12      163      209      215
     330     13      164      163      168
     331     15      164      163      209
     332     16      164      165      166
     333     18      164      165      170
     334     18      165      164      169
     335     16      165      166      167
     336     18      165      166      171
     337     18      166      165      170
     338     16      166      167      168
     339     18      166      167      172
     340     18      167      166      171
     341     18      167      168      173
     342     15      168      163      209
     343     18      168      167      172
     344     17      174      175      176
     345     23      174      175      180
     346     17      174      179      178
     347     23      174      179      184
     348     19      175      174      179
     349     16      175      176      177
     350     18      175      176      181
     351     18      176      175      180
     352     16      176      177      178
     353     18      176      177      182
     354     18      177      176      181
     355     16      177      178      179
     356     18      177      178      183
     357     18      178      177      182
     358     18      178      179      184
     359     18      179      178      183
     360      2      185      186      187
     361      4      185      186      191
     362      2      185      190      189
     363      4      185      190      195
     364     10      185      220      218
     365     12      185      220      225
     366     12      185      220      226
     367     13      186      185      190
     368     15      186      185      220
     369     16      186      187      188
     370     18      186      187      192
     371     18      187      186      191
     372     16      187      188      189
     373     18      187      188      193
     374     18      188      187      192
     375     16      188      189      190
     376     18      188      189      194
     377     18      189      188      193
     378     18      189      190      195
     379     15      190      185      220
     380     18      190      189      194
     381     17      196      197      198
     382     23      196      197      202
     383     17      196      201      200
     384     23      196      201      206
     385     19      197      196      201
     386     16      197      198      199
     387     18      197      198      203
     388     18      198      197      202
     389     16      198      199      200
     390     18      198      199      204
     391     18      199      198      203
     392     16      199      200      201
     393     18      199      200      205
     394     18      200      199      204
     395     18      200      201      206
     396     18      201      200      205
     397     44      207      208      212
     398     44      207      208      213
     399     44      207      209      214
     400     44      207      209      215
     401     45      207      210      216
     402     45      207      210      217
     403     29      208      207      209
     404     30      208      207      210
     405     31      208      207      211
     406     30      209      207      210
     407     31      209      207      211
     408     42      210      207      211
     409     48      212      208      213
     410     48      214      209      215
     411     50      216      210      217
     412     44      218      219      223
     413     44      218      219      224
     414     44      218      220      225
     415     44      218      220      226
     416     45      218      221      227
     417     45      218      221      228
     418     39      218      221      230
     419     29      219      218      220
     420     30      219      218      221
     421     31      219      218      222
     422     30      220      218      221
     423     31      220      218      222
     424     42      221      218      222
     425     40      221      230      229
     426     41      221      230      234
     427     41      221      230      235
     428     48      223      219      224
     429     48      225      220      226
     430     50      227      221      228
     431     41      227      221      230
     432     41      228      221      230
     433     47      229      230      234
     434     47      229      230      235
     435     47      229      231      236
     436     47      229      231      237
     437     46      229      232      238
     438     46      229      232      239
     439     46      229      233      240
     440     46      229      233      241
     441     43      230      229      231
     442     33      230      229      232
     443     33      230      229      233
     444     33      231      229      232
     445     33      231      229      233
     446     32      232      229      233
     447     50      234      230      235
     448     50      236      231      237
     449     48      238      232      239
     450     48      240      233      241

Dihedrals

       1     29        1        2       57       58
       2     29        1        2       57       62
       3     34        2       57       58       59
       4     57        2       57       58       63
       5     34        2       57       62       61
       6     57        2       57       62       66
       7     81        3        1        2        6
       8     81        3        1        2        7
       9     15        3        1        2       57
      10     81        4        1        2        6
      11     81        4        1        2        7
      12     15        4        1        2       57
      13     81        5        1        2        6
      14     81        5        1        2        7
      15     15        5        1        2       57
      16     33        6        2       57       58
      17     33        6        2       57       62
      18     33        7        2       57       58
      19     33        7        2       57       62
      20     29        8        9      111      110
      21     29        8        9      111      112
      22      2        9      111      110      109
      23     57        9      111      110      115
      24     50        9      111      112      113
      25     57        9      111      112      116
      26     81       10        8        9       13
      27     81       10        8        9       14
      28     15       10        8        9      111
      29     81       11        8        9       13
      30     81       11        8        9       14
      31     15       11        8        9      111
      32     81       12        8        9       13
      33     81       12        8        9       14
      34     15       12        8        9      111
      35     33       13        9      111      110
      36     33       13        9      111      112
      37     33       14        9      111      110
      38     33       14        9      111      112
      39     58       15       16      104      103
      40     68       15       16      104      107
      41     68       15       16      104      108
      42     16       16      104      103       70
      43     69       16      104      103      105
      44     69       16      104      103      106
      45     84       17       15       16       20
      46     84       17       15       16       21
      47     70       17       15       16      104
      48     84       18       15       16       20
      49     84       18       15       16       21
      50     70       18       15       16      104
      51     84       19       15       16       20
      52     84       19       15       16       21
      53     70       19       15       16      104
      54     59       20       16      104      103
      55     85       20       16      104      107
      56     85       20       16      104      108
      57     59       21       16      104      103
      58     85       21       16      104      107
      59     85       21       16      104      108
      60     66       22       23      210      207
      61     68       22       23      210      216
      62     68       22       23      210      217
      63     61       23      210      207      208
      64     61       23      210      207      209
      65     71       23      210      207      211
      66     84       24       22       23       27
      67     84       24       22       23       28
      68     70       24       22       23      210
      69     84       25       22       23       27
      70     84       25       22       23       28
      71     70       25       22       23      210
      72     84       26       22       23       27
      73     84       26       22       23       28
      74     70       26       22       23      210
      75     77       27       23      210      207
      76     85       27       23      210      216
      77     85       27       23      210      217
      78     77       28       23      210      207
      79     85       28       23      210      216
      80     85       28       23      210      217
      81     47       29       30      145      144
      82     29       29       30      145      146
      83     54       30      145      144      140
      84     40       30      145      144      149
      85     50       30      145      146      147
      86     57       30      145      146      150
      87     81       31       29       30       34
      88     81       31       29       30       35
      89     15       31       29       30      145
      90     81       32       29       30       34
      91     81       32       29       30       35
      92     15       32       29       30      145
      93     81       33       29       30       34
      94     81       33       29       30       35
      95     15       33       29       30      145
      96     49       34       30      145      144
      97     33       34       30      145      146
      98     49       35       30      145      144
      99     33       35       30      145      146
     100     67       36       37      231      229
     101     68       36       37      231      236
     102     68       36       37      231      237
     103     72       37      231      229      230
     104     64       37      231      229      232
     105     64       37      231      229      233
     106     84       38       36       37       41
     107     84       38       36       37       42
     108     70       38       36       37      231
     109     84       39       36       37       41
     110     84       39       36       37       42
     111     70       39       36       37      231
     112     84       40       36       37       41
     113     84       40       36       37       42
     114     70       40       36       37      231
     115     78       41       37      231      229
     116     85       41       37      231      236
     117     85       41       37      231      237
     118     78       42       37      231      229
     119     85       42       37      231      236
     120     85       42       37      231      237
     121     29       43       44       90       89
     122     29       43       44       90       91
     123     34       44       90       89       88
     124     57       44       90       89       94
     125     34       44       90       91       92
     126     57       44       90       91       95
     127     81       45       43       44       48
     128     81       45       43       44       49
     129     15       45       43       44       90
     130     81       46       43       44       48
     131     81       46       43       44       49
     132     15       46       43       44       90
     133     81       47       43       44       48
     134     81       47       43       44       49
     135     15       47       43       44       90
     136     33       48       44       90       89
     137     33       48       44       90       91
     138     33       49       44       90       89
     139     33       49       44       90       91
     140     29       50       51      131      130
     141     29       50       51      131      132
     142     50       51      131      130      129
     143     57       51      131      130      134
     144      2       51      131      132      127
     145     57       51      131      132      135
     146     81       52       50       51       55
     147     81       52       50       51       56
     148     15       52       50       51      131
     149     81       53       50       51       55
     150     81       53       50       51       56
     151     15       53       50       51      131
     152     81       54       50       51       55
     153     81       54       50       51       56
     154     15       54       50       51      131
     155     33       55       51      131      130
     156     33       55       51      131      132
     157     33       56       51      131      130
     158     33       56       51      131      132
     159      3       57       58       59       60
     160      6       57       58       59       64
     161      3       57       62       61       60
     162      6       57       62       61       65
     163     23       58       57       62       61
     164     25       58       57       62       66
     165     23       58       59       60       61
     166     34       58       59       60       97
     167     23       59       58       57       62
     168     23       59       60       61       62
     169     25       59       60       61       65
     170     28       59       60       97       98
     171     33       59       60       97       99
     172     33       59       60       97      100
     173      6       60       59       58       63
     174      6       60       61       62       66
     175     14       60       97       98      101
     176     14       60       97       98      102
     177     13       60       97       98      109
     178     25       61       60       59       64
     179     28       61       60       97       98
     180     33       61       60       97       99
     181     33       61       60       97      100
     182     25       62       57       58       63
     183     34       62       61       60       97
     184     79       63       58       59       64
     185     57       64       59       60       97
     186     57       65       61       60       97
     187     79       65       61       62       66
     188      5       67       68       69       70
     189     52       67       68       69       74
     190      5       67       72       71       70
     191     52       67       72       71       75
     192     56       67      137      136      113
     193     44       67      137      136      141
     194     53       67      137      138      139
     195     55       67      137      138      142
     196     38       68       67       72       71
     197     42       68       67       72       76
     198     44       68       67      137      136
     199     43       68       67      137      138
     200     23       68       69       70       71
     201     34       68       69       70      103
     202     38       69       68       67       72
     203     39       69       68       67      137
     204     23       69       70       71       72
     205     25       69       70       71       75
     206     30       69       70      103      104
     207     33       69       70      103      105
     208     33       69       70      103      106
     209      6       70       69       68       73
     210      6       70       71       72       76
     211     17       70      103      104      107
     212     17       70      103      104      108
     213     25       71       70       69       74
     214     30       71       70      103      104
     215     33       71       70      103      105
     216     33       71       70      103      106
     217     39       71       72       67      137
     218     42       72       67       68       73
     219     44       72       67      137      136
     220     43       72       67      137      138
     221     34       72       71       70      103
     222     55       73       68       67      137
     223     79       73       68       69       74
     224     57       74       69       70      103
     225     57       75       71       70      103
     226     79       75       71       72       76
     227     55       76       72       67      137
     228     51       77       78       79       80
     229     52       77       78       79       84
     230     51       77       82       81       80
     231     52       77       82       81       85
     232     53       77      120      119      118
     233     55       77      120      119      124
     234      9       77      120      121      122
     235     55       77      120      121      125
     236     38       78       77       82       81
     237     42       78       77       82       86
     238     43       78       77      120      119
     239     43       78       77      120      121
     240     38       78       79       80       81
     241     39       78       79       80      152
     242     38       79       78       77       82
     243     39       79       78       77      120
     244     38       79       80       81       82
     245     42       79       80       81       85
     246     43       79       80      152      153
     247     43       79       80      152      157
     248     52       80       79       78       83
     249     52       80       81       82       86
     250     39       80      152      153      154
     251     55       80      152      153      158
     252     39       80      152      157      156
     253     55       80      152      157      162
     254     42       81       80       79       84
     255     43       81       80      152      153
     256     43       81       80      152      157
     257     39       81       82       77      120
     258     42       82       77       78       83
     259     43       82       77      120      119
     260     43       82       77      120      121
     261     39       82       81       80      152
     262     55       83       78       77      120
     263     79       83       78       79       84
     264     55       84       79       80      152
     265     55       85       81       80      152
     266     79       85       81       82       86
     267     55       86       82       77      120
     268      3       87       88       89       90
     269      6       87       88       89       94
     270      3       87       92       91       90
     271      6       87       92       91       95
     272     22       87      232      229      230
     273     22       87      232      229      231
     274     21       87      232      229      233
     275     23       88       87       92       91
     276     25       88       87       92       96
     277     32       88       87      232      229
     278     33       88       87      232      238
     279     33       88       87      232      239
     280     23       88       89       90       91
     281     23       89       88       87       92
     282     34       89       88       87      232
     283     23       89       90       91       92
     284     25       89       90       91       95
     285      6       90       89       88       93
     286      6       90       91       92       96
     287     25       91       90       89       94
     288     34       91       92       87      232
     289     25       92       87       88       93
     290     32       92       87      232      229
     291     33       92       87      232      238
     292     33       92       87      232      239
     293     57       93       88       87      232
     294     79       93       88       89       94
     295     79       95       91       92       96
     296     57       96       92       87      232
     297     28       97       98      109      110
     298     28       97       98      109      114
     299      2       98      109      110      111
     300     57       98      109      110      115
     301     50       98      109      114      113
     302     57       98      109      114      117
     303     80       99       97       98      101
     304     80       99       97       98      102
     305     14       99       97       98      109
     306     80      100       97       98      101
     307     80      100       97       98      102
     308     14      100       97       98      109
     309     33      101       98      109      110
     310     33      101       98      109      114
     311     33      102       98      109      110
     312     33      102       98      109      114
     313     82      105      103      104      107
     314     82      105      103      104      108
     315     82      106      103      104      107
     316     82      106      103      104      108
     317      1      109      110      111      112
     318      8      109      114      113      112
     319      9      109      114      113      136
     320     24      110      109      114      113
     321     25      110      109      114      117
     322     24      110      111      112      113
     323     25      110      111      112      116
     324      1      111      110      109      114
     325      8      111      112      113      114
     326      9      111      112      113      136
     327     25      112      111      110      115
     328     42      112      113      114      117
     329     44      112      113      136      137
     330     43      112      113      136      141
     331     44      113      136      137      138
     332     53      113      136      141      140
     333     55      113      136      141      143
     334     25      114      109      110      115
     335     42      114      113      112      116
     336     44      114      113      136      137
     337     43      114      113      136      141
     338     55      116      112      113      136
     339     55      117      114      113      136
     340     41      118      119      120      121
     341     24      118      123      122      121
     342     50      118      123      122      208
     343     53      118      139      138      137
     344     55      118      139      138      142
     345     44      118      139      140      141
     346     56      118      139      140      144
     347      8      119      118      123      122
     348     42      119      118      123      126
     349     43      119      118      139      138
     350     44      119      118      139      140
     351      8      119      120      121      122
     352     42      119      120      121      125
     353     41      120      119      118      123
     354     53      120      119      118      139
     355     24      120      121      122      123
     356     50      120      121      122      208
     357     42      121      120      119      124
     358     25      121      122      123      126
     359     31      121      122      208      207
     360     33      121      122      208      212
     361     33      121      122      208      213
     362      9      122      123      118      139
     363     18      122      208      207      209
     364     19      122      208      207      210
     365     20      122      208      207      211
     366     42      123      118      119      124
     367     43      123      118      139      138
     368     44      123      118      139      140
     369     25      123      122      121      125
     370     31      123      122      208      207
     371     33      123      122      208      212
     372     33      123      122      208      213
     373     55      124      119      118      139
     374     57      125      121      122      208
     375     55      126      123      118      139
     376     57      126      123      122      208
     377      8      127      128      129      130
     378      9      127      128      129      196
     379      1      127      132      131      130
     380     22      127      233      229      230
     381     22      127      233      229      231
     382     21      127      233      229      232
     383      1      128      127      132      131
     384     25      128      127      132      135
     385     32      128      127      233      229
     386     33      128      127      233      240
     387     33      128      127      233      241
     388      8      128      129      130      131
     389     42      128      129      130      134
     390     43      128      129      196      197
     391     43      128      129      196      201
     392     24      129      128      127      132
     393     50      129      128      127      233
     394     24      129      130      131      132
     395     39      129      196      197      198
     396     55      129      196      197      202
     397     39      129      196      201      200
     398     55      129      196      201      206
     399     42      130      129      128      133
     400     43      130      129      196      197
     401     43      130      129      196      201
     402     25      130      131      132      135
     403      9      131      130      129      196
     404      2      131      132      127      233
     405     25      132      127      128      133
     406     32      132      127      233      229
     407     33      132      127      233      240
     408     33      132      127      233      241
     409     25      132      131      130      134
     410     57      133      128      127      233
     411     55      133      128      129      196
     412     55      134      130      129      196
     413     57      135      132      127      233
     414     53      136      137      138      139
     415     55      136      137      138      142
     416     53      136      141      140      139
     417     53      136      141      140      144
     418     53      137      136      141      140
     419     55      137      136      141      143
     420     53      137      138      139      140
     421     43      138      137      136      141
     422     43      138      139      140      141
     423     44      138      139      140      144
     424     55      139      140      141      143
     425     12      139      140      144      145
     426     44      139      140      144      149
     427     55      140      139      138      142
     428     27      140      144      145      146
     429      9      140      144      149      148
     430     55      140      144      149      151
     431     11      141      140      144      145
     432     43      141      140      144      149
     433     55      143      141      140      144
     434     45      144      145      146      147
     435     46      144      145      146      150
     436     45      144      149      148      147
     437     50      144      149      148      219
     438      7      145      144      149      148
     439     10      145      144      149      151
     440      7      145      146      147      148
     441      9      145      146      147      174
     442     26      146      145      144      149
     443     26      146      147      148      149
     444     40      146      147      148      219
     445     43      146      147      174      175
     446     43      146      147      174      179
     447     46      147      148      149      151
     448     48      147      148      219      218
     449     49      147      148      219      223
     450     49      147      148      219      224
     451     39      147      174      175      176
     452     55      147      174      175      180
     453     39      147      174      179      178
     454     55      147      174      179      184
     455     10      148      147      146      150
     456     11      148      147      174      175
     457     11      148      147      174      179
     458     18      148      219      218      220
     459     19      148      219      218      221
     460     20      148      219      218      222
     461     27      149      148      147      174
     462     31      149      148      219      218
     463     33      149      148      219      223
     464     33      149      148      219      224
     465     55      150      146      147      174
     466     57      151      149      148      219
     467     36      152      153      154      155
     468     52      152      153      154      159
     469     36      152      157      156      155
     470     52      152      157      156      161
     471     38      153      152      157      156
     472     42      153      152      157      162
     473     35      153      154      155      156
     474     37      153      154      155      160
     475     38      154      153      152      157
     476     35      154      155      156      157
     477     37      154      155      156      161
     478     37      155      154      153      158
     479     37      155      156      157      162
     480     37      156      155      154      159
     481     42      157      152      153      158
     482     37      157      156      155      160
     483     79      158      153      154      159
     484     79      159      154      155      160
     485     79      160      155      156      161
     486     79      161      156      157      162
     487      4      163      164      165      166
     488      6      163      164      165      170
     489      4      163      168      167      166
     490      6      163      168      167      172
     491     18      163      209      207      208
     492     19      163      209      207      210
     493     20      163      209      207      211
     494     23      164      163      168      167
     495     25      164      163      168      173
     496     31      164      163      209      207
     497     33      164      163      209      214
     498     33      164      163      209      215
     499     35      164      165      166      167
     500     37      164      165      166      171
     501     23      165      164      163      168
     502     34      165      164      163      209
     503     35      165      166      167      168
     504     37      165      166      167      172
     505     37      166      165      164      169
     506     37      166      167      168      173
     507     37      167      166      165      170
     508     34      167      168      163      209
     509     25      168      163      164      169
     510     31      168      163      209      207
     511     33      168      163      209      214
     512     33      168      163      209      215
     513     37      168      167      166      171
     514     57      169      164      163      209
     515     79      169      164      165      170
     516     79      170      165      166      171
     517     79      171      166      167      172
     518     79      172      167      168      173
     519     57      173      168      163      209
     520     54      174      147      148      219
     521     36      174      175      176      177
     522     52      174      175      176      181
     523     36      174      179      178      177
     524     52      174      179      178      183
     525     38      175      174      179      178
     526     42      175      174      179      184
     527     35      175      176      177      178
     528     37      175      176      177      182
     529     38      176      175      174      179
     530     35      176      177      178      179
     531     37      176      177      178      183
     532     37      177      176      175      180
     533     37      177      178      179      184
     534     37      178      177      176      181
     535     42      179      174      175      180
     536     37      179      178      177      182
     537     79      180      175      176      181
     538     79      181      176      177      182
     539     79      182      177      178      183
     540     79      183      178      179      184
     541      4      185      186      187      188
     542      6      185      186      187      192
     543      4      185      190      189      188
     544      6      185      190      189      194
     545     18      185      220      218      219
     546     19      185      220      218      221
     547     20      185      220      218      222
     548     23      186      185      190      189
     549     25      186      185      190      195
     550     31      186      185      220      218
     551     33      186      185      220      225
     552     33      186      185      220      226
     553     35      186      187      188      189
     554     37      186      187      188      193
     555     23      187      186      185      190
     556     34      187      186      185      220
     557     35      187      188      189      190
     558     37      187      188      189      194
     559     37      188      187      186      191
     560     37      188      189      190      195
     561     37      189      188      187      192
     562     34      189      190      185      220
     563     25      190      185      186      191
     564     31      190      185      220      218
     565     33      190      185      220      225
     566     33      190      185      220      226
     567     37      190      189      188      193
     568     57      191      186      185      220
     569     79      191      186      187      192
     570     79      192      187      188      193
     571     79      193      188      189      194
     572     79      194      189      190      195
     573     57      195      190      185      220
     574     36      196      197      198      199
     575     52      196      197      198      203
     576     36      196      201      200      199
     577     52      196      201      200      205
     578     38      197      196      201      200
     579     42      197      196      201      206
     580     35      197      198      199      200
     581     37      197      198      199      204
     582     38      198      197      196      201
     583     35      198      199      200      201
     584     37      198      199      200      205
     585     37      199      198      197      202
     586     37      199      200      201      206
     587     37      200      199      198      203
     588     42      201      196      197      202
     589     37      201      200      199      204
     590     79      202      197      198      203
     591     79      203      198      199      204
     592     79      204      199      200      205
     593     79      205      200      201      206
     594     60      208      207      209      214
     595     60      208      207      209      215
     596     62      208      207      210      216
     597     62      208      207      210      217
     598     60      209      207      208      212
     599     60      209      207      208      213
     600     62      209      207      210      216
     601     62      209      207      210      217
     602     73      210      207      208      212
     603     73      210      207      208      213
     604     73      210      207      209      214
     605     73      210      207      209      215
     606     83      211      207      208      212
     607     83      211      207      208      213
     608     83      211      207      209      214
     609     83      211      207      209      215
     610     86      211      207      210      216
     611     86      211      207      210      217
     612     76      218      221      230      229
     613     77      218      221      230      234
     614     77      218      221      230      235
     615     60      219      218      220      225
     616     60      219      218      220      226
     617     62      219      218      221      227
     618     62      219      218      221      228
     619     61      219      218      221      230
     620     60      220      218      219      223
     621     60      220      218      219      224
     622     62      220      218      221      227
     623     62      220      218      221      228
     624     61      220      218      221      230
     625     73      221      218      219      223
     626     73      221      218      219      224
     627     73      221      218      220      225
     628     73      221      218      220      226
     629     72      221      230      229      231
     630     64      221      230      229      232
     631     64      221      230      229      233
     632     83      222      218      219      223
     633     83      222      218      219      224
     634     83      222      218      220      225
     635     83      222      218      220      226
     636     86      222      218      221      227
     637     86      222      218      221      228
     638     71      222      218      221      230
     639     78      227      221      230      229
     640     85      227      221      230      234
     641     85      227      221      230      235
     642     78      228      221      230      229
     643     85      228      221      230      234
     644     85      228      221      230      235
     645     75      230      229      231      236
     646     75      230      229      231      237
     647     74      230      229      232      238
     648     74      230      229      232      239
     649     74      230      229      233      240
     650     74      230      229      233      241
     651     75      231      229      230      234
     652     75      231      229      230      235
     653     74      231      229      232      238
     654     74      231      229      232      239
     655     74      231      229      233      240
     656     74      231      229      233      241
     657     65      232      229      230      234
     658     65      232      229      230      235
     659     65      232      229      231      236
     660     65      232      229      231      237
     661     63      232      229      233      240
     662     63      232      229      233      241
     663     65      233      229      230      234
     664     65      233      229      230      235
     665     65      233      229      231      236
     666     65      233      229      231      237
     667     63      233      229      232      238
     668     63      233      229      232      239

Impropers

       1      1        2       57       58       62
       2      4       57       58       59       63
       3      4       58       59       60       64
       4      1       59       60       61       97
       5      4       60       61       62       65
       6      4       57       62       61       66
       7     10       68       67       72      137
       8      7       67       68       69       73
       9      4       68       69       70       74
      10      1       69       70       71      103
      11      4       70       71       72       75
      12      7       67       72       71       76
      13     10       78       77       82      120
      14      7       77       78       79       83
      15      7       78       79       80       84
      16     10       79       80       81      152
      17      7       80       81       82       85
      18      7       77       82       81       86
      19      1       88       87       92      232
      20      4       87       88       89       93
      21      4       88       89       90       94
      22      1       44       90       89       91
      23      4       90       91       92       95
      24      4       87       92       91       96
      25      1       98      109      110      114
      26      3      109      110      111      115
      27      1        9      111      110      112
      28      5      111      112      113      116
      29     10      112      113      114      136
      30      5      109      114      113      117
      31     10      119      118      123      139
      32      8      118      119      120      124
      33     10       77      120      119      121
      34      5      120      121      122      125
      35      1      121      122      123      208
      36      5      118      123      122      126
      37      1      128      127      132      233
      38      5      127      128      129      133
      39     10      128      129      130      196
      40      5      129      130      131      134
      41      1       51      131      130      132
      42      3      127      132      131      135
      43     11      113      136      137      141
      44     11       67      137      136      138
      45      8      137      138      139      142
      46     11      118      139      138      140
      47     11      139      140      141      144
      48      8      136      141      140      143
      49      9      140      144      145      149
      50      2       30      145      144      146
      51      5      145      146      147      150
      52      9      146      147      148      174
      53      2      147      148      149      219
      54      5      144      149      148      151
      55     10       80      152      153      157
      56      7      152      153      154      158
      57      6      153      154      155      159
      58      6      154      155      156      160
      59      6      155      156      157      161
      60      7      152      157      156      162
      61      1      164      163      168      209
      62      4      163      164      165      169
      63      6      164      165      166      170
      64      6      165      166      167      171
      65      6      166      167      168      172
      66      4      163      168      167      173
      67     10      147      174      175      179
      68      7      174      175      176      180
      69      6      175      176      177      181
      70      6      176      177      178      182
      71      6      177      178      179      183
      72      7      174      179      178      184
      73      1      186      185      190      220
      74      4      185      186      187      191
      75      6      186      187      188      192
      76      6      187      188      189      193
      77      6      188      189      190      194
      78      4      185      190      189      195
      79     10      129      196      197      201
      80      7      196      197      198      202
      81      6      197      198      199      203
      82      6      198      199      200      204
      83      6      199      200      201      205
      84      7      196      201      200      206

