LAMMPS data file generated by clean-room 1-hop pipeline

     210 atoms
     210 bonds
     420 angles
     630 dihedrals
       0 impropers

       2 atom types
       2 bond types
       3 angle types
       3 dihedral types
       0 improper types

  -35.069600    34.904400 xlo xhi
  -30.664000    31.683500 ylo yhi
  -30.344000    30.450000 zlo zhi

Masses

       1    12.011000
       2     1.008000

Pair Coeffs

       1     0.066000     3.500000
       2     0.030000     2.500000

Bond Coeffs

       1   268.000000     1.529000
       2   340.000000     1.090000

Angle Coeffs

       1    58.350000   112.700000
       2    37.500000   110.700000
       3    33.000000   107.800000

Dihedral Coeffs

       1     0.850000    -0.200000     0.200000     0.000000
       2     0.000000     0.000000     0.300000     0.000000
       3     0.000000     0.000000     0.300000     0.000000

Improper Coeffs


Atoms

       1    1      1  -0.19413973   -12.174700    -9.888800     0.865900
       2    1      1  -0.19413973   -11.463500    -8.547900     1.142900
       3    1      2   0.09706986   -11.430800   -10.664000     0.484400
       4    1      2   0.09706986   -12.631100   -10.254100     1.844500
       5    1      2   0.09706986   -12.243700    -7.798300     1.502000
       6    1      2   0.09706986   -10.955900    -8.149400     0.202900
       7    1      1  -0.19413973   -13.314700    -9.692900    -0.151700
       8    1      1  -0.19413973   -12.742600    -9.273900    -1.516300
       9    1      2   0.09706986   -13.901200   -10.662300    -0.276700
      10    1      2   0.09706986   -14.010400    -8.877700     0.236500
      11    1      2   0.09706986   -12.097700    -8.344500    -1.375100
      12    1      2   0.09706986   -12.104200   -10.116100    -1.944000
      13    1      1  -0.19413973   -13.891300    -8.924900    -2.482200
      14    1      1  -0.19413973   -13.245800    -8.482700    -3.805800
      15    1      2   0.09706986   -14.587300    -9.811300    -2.653100
      16    1      2   0.09706986   -14.477300    -8.055000    -2.036100
      17    1      2   0.09706986   -12.739000    -9.369500    -4.311800
      18    1      2   0.09706986   -12.457000    -7.699100    -3.554900
      19    1      1  -0.19413973   -14.251700    -7.809200    -4.756000
      20    1      1  -0.19413973   -13.377100    -7.280800    -5.904700
      21    1      2   0.09706986   -15.069600    -8.513900    -5.122400
      22    1      2   0.09706986   -14.714400    -6.924300    -4.205900
      23    1      2   0.09706986   -12.985700    -8.136900    -6.547300
      24    1      2   0.09706986   -12.492000    -6.757900    -5.413000
      25    1      1  -0.19413973   -14.058100    -6.198200    -6.758600
      26    1      1  -0.19413973   -12.892600    -5.648600    -7.598600
      27    1      2   0.09706986   -14.928200    -6.579600    -7.388400
      28    1      2   0.09706986   -14.413800    -5.375800    -6.054300
      29    1      2   0.09706986   -12.565900    -6.400000    -8.390900
      30    1      2   0.09706986   -12.030200    -5.491100    -6.870600
      31    1      1  -0.19413973   -13.162800    -4.263900    -8.209000
      32    1      1  -0.19413973   -11.783700    -3.819000    -8.727900
      33    1      2   0.09706986   -13.954300    -4.281500    -9.028900
      34    1      2   0.09706986   -13.484600    -3.564000    -7.368900
      35    1      2   0.09706986   -11.473000    -4.454400    -9.621300
      36    1      2   0.09706986   -11.037400    -3.979800    -7.881900
      37    1      1  -0.19413973   -11.731600    -2.320900    -9.067100
      38    1      1  -0.19413973   -10.256500    -2.012200    -9.388000
      39    1      2   0.09706986   -12.421100    -2.057200    -9.935600
      40    1      2   0.09706986   -12.038300    -1.734200    -8.139300
      41    1      2   0.09706986   -10.108500    -0.889400    -9.514000
      42    1      2   0.09706986    -9.948400    -2.550700   -10.344000
      43    1      1  -0.19413973    -9.404600    -2.549700    -8.219700
      44    1      1  -0.19413973    -7.908100    -2.285900    -8.472400
      45    1      2   0.09706986    -9.577500    -3.673200    -8.135300
      46    1      2   0.09706986    -9.720000    -2.046200    -7.247100
      47    1      2   0.09706986    -7.725500    -1.160900    -8.496400
      48    1      2   0.09706986    -7.605200    -2.740100    -9.473100
      49    1      1  -0.19413973    -7.060100    -2.932700    -7.359000
      50    1      1  -0.19413973    -5.575300    -2.604200    -7.608900
      51    1      2   0.09706986    -7.215000    -4.061800    -7.377300
      52    1      2   0.09706986    -7.373400    -2.522000    -6.342900
      53    1      2   0.09706986    -5.439300    -1.473300    -7.558800
      54    1      2   0.09706986    -5.274800    -2.973800    -8.644600
      55    1      1  -0.19413973    -4.666500    -3.273300    -6.558900
      56    1      1  -0.19413973    -3.215900    -2.822300    -6.820600
      57    1      2   0.09706986    -4.751200    -4.406600    -6.646200
      58    1      2   0.09706986    -4.977200    -2.946100    -5.512200
      59    1      2   0.09706986    -3.164100    -1.689800    -6.703800
      60    1      2   0.09706986    -2.912600    -3.104900    -7.882300
      61    1      1  -0.19413973    -2.234400    -3.474300    -5.826900
      62    1      1  -0.19413973    -0.825200    -2.903800    -6.084100
      63    1      2   0.09706986    -2.234000    -4.604800    -5.974300
      64    1      2   0.09706986    -2.548000    -3.227900    -4.759000
      65    1      2   0.09706986    -0.847900    -1.777700    -5.907700
      66    1      2   0.09706986    -0.520900    -3.110100    -7.163200
      67    1      1  -0.19413973     0.207200    -3.548600    -5.139500
      68    1      1  -0.19413973     1.590300    -2.906300    -5.368400
      69    1      2   0.09706986     0.261700    -4.666900    -5.353600
      70    1      2   0.09706986    -0.106100    -3.384900    -4.055700
      71    1      2   0.09706986     1.534800    -1.795900    -5.117300
      72    1      2   0.09706986     1.895200    -3.033800    -6.459300
      73    1      1  -0.19413973     2.636300    -3.591000    -4.467500
      74    1      1  -0.19413973     4.022300    -2.939800    -4.645500
      75    1      2   0.09706986     2.698200    -4.693600    -4.750300
      76    1      2   0.09706986     2.320200    -3.499300    -3.376100
      77    1      2   0.09706986     3.980600    -1.850500    -4.311600
      78    1      2   0.09706986     4.335100    -2.992700    -5.740500
      79    1      1  -0.19413973     5.038300    -3.721600    -3.790700
      80    1      1  -0.19413973     6.458700    -3.131100    -3.897800
      81    1      2   0.09706986     5.060100    -4.800000    -4.159200
      82    1      2   0.09706986     4.710500    -3.706300    -2.699100
      83    1      2   0.09706986     6.476000    -2.073600    -3.472400
      84    1      2   0.09706986     6.787400    -3.112700    -4.989200
      85    1      1  -0.19413973     7.402900    -4.049500    -3.097600
      86    1      1  -0.19413973     8.865800    -3.564700    -3.120300
      87    1      2   0.09706986     7.356400    -5.093000    -3.554000
      88    1      2   0.09706986     7.049500    -4.099900    -2.015000
      89    1      2   0.09706986     9.239200    -3.483900    -4.194300
      90    1      2   0.09706986     9.502900    -4.322300    -2.554900
      91    1      1  -0.19413973     8.989700    -2.204700    -2.410000
      92    1      1  -0.19413973    10.474900    -1.800200    -2.325500
      93    1      2   0.09706986     8.392400    -1.411900    -2.970300
      94    1      2   0.09706986     8.581500    -2.308400    -1.350800
      95    1      2   0.09706986    10.908100    -1.661700    -3.371100
      96    1      2   0.09706986    11.051900    -2.617200    -1.778100
      97    1      1  -0.19413973    10.579100    -0.489100    -1.525600
      98    1      1  -0.19413973    12.042100    -0.053400    -1.312600
      99    1      2   0.09706986    10.014500     0.333700    -2.076200
     100    1      2   0.09706986    10.100800    -0.649800    -0.503600
     101    1      2   0.09706986    12.549700     0.150800    -2.312700
     102    1      2   0.09706986    12.610000    -0.863600    -0.746500
     103    1      1  -0.19413973    11.978900     1.228500    -0.463300
     104    1      1  -0.19413973    13.352200     1.818500    -0.089400
     105    1      2   0.09706986    11.387400     2.016500    -1.036600
     106    1      2   0.09706986    11.426700     0.984400     0.503600
     107    1      2   0.09706986    13.932900     2.121900    -1.022200
     108    1      2   0.09706986    13.955300     1.072600     0.526500
     109    1      1  -0.19413973    12.987800     3.055500     0.749200
     110    1      1  -0.19413973    14.158200     3.892200     1.297400
     111    1      2   0.09706986    12.353900     3.739000     0.093400
     112    1      2   0.09706986    12.355500     2.712400     1.633700
     113    1      2   0.09706986    14.794400     4.305800     0.446700
     114    1      2   0.09706986    14.800100     3.286900     2.019400
     115    1      1  -0.19413973    13.412200     5.019800     2.031500
     116    1      1  -0.19413973    14.250900     6.106800     2.726600
     117    1      2   0.09706986    12.738500     5.537200     1.271300
     118    1      2   0.09706986    12.754000     4.536000     2.826100
     119    1      2   0.09706986    14.904400     6.665700     1.978300
     120    1      2   0.09706986    14.886800     5.664100     3.562600
     121    1      1  -0.19413973    13.145100     7.024300     3.277800
     122    1      1  -0.19413973    13.581000     8.287000     4.040700
     123    1      2   0.09706986    12.520700     7.367900     2.388500
     124    1      2   0.09706986    12.481700     6.405100     3.967700
     125    1      2   0.09706986    14.207300     8.965000     3.371500
     126    1      2   0.09706986    14.155500     8.022500     4.989200
     127    1      1  -0.19413973    12.228500     8.944200     4.371000
     128    1      1  -0.19413973    12.294100    10.276000     5.138400
     129    1      2   0.09706986    11.682400     9.131100     3.388300
     130    1      2   0.09706986    11.618800     8.209100     4.992800
     131    1      2   0.09706986    12.771800    10.125000     6.162500
     132    1      2   0.09706986    12.874600    11.056000     4.543000
     133    1      1  -0.19413973    10.818100    10.694500     5.277800
     134    1      1  -0.19413973    10.084300     9.571000     6.035000
     135    1      2   0.09706986    10.715900    11.683500     5.835100
     136    1      2   0.09706986    10.375000    10.794300     4.232200
     137    1      2   0.09706986    10.465600     9.529300     7.108300
     138    1      2   0.09706986    10.305300     8.578000     5.520700
     139    1      1  -0.19413973     8.557100     9.774800     6.014600
     140    1      1  -0.19413973     7.917100     8.610700     6.794800
     141    1      2   0.09706986     8.272200    10.769000     6.494100
     142    1      2   0.09706986     8.199600     9.754700     4.932200
     143    1      2   0.09706986     8.231300     8.684000     7.888100
     144    1      2   0.09706986     8.293700     7.624800     6.363800
     145    1      1  -0.19413973     6.379100     8.618700     6.691800
     146    1      1  -0.19413973     5.853900     7.452400     7.551500
     147    1      2   0.09706986     6.075600     8.471200     5.602900
     148    1      2   0.09706986     5.955700     9.603400     7.079400
     149    1      2   0.09706986     6.130000     7.653700     8.639000
     150    1      2   0.09706986     6.354300     6.486000     7.212800
     151    1      1  -0.19413973     4.327600     7.267300     7.436700
     152    1      1  -0.19413973     3.942100     6.134800     8.408200
     153    1      2   0.09706986     4.059000     6.983300     6.365900
     154    1      2   0.09706986     3.784400     8.225500     7.730800
     155    1      2   0.09706986     4.194100     6.475100     9.466400
     156    1      2   0.09706986     4.556200     5.207100     8.160600
     157    1      1  -0.19413973     2.449200     5.754500     8.346500
     158    1      1  -0.19413973     2.228400     4.697900     9.446600
     159    1      2   0.09706986     2.200700     5.324900     7.320400
     160    1      2   0.09706986     1.796300     6.665200     8.555000
     161    1      2   0.09706986     2.465000     5.184600    10.450000
     162    1      2   0.09706986     2.947000     3.829000     9.278300
     163    1      1  -0.19413973     0.793900     4.134900     9.495900
     164    1      1  -0.19413973     0.478400     3.324400     8.223800
     165    1      2   0.09706986     0.036600     4.975800     9.630900
     166    1      2   0.09706986     0.730100     3.425700    10.385700
     167    1      2   0.09706986     0.463900     4.006200     7.310500
     168    1      2   0.09706986     1.283200     2.528100     8.091400
     169    1      1  -0.19413973    -0.878600     2.614300     8.404800
     170    1      1  -0.19413973    -1.173400     1.696700     7.201500
     171    1      2   0.09706986    -1.711900     3.382800     8.526500
     172    1      2   0.09706986    -0.821900     1.968800     9.342600
     173    1      2   0.09706986    -1.278800     2.320400     6.253300
     174    1      2   0.09706986    -0.309800     0.963300     7.078600
     175    1      1  -0.19413973    -2.464900     0.894000     7.459900
     176    1      1  -0.19413973    -2.741600    -0.065500     6.284700
     177    1      2   0.09706986    -3.345300     1.606700     7.588500
     178    1      2   0.09706986    -2.330900     0.283500     8.413100
     179    1      2   0.09706986    -2.907900     0.537400     5.331500
     180    1      2   0.09706986    -1.844900    -0.755500     6.144800
     181    1      1  -0.19413973    -3.988200    -0.921600     6.586900
     182    1      1  -0.19413973    -4.273200    -1.894900     5.424300
     183    1      2   0.09706986    -4.890500    -0.242500     6.741300
     184    1      2   0.09706986    -3.801000    -1.521600     7.537800
     185    1      2   0.09706986    -4.492600    -1.303400     4.474900
     186    1      2   0.09706986    -3.363000    -2.560400     5.256300
     187    1      1  -0.19413973    -5.484300    -2.778900     5.784700
     188    1      1  -0.19413973    -5.815200    -3.780900     4.658900
     189    1      2   0.09706986    -6.393100    -2.118300     5.977000
     190    1      2   0.09706986    -5.236900    -3.360400     6.733500
     191    1      2   0.09706986    -6.111900    -3.222100     3.710700
     192    1      2   0.09706986    -4.903800    -4.433200     4.450600
     193    1      1  -0.19413973    -6.977700    -4.670800     5.142400
     194    1      1  -0.19413973    -7.392100    -5.750900     4.121000
     195    1      2   0.09706986    -7.881600    -4.016600     5.375800
     196    1      2   0.09706986    -6.642600    -5.194700     6.097900
     197    1      2   0.09706986    -7.808900    -5.274500     3.173000
     198    1      2   0.09706986    -6.493000    -6.403500     3.865600
     199    1      1  -0.19413973    -8.460600    -6.609200     4.826300
     200    1      1  -0.19413973    -8.977000    -7.822000     4.024400
     201    1      2   0.09706986    -9.345700    -5.949500     5.109900
     202    1      2   0.09706986    -7.984400    -7.011900     5.780400
     203    1      2   0.09706986    -8.105900    -8.492000     3.721900
     204    1      2   0.09706986    -9.663700    -8.406000     4.721800
     205    1      1  -0.19413973   -10.439400    -8.770400     2.273400
     206    1      1  -0.19413973    -9.814900    -7.454900     2.783700
     207    1      2   0.09706986    -9.622400    -9.486200     1.927300
     208    1      2   0.09706986   -10.997800    -9.240400     3.149100
     209    1      2   0.09706986   -10.656600    -6.756100     3.105000
     210    1      2   0.09706986    -9.178300    -6.949800     1.983800

Bonds

       1      1        1        2
       2      2        1        3
       3      2        1        4
       4      1        1        7
       5      2        2        5
       6      2        2        6
       7      1        2      205
       8      1        7        8
       9      2        7        9
      10      2        7       10
      11      2        8       11
      12      2        8       12
      13      1        8       13
      14      1       13       14
      15      2       13       15
      16      2       13       16
      17      2       14       17
      18      2       14       18
      19      1       14       19
      20      1       19       20
      21      2       19       21
      22      2       19       22
      23      2       20       23
      24      2       20       24
      25      1       20       25
      26      1       25       26
      27      2       25       27
      28      2       25       28
      29      2       26       29
      30      2       26       30
      31      1       26       31
      32      1       31       32
      33      2       31       33
      34      2       31       34
      35      2       32       35
      36      2       32       36
      37      1       32       37
      38      1       37       38
      39      2       37       39
      40      2       37       40
      41      2       38       41
      42      2       38       42
      43      1       38       43
      44      1       43       44
      45      2       43       45
      46      2       43       46
      47      2       44       47
      48      2       44       48
      49      1       44       49
      50      1       49       50
      51      2       49       51
      52      2       49       52
      53      2       50       53
      54      2       50       54
      55      1       50       55
      56      1       55       56
      57      2       55       57
      58      2       55       58
      59      2       56       59
      60      2       56       60
      61      1       56       61
      62      1       61       62
      63      2       61       63
      64      2       61       64
      65      2       62       65
      66      2       62       66
      67      1       62       67
      68      1       67       68
      69      2       67       69
      70      2       67       70
      71      2       68       71
      72      2       68       72
      73      1       68       73
      74      1       73       74
      75      2       73       75
      76      2       73       76
      77      2       74       77
      78      2       74       78
      79      1       74       79
      80      1       79       80
      81      2       79       81
      82      2       79       82
      83      2       80       83
      84      2       80       84
      85      1       80       85
      86      1       85       86
      87      2       85       87
      88      2       85       88
      89      2       86       89
      90      2       86       90
      91      1       86       91
      92      1       91       92
      93      2       91       93
      94      2       91       94
      95      2       92       95
      96      2       92       96
      97      1       92       97
      98      1       97       98
      99      2       97       99
     100      2       97      100
     101      2       98      101
     102      2       98      102
     103      1       98      103
     104      1      103      104
     105      2      103      105
     106      2      103      106
     107      2      104      107
     108      2      104      108
     109      1      104      109
     110      1      109      110
     111      2      109      111
     112      2      109      112
     113      2      110      113
     114      2      110      114
     115      1      110      115
     116      1      115      116
     117      2      115      117
     118      2      115      118
     119      2      116      119
     120      2      116      120
     121      1      116      121
     122      1      121      122
     123      2      121      123
     124      2      121      124
     125      2      122      125
     126      2      122      126
     127      1      122      127
     128      1      127      128
     129      2      127      129
     130      2      127      130
     131      2      128      131
     132      2      128      132
     133      1      128      133
     134      1      133      134
     135      2      133      135
     136      2      133      136
     137      2      134      137
     138      2      134      138
     139      1      134      139
     140      1      139      140
     141      2      139      141
     142      2      139      142
     143      2      140      143
     144      2      140      144
     145      1      140      145
     146      1      145      146
     147      2      145      147
     148      2      145      148
     149      2      146      149
     150      2      146      150
     151      1      146      151
     152      1      151      152
     153      2      151      153
     154      2      151      154
     155      2      152      155
     156      2      152      156
     157      1      152      157
     158      1      157      158
     159      2      157      159
     160      2      157      160
     161      2      158      161
     162      2      158      162
     163      1      158      163
     164      1      163      164
     165      2      163      165
     166      2      163      166
     167      2      164      167
     168      2      164      168
     169      1      164      169
     170      1      169      170
     171      2      169      171
     172      2      169      172
     173      2      170      173
     174      2      170      174
     175      1      170      175
     176      1      175      176
     177      2      175      177
     178      2      175      178
     179      2      176      179
     180      2      176      180
     181      1      176      181
     182      1      181      182
     183      2      181      183
     184      2      181      184
     185      2      182      185
     186      2      182      186
     187      1      182      187
     188      1      187      188
     189      2      187      189
     190      2      187      190
     191      2      188      191
     192      2      188      192
     193      1      188      193
     194      1      193      194
     195      2      193      195
     196      2      193      196
     197      2      194      197
     198      2      194      198
     199      1      194      199
     200      1      199      200
     201      2      199      201
     202      2      199      202
     203      2      200      203
     204      2      200      204
     205      1      200      206
     206      1      205      206
     207      2      205      207
     208      2      205      208
     209      2      206      209
     210      2      206      210

Angles

       1      2        1        2        5
       2      2        1        2        6
       3      1        1        2      205
       4      1        1        7        8
       5      2        1        7        9
       6      2        1        7       10
       7      2        2        1        3
       8      2        2        1        4
       9      1        2        1        7
      10      1        2      205      206
      11      2        2      205      207
      12      2        2      205      208
      13      3        3        1        4
      14      2        3        1        7
      15      2        4        1        7
      16      3        5        2        6
      17      2        5        2      205
      18      2        6        2      205
      19      2        7        8       11
      20      2        7        8       12
      21      1        7        8       13
      22      2        8        7        9
      23      2        8        7       10
      24      1        8       13       14
      25      2        8       13       15
      26      2        8       13       16
      27      3        9        7       10
      28      3       11        8       12
      29      2       11        8       13
      30      2       12        8       13
      31      2       13       14       17
      32      2       13       14       18
      33      1       13       14       19
      34      2       14       13       15
      35      2       14       13       16
      36      1       14       19       20
      37      2       14       19       21
      38      2       14       19       22
      39      3       15       13       16
      40      3       17       14       18
      41      2       17       14       19
      42      2       18       14       19
      43      2       19       20       23
      44      2       19       20       24
      45      1       19       20       25
      46      2       20       19       21
      47      2       20       19       22
      48      1       20       25       26
      49      2       20       25       27
      50      2       20       25       28
      51      3       21       19       22
      52      3       23       20       24
      53      2       23       20       25
      54      2       24       20       25
      55      2       25       26       29
      56      2       25       26       30
      57      1       25       26       31
      58      2       26       25       27
      59      2       26       25       28
      60      1       26       31       32
      61      2       26       31       33
      62      2       26       31       34
      63      3       27       25       28
      64      3       29       26       30
      65      2       29       26       31
      66      2       30       26       31
      67      2       31       32       35
      68      2       31       32       36
      69      1       31       32       37
      70      2       32       31       33
      71      2       32       31       34
      72      1       32       37       38
      73      2       32       37       39
      74      2       32       37       40
      75      3       33       31       34
      76      3       35       32       36
      77      2       35       32       37
      78      2       36       32       37
      79      2       37       38       41
      80      2       37       38       42
      81      1       37       38       43
      82      2       38       37       39
      83      2       38       37       40
      84      1       38       43       44
      85      2       38       43       45
      86      2       38       43       46
      87      3       39       37       40
      88      3       41       38       42
      89      2       41       38       43
      90      2       42       38       43
      91      2       43       44       47
      92      2       43       44       48
      93      1       43       44       49
      94      2       44       43       45
      95      2       44       43       46
      96      1       44       49       50
      97      2       44       49       51
      98      2       44       49       52
      99      3       45       43       46
     100      3       47       44       48
     101      2       47       44       49
     102      2       48       44       49
     103      2       49       50       53
     104      2       49       50       54
     105      1       49       50       55
     106      2       50       49       51
     107      2       50       49       52
     108      1       50       55       56
     109      2       50       55       57
     110      2       50       55       58
     111      3       51       49       52
     112      3       53       50       54
     113      2       53       50       55
     114      2       54       50       55
     115      2       55       56       59
     116      2       55       56       60
     117      1       55       56       61
     118      2       56       55       57
     119      2       56       55       58
     120      1       56       61       62
     121      2       56       61       63
     122      2       56       61       64
     123      3       57       55       58
     124      3       59       56       60
     125      2       59       56       61
     126      2       60       56       61
     127      2       61       62       65
     128      2       61       62       66
     129      1       61       62       67
     130      2       62       61       63
     131      2       62       61       64
     132      1       62       67       68
     133      2       62       67       69
     134      2       62       67       70
     135      3       63       61       64
     136      3       65       62       66
     137      2       65       62       67
     138      2       66       62       67
     139      2       67       68       71
     140      2       67       68       72
     141      1       67       68       73
     142      2       68       67       69
     143      2       68       67       70
     144      1       68       73       74
     145      2       68       73       75
     146      2       68       73       76
     147      3       69       67       70
     148      3       71       68       72
     149      2       71       68       73
     150      2       72       68       73
     151      2       73       74       77
     152      2       73       74       78
     153      1       73       74       79
     154      2       74       73       75
     155      2       74       73       76
     156      1       74       79       80
     157      2       74       79       81
     158      2       74       79       82
     159      3       75       73       76
     160      3       77       74       78
     161      2       77       74       79
     162      2       78       74       79
     163      2       79       80       83
     164      2       79       80       84
     165      1       79       80       85
     166      2       80       79       81
     167      2       80       79       82
     168      1       80       85       86
     169      2       80       85       87
     170      2       80       85       88
     171      3       81       79       82
     172      3       83       80       84
     173      2       83       80       85
     174      2       84       80       85
     175      2       85       86       89
     176      2       85       86       90
     177      1       85       86       91
     178      2       86       85       87
     179      2       86       85       88
     180      1       86       91       92
     181      2       86       91       93
     182      2       86       91       94
     183      3       87       85       88
     184      3       89       86       90
     185      2       89       86       91
     186      2       90       86       91
     187      2       91       92       95
     188      2       91       92       96
     189      1       91       92       97
     190      2       92       91       93
     191      2       92       91       94
     192      1       92       97       98
     193      2       92       97       99
     194      2       92       97      100
     195      3       93       91       94
     196      3       95       92       96
     197      2       95       92       97
     198      2       96       92       97
     199      2       97       98      101
     200      2       97       98      102
     201      1       97       98      103
     202      2       98       97       99
     203      2       98       97      100
     204      1       98      103      104
     205      2       98      103      105
     206      2       98      103      106
     207      3       99       97      100
     208      3      101       98      102
     209      2      101       98      103
     210      2      102       98      103
     211      2      103      104      107
     212      2      103      104      108
     213      1      103      104      109
     214      2      104      103      105
     215      2      104      103      106
     216      1      104      109      110
     217      2      104      109      111
     218      2      104      109      112
     219      3      105      103      106
     220      3      107      104      108
     221      2      107      104      109
     222      2      108      104      109
     223      2      109      110      113
     224      2      109      110      114
     225      1      109      110      115
     226      2      110      109      111
     227      2      110      109      112
     228      1      110      115      116
     229      2      110      115      117
     230      2      110      115      118
     231      3      111      109      112
     232      3      113      110      114
     233      2      113      110      115
     234      2      114      110      115
     235      2      115      116      119
     236      2      115      116      120
     237      1      115      116      121
     238      2      116      115      117
     239      2      116      115      118
     240      1      116      121      122
     241      2      116      121      123
     242      2      116      121      124
     243      3      117      115      118
     244      3      119      116      120
     245      2      119      116      121
     246      2      120      116      121
     247      2      121      122      125
     248      2      121      122      126
     249      1      121      122      127
     250      2      122      121      123
     251      2      122      121      124
     252      1      122      127      128
     253      2      122      127      129
     254      2      122      127      130
     255      3      123      121      124
     256      3      125      122      126
     257      2      125      122      127
     258      2      126      122      127
     259      2      127      128      131
     260      2      127      128      132
     261      1      127      128      133
     262      2      128      127      129
     263      2      128      127      130
     264      1      128      133      134
     265      2      128      133      135
     266      2      128      133      136
     267      3      129      127      130
     268      3      131      128      132
     269      2      131      128      133
     270      2      132      128      133
     271      2      133      134      137
     272      2      133      134      138
     273      1      133      134      139
     274      2      134      133      135
     275      2      134      133      136
     276      1      134      139      140
     277      2      134      139      141
     278      2      134      139      142
     279      3      135      133      136
     280      3      137      134      138
     281      2      137      134      139
     282      2      138      134      139
     283      2      139      140      143
     284      2      139      140      144
     285      1      139      140      145
     286      2      140      139      141
     287      2      140      139      142
     288      1      140      145      146
     289      2      140      145      147
     290      2      140      145      148
     291      3      141      139      142
     292      3      143      140      144
     293      2      143      140      145
     294      2      144      140      145
     295      2      145      146      149
     296      2      145      146      150
     297      1      145      146      151
     298      2      146      145      147
     299      2      146      145      148
     300      1      146      151      152
     301      2      146      151      153
     302      2      146      151      154
     303      3      147      145      148
     304      3      149      146      150
     305      2      149      146      151
     306      2      150      146      151
     307      2      151      152      155
     308      2      151      152      156
     309      1      151      152      157
     310      2      152      151      153
     311      2      152      151      154
     312      1      152      157      158
     313      2      152      157      159
     314      2      152      157      160
     315      3      153      151      154
     316      3      155      152      156
     317      2      155      152      157
     318      2      156      152      157
     319      2      157      158      161
     320      2      157      158      162
     321      1      157      158      163
     322      2      158      157      159
     323      2      158      157      160
     324      1      158      163      164
     325      2      158      163      165
     326      2      158      163      166
     327      3      159      157      160
     328      3      161      158      162
     329      2      161      158      163
     330      2      162      158      163
     331      2      163      164      167
     332      2      163      164      168
     333      1      163      164      169
     334      2      164      163      165
     335      2      164      163      166
     336      1      164      169      170
     337      2      164      169      171
     338      2      164      169      172
     339      3      165      163      166
     340      3      167      164      168
     341      2      167      164      169
     342      2      168      164      169
     343      2      169      170      173
     344      2      169      170      174
     345      1      169      170      175
     346      2      170      169      171
     347      2      170      169      172
     348      1      170      175      176
     349      2      170      175      177
     350      2      170      175      178
     351      3      171      169      172
     352      3      173      170      174
     353      2      173      170      175
     354      2      174      170      175
     355      2      175      176      179
     356      2      175      176      180
     357      1      175      176      181
     358      2      176      175      177
     359      2      176      175      178
     360      1      176      181      182
     361      2      176      181      183
     362      2      176      181      184
     363      3      177      175      178
     364      3      179      176      180
     365      2      179      176      181
     366      2      180      176      181
     367      2      181      182      185
     368      2      181      182      186
     369      1      181      182      187
     370      2      182      181      183
     371      2      182      181      184
     372      1      182      187      188
     373      2      182      187      189
     374      2      182      187      190
     375      3      183      181      184
     376      3      185      182      186
     377      2      185      182      187
     378      2      186      182      187
     379      2      187      188      191
     380      2      187      188      192
     381      1      187      188      193
     382      2      188      187      189
     383      2      188      187      190
     384      1      188      193      194
     385      2      188      193      195
     386      2      188      193      196
     387      3      189      187      190
     388      3      191      188      192
     389      2      191      188      193
     390      2      192      188      193
     391      2      193      194      197
     392      2      193      194      198
     393      1      193      194      199
     394      2      194      193      195
     395      2      194      193      196
     396      1      194      199      200
     397      2      194      199      201
     398      2      194      199      202
     399      3      195      193      196
     400      3      197      194      198
     401      2      197      194      199
     402      2      198      194      199
     403      2      199      200      203
     404      2      199      200      204
     405      1      199      200      206
     406      2      200      199      201
     407      2      200      199      202
     408      1      200      206      205
     409      2      200      206      209
     410      2      200      206      210
     411      3      201      199      202
     412      3      203      200      204
     413      2      203      200      206
     414      2      204      200      206
     415      2      205      206      209
     416      2      205      206      210
     417      2      206      205      207
     418      2      206      205      208
     419      3      207      205      208
     420      3      209      206      210

Dihedrals

       1      1        1        2      205      206
       2      2        1        2      205      207
       3      2        1        2      205      208
       4      2        1        7        8       11
       5      2        1        7        8       12
       6      1        1        7        8       13
       7      1        2        1        7        8
       8      2        2        1        7        9
       9      2        2        1        7       10
      10      1        2      205      206      200
      11      2        2      205      206      209
      12      2        2      205      206      210
      13      3        3        1        2        5
      14      3        3        1        2        6
      15      2        3        1        2      205
      16      2        3        1        7        8
      17      3        3        1        7        9
      18      3        3        1        7       10
      19      3        4        1        2        5
      20      3        4        1        2        6
      21      2        4        1        2      205
      22      2        4        1        7        8
      23      3        4        1        7        9
      24      3        4        1        7       10
      25      2        5        2        1        7
      26      2        5        2      205      206
      27      3        5        2      205      207
      28      3        5        2      205      208
      29      2        6        2        1        7
      30      2        6        2      205      206
      31      3        6        2      205      207
      32      3        6        2      205      208
      33      1        7        1        2      205
      34      1        7        8       13       14
      35      2        7        8       13       15
      36      2        7        8       13       16
      37      2        8       13       14       17
      38      2        8       13       14       18
      39      1        8       13       14       19
      40      3        9        7        8       11
      41      3        9        7        8       12
      42      2        9        7        8       13
      43      3       10        7        8       11
      44      3       10        7        8       12
      45      2       10        7        8       13
      46      2       11        8       13       14
      47      3       11        8       13       15
      48      3       11        8       13       16
      49      2       12        8       13       14
      50      3       12        8       13       15
      51      3       12        8       13       16
      52      1       13       14       19       20
      53      2       13       14       19       21
      54      2       13       14       19       22
      55      2       14       19       20       23
      56      2       14       19       20       24
      57      1       14       19       20       25
      58      3       15       13       14       17
      59      3       15       13       14       18
      60      2       15       13       14       19
      61      3       16       13       14       17
      62      3       16       13       14       18
      63      2       16       13       14       19
      64      2       17       14       19       20
      65      3       17       14       19       21
      66      3       17       14       19       22
      67      2       18       14       19       20
      68      3       18       14       19       21
      69      3       18       14       19       22
      70      1       19       20       25       26
      71      2       19       20       25       27
      72      2       19       20       25       28
      73      2       20       25       26       29
      74      2       20       25       26       30
      75      1       20       25       26       31
      76      3       21       19       20       23
      77      3       21       19       20       24
      78      2       21       19       20       25
      79      3       22       19       20       23
      80      3       22       19       20       24
      81      2       22       19       20       25
      82      2       23       20       25       26
      83      3       23       20       25       27
      84      3       23       20       25       28
      85      2       24       20       25       26
      86      3       24       20       25       27
      87      3       24       20       25       28
      88      1       25       26       31       32
      89      2       25       26       31       33
      90      2       25       26       31       34
      91      2       26       31       32       35
      92      2       26       31       32       36
      93      1       26       31       32       37
      94      3       27       25       26       29
      95      3       27       25       26       30
      96      2       27       25       26       31
      97      3       28       25       26       29
      98      3       28       25       26       30
      99      2       28       25       26       31
     100      2       29       26       31       32
     101      3       29       26       31       33
     102      3       29       26       31       34
     103      2       30       26       31       32
     104      3       30       26       31       33
     105      3       30       26       31       34
     106      1       31       32       37       38
     107      2       31       32       37       39
     108      2       31       32       37       40
     109      2       32       37       38       41
     110      2       32       37       38       42
     111      1       32       37       38       43
     112      3       33       31       32       35
     113      3       33       31       32       36
     114      2       33       31       32       37
     115      3       34       31       32       35
     116      3       34       31       32       36
     117      2       34       31       32       37
     118      2       35       32       37       38
     119      3       35       32       37       39
     120      3       35       32       37       40
     121      2       36       32       37       38
     122      3       36       32       37       39
     123      3       36       32       37       40
     124      1       37       38       43       44
     125      2       37       38       43       45
     126      2       37       38       43       46
     127      2       38       43       44       47
     128      2       38       43       44       48
     129      1       38       43       44       49
     130      3       39       37       38       41
     131      3       39       37       38       42
     132      2       39       37       38       43
     133      3       40       37       38       41
     134      3       40       37       38       42
     135      2       40       37       38       43
     136      2       41       38       43       44
     137      3       41       38       43       45
     138      3       41       38       43       46
     139      2       42       38       43       44
     140      3       42       38       43       45
     141      3       42       38       43       46
     142      1       43       44       49       50
     143      2       43       44       49       51
     144      2       43       44       49       52
     145      2       44       49       50       53
     146      2       44       49       50       54
     147      1       44       49       50       55
     148      3       45       43       44       47
     149      3       45       43       44       48
     150      2       45       43       44       49
     151      3       46       43       44       47
     152      3       46       43       44       48
     153      2       46       43       44       49
     154      2       47       44       49       50
     155      3       47       44       49       51
     156      3       47       44       49       52
     157      2       48       44       49       50
     158      3       48       44       49       51
     159      3       48       44       49       52
     160      1       49       50       55       56
     161      2       49       50       55       57
     162      2       49       50       55       58
     163      2       50       55       56       59
     164      2       50       55       56       60
     165      1       50       55       56       61
     166      3       51       49       50       53
     167      3       51       49       50       54
     168      2       51       49       50       55
     169      3       52       49       50       53
     170      3       52       49       50       54
     171      2       52       49       50       55
     172      2       53       50       55       56
     173      3       53       50       55       57
     174      3       53       50       55       58
     175      2       54       50       55       56
     176      3       54       50       55       57
     177      3       54       50       55       58
     178      1       55       56       61       62
     179      2       55       56       61       63
     180      2       55       56       61       64
     181      2       56       61       62       65
     182      2       56       61       62       66
     183      1       56       61       62       67
     184      3       57       55       56       59
     185      3       57       55       56       60
     186      2       57       55       56       61
     187      3       58       55       56       59
     188      3       58       55       56       60
     189      2       58       55       56       61
     190      2       59       56       61       62
     191      3       59       56       61       63
     192      3       59       56       61       64
     193      2       60       56       61       62
     194      3       60       56       61       63
     195      3       60       56       61       64
     196      1       61       62       67       68
     197      2       61       62       67       69
     198      2       61       62       67       70
     199      2       62       67       68       71
     200      2       62       67       68       72
     201      1       62       67       68       73
     202      3       63       61       62       65
     203      3       63       61       62       66
     204      2       63       61       62       67
     205      3       64       61       62       65
     206      3       64       61       62       66
     207      2       64       61       62       67
     208      2       65       62       67       68
     209      3       65       62       67       69
     210      3       65       62       67       70
     211      2       66       62       67       68
     212      3       66       62       67       69
     213      3       66       62       67       70
     214      1       67       68       73       74
     215      2       67       68       73       75
     216      2       67       68       73       76
     217      2       68       73       74       77
     218      2       68       73       74       78
     219      1       68       73       74       79
     220      3       69       67       68       71
     221      3       69       67       68       72
     222      2       69       67       68       73
     223      3       70       67       68       71
     224      3       70       67       68       72
     225      2       70       67       68       73
     226      2       71       68       73       74
     227      3       71       68       73       75
     228      3       71       68       73       76
     229      2       72       68       73       74
     230      3       72       68       73       75
     231      3       72       68       73       76
     232      1       73       74       79       80
     233      2       73       74       79       81
     234      2       73       74       79       82
     235      2       74       79       80       83
     236      2       74       79       80       84
     237      1       74       79       80       85
     238      3       75       73       74       77
     239      3       75       73       74       78
     240      2       75       73       74       79
     241      3       76       73       74       77
     242      3       76       73       74       78
     243      2       76       73       74       79
     244      2       77       74       79       80
     245      3       77       74       79       81
     246      3       77       74       79       82
     247      2       78       74       79       80
     248      3       78       74       79       81
     249      3       78       74       79       82
     250      1       79       80       85       86
     251      2       79       80       85       87
     252      2       79       80       85       88
     253      2       80       85       86       89
     254      2       80       85       86       90
     255      1       80       85       86       91
     256      3       81       79       80       83
     257      3       81       79       80       84
     258      2       81       79       80       85
     259      3       82       79       80       83
     260      3       82       79       80       84
     261      2       82       79       80       85
     262      2       83       80       85       86
     263      3       83       80       85       87
     264      3       83       80       85       88
     265      2       84       80       85       86
     266      3       84       80       85       87
     267      3       84       80       85       88
     268      1       85       86       91       92
     269      2       85       86       91       93
     270      2       85       86       91       94
     271      2       86       91       92       95
     272      2       86       91       92       96
     273      1       86       91       92       97
     274      3       87       85       86       89
     275      3       87       85       86       90
     276      2       87       85       86       91
     277      3       88       85       86       89
     278      3       88       85       86       90
     279      2       88       85       86       91
     280      2       89       86       91       92
     281      3       89       86       91       93
     282      3       89       86       91       94
     283      2       90       86       91       92
     284      3       90       86       91       93
     285      3       90       86       91       94
     286      1       91       92       97       98
     287      2       91       92       97       99
     288      2       91       92       97      100
     289      2       92       97       98      101
     290      2       92       97       98      102
     291      1       92       97       98      103
     292      3       93       91       92       95
     293      3       93       91       92       96
     294      2       93       91       92       97
     295      3       94       91       92       95
     296      3       94       91       92       96
     297      2       94       91       92       97
     298      2       95       92       97       98
     299      3       95       92       97       99
     300      3       95       92       97      100
     301      2       96       92       97       98
     302      3       96       92       97       99
     303      3       96       92       97      100
     304      1       97       98      103      104
     305      2       97       98      103      105
     306      2       97       98      103      106
     307      2       98      103      104      107
     308      2       98      103      104      108
     309      1       98      103      104      109
     310      3       99       97       98      101
     311      3       99       97       98      102
     312      2       99       97       98      103
     313      3      100       97       98      101
     314      3      100       97       98      102
     315      2      100       97       98      103
     316      2      101       98      103      104
     317      3      101       98      103      105
     318      3      101       98      103      106
     319      2      102       98      103      104
     320      3      102       98      103      105
     321      3      102       98      103      106
     322      1      103      104      109      110
     323      2      103      104      109      111
     324      2      103      104      109      112
     325      2      104      109      110      113
     326      2      104      109      110      114
     327      1      104      109      110      115
     328      3      105      103      104      107
     329      3      105      103      104      108
     330      2      105      103      104      109
     331      3      106      103      104      107
     332      3      106      103      104      108
     333      2      106      103      104      109
     334      2      107      104      109      110
     335      3      107      104      109      111
     336      3      107      104      109      112
     337      2      108      104      109      110
     338      3      108      104      109      111
     339      3      108      104      109      112
     340      1      109      110      115      116
     341      2      109      110      115      117
     342      2      109      110      115      118
     343      2      110      115      116      119
     344      2      110      115      116      120
     345      1      110      115      116      121
     346      3      111      109      110      113
     347      3      111      109      110      114
     348      2      111      109      110      115
     349      3      112      109      110      113
     350      3      112      109      110      114
     351      2      112      109      110      115
     352      2      113      110      115      116
     353      3      113      110      115      117
     354      3      113      110      115      118
     355      2      114      110      115      116
     356      3      114      110      115      117
     357      3      114      110      115      118
     358      1      115      116      121      122
     359      2      115      116      121      123
     360      2      115      116      121      124
     361      2      116      121      122      125
     362      2      116      121      122      126
     363      1      116      121      122      127
     364      3      117      115      116      119
     365      3      117      115      116      120
     366      2      117      115      116      121
     367      3      118      115      116      119
     368      3      118      115      116      120
     369      2      118      115      116      121
     370      2      119      116      121      122
     371      3      119      116      121      123
     372      3      119      116      121      124
     373      2      120      116      121      122
     374      3      120      116      121      123
     375      3      120      116      121      124
     376      1      121      122      127      128
     377      2      121      122      127      129
     378      2      121      122      127      130
     379      2      122      127      128      131
     380      2      122      127      128      132
     381      1      122      127      128      133
     382      3      123      121      122      125
     383      3      123      121      122      126
     384      2      123      121      122      127
     385      3      124      121      122      125
     386      3      124      121      122      126
     387      2      124      121      122      127
     388      2      125      122      127      128
     389      3      125      122      127      129
     390      3      125      122      127      130
     391      2      126      122      127      128
     392      3      126      122      127      129
     393      3      126      122      127      130
     394      1      127      128      133      134
     395      2      127      128      133      135
     396      2      127      128      133      136
     397      2      128      133      134      137
     398      2      128      133      134      138
     399      1      128      133      134      139
     400      3      129      127      128      131
     401      3      129      127      128      132
     402      2      129      127      128      133
     403      3      130      127      128      131
     404      3      130      127      128      132
     405      2      130      127      128      133
     406      2      131      128      133      134
     407      3      131      128      133      135
     408      3      131      128      133      136
     409      2      132      128      133      134
     410      3      132      128      133      135
     411      3      132      128      133      136
     412      1      133      134      139      140
     413      2      133      134      139      141
     414      2      133      134      139      142
     415      2      134      139      140      143
     416      2      134      139      140      144
     417      1      134      139      140      145
     418      3      135      133      134      137
     419      3      135      133      134      138
     420      2      135      133      134      139
     421      3      136      133      134      137
     422      3      136      133      134      138
     423      2      136      133      134      139
     424      2      137      134      139      140
     425      3      137      134      139      141
     426      3      137      134      139      142
     427      2      138      134      139      140
     428      3      138      134      139      141
     429      3      138      134      139      142
     430      1      139      140      145      146
     431      2      139      140      145      147
     432      2      139      140      145      148
     433      2      140      145      146      149
     434      2      140      145      146      150
     435      1      140      145      146      151
     436      3      141      139      140      143
     437      3      141      139      140      144
     438      2      141      139      140      145
     439      3      142      139      140      143
     440      3      142      139      140      144
     441      2      142      139      140      145
     442      2      143      140      145      146
     443      3      143      140      145      147
     444      3      143      140      145      148
     445      2      144      140      145      146
     446      3      144      140      145      147
     447      3      144      140      145      148
     448      1      145      146      151      152
     449      2      145      146      151      153
     450      2      145      146      151      154
     451      2      146      151      152      155
     452      2      146      151      152      156
     453      1      146      151      152      157
     454      3      147      145      146      149
     455      3      147      145      146      150
     456      2      147      145      146      151
     457      3      148      145      146      149
     458      3      148      145      146      150
     459      2      148      145      146      151
     460      2      149      146      151      152
     461      3      149      146      151      153
     462      3      149      146      151      154
     463      2      150      146      151      152
     464      3      150      146      151      153
     465      3      150      146      151      154
     466      1      151      152      157      158
     467      2      151      152      157      159
     468      2      151      152      157      160
     469      2      152      157      158      161
     470      2      152      157      158      162
     471      1      152      157      158      163
     472      3      153      151      152      155
     473      3      153      151      152      156
     474      2      153      151      152      157
     475      3      154      151      152      155
     476      3      154      151      152      156
     477      2      154      151      152      157
     478      2      155      152      157      158
     479      3      155      152      157      159
     480      3      155      152      157      160
     481      2      156      152      157      158
     482      3      156      152      157      159
     483      3      156      152      157      160
     484      1      157      158      163      164
     485      2      157      158      163      165
     486      2      157      158      163      166
     487      2      158      163      164      167
     488      2      158      163      164      168
     489      1      158      163      164      169
     490      3      159      157      158      161
     491      3      159      157      158      162
     492      2      159      157      158      163
     493      3      160      157      158      161
     494      3      160      157      158      162
     495      2      160      157      158      163
     496      2      161      158      163      164
     497      3      161      158      163      165
     498      3      161      158      163      166
     499      2      162      158      163      164
     500      3      162      158      163      165
     501      3      162      158      163      166
     502      1      163      164      169      170
     503      2      163      164      169      171
     504      2      163      164      169      172
     505      2      164      169      170      173
     506      2      164      169      170      174
     507      1      164      169      170      175
     508      3      165      163      164      167
     509      3      165      163      164      168
     510      2      165      163      164      169
     511      3      166      163      164      167
     512      3      166      163      164      168
     513      2      166      163      164      169
     514      2      167      164      169      170
     515      3      167      164      169      171
     516      3      167      164      169      172
     517      2      168      164      169      170
     518      3      168      164      169      171
     519      3      168      164      169      172
     520      1      169      170      175      176
     521      2      169      170      175      177
     522      2      169      170      175      178
     523      2      170      175      176      179
     524      2      170      175      176      180
     525      1      170      175      176      181
     526      3      171      169      170      173
     527      3      171      169      170      174
     528      2      171      169      170      175
     529      3      172      169      170      173
     530      3      172      169      170      174
     531      2      172      169      170      175
     532      2      173      170      175      176
     533      3      173      170      175      177
     534      3      173      170      175      178
     535      2      174      170      175      176
     536      3      174      170      175      177
     537      3      174      170      175      178
     538      1      175      176      181      182
     539      2      175      176      181      183
     540      2      175      176      181      184
     541      2      176      181      182      185
     542      2      176      181      182      186
     543      1      176      181      182      187
     544      3      177      175      176      179
     545      3      177      175      176      180
     546      2      177      175      176      181
     547      3      178      175      176      179
     548      3      178      175      176      180
     549      2      178      175      176      181
     550      2      179      176      181      182
     551      3      179      176      181      183
     552      3      179      176      181      184
     553      2      180      176      181      182
     554      3      180      176      181      183
     555      3      180      176      181      184
     556      1      181      182      187      188
     557      2      181      182      187      189
     558      2      181      182      187      190
     559      2      182      187      188      191
     560      2      182      187      188      192
     561      1      182      187      188      193
     562      3      183      181      182      185
     563      3      183      181      182      186
     564      2      183      181      182      187
     565      3      184      181      182      185
     566      3      184      181      182      186
     567      2      184      181      182      187
     568      2      185      182      187      188
     569      3      185      182      187      189
     570      3      185      182      187      190
     571      2      186      182      187      188
     572      3      186      182      187      189
     573      3      186      182      187      190
     574      1      187      188      193      194
     575      2      187      188      193      195
     576      2      187      188      193      196
     577      2      188      193      194      197
     578      2      188      193      194      198
     579      1      188      193      194      199
     580      3      189      187      188      191
     581      3      189      187      188      192
     582      2      189      187      188      193
     583      3      190      187      188      191
     584      3      190      187      188      192
     585      2      190      187      188      193
     586      2      191      188      193      194
     587      3      191      188      193      195
     588      3      191      188      193      196
     589      2      192      188      193      194
     590      3      192      188      193      195
     591      3      192      188      193      196
     592      1      193      194      199      200
     593      2      193      194      199      201
     594      2      193      194      199      202
     595      2      194      199      200      203
     596      2      194      199      200      204
     597      1      194      199      200      206
     598      3      195      193      194      197
     599      3      195      193      194      198
     600      2      195      193      194      199
     601      3      196      193      194      197
     602      3      196      193      194      198
     603      2      196      193      194      199
     604      2      197      194      199      200
     605      3      197      194      199      201
     606      3      197      194      199      202
     607      2      198      194      199      200
     608      3      198      194      199      201
     609      3      198      194      199      202
     610      1      199      200      206      205
     611      2      199      200      206      209
     612      2      199      200      206      210
     613      2      200      206      205      207
     614      2      200      206      205      208
     615      3      201      199      200      203
     616      3      201      199      200      204
     617      2      201      199      200      206
     618      3      202      199      200      203
     619      3      202      199      200      204
     620      2      202      199      200      206
     621      2      203      200      206      205
     622      3      203      200      206      209
     623      3      203      200      206      210
     624      2      204      200      206      205
     625      3      204      200      206      209
     626      3      204      200      206      210
     627      3      207      205      206      209
     628      3      207      205      206      210
     629      3      208      205      206      209
     630      3      208      205      206      210

Impropers


