LAMMPS data file generated by clean-room 1-hop pipeline

     243 atoms
     249 bonds
     468 angles
     704 dihedrals
      42 impropers

      10 atom types
      18 bond types
      40 angle types
      63 dihedral types
       6 improper types

  -34.120100    31.751000 xlo xhi
  -28.514600    27.399200 ylo yhi
  -38.125900    32.712300 zlo zhi

Masses

       1    12.011000
       2    12.011000
       3    12.011000
       4    12.011000
       5    12.011000
       6    12.011000
       7    12.011000
       8    12.011000
       9     1.008000
      10     1.008000

Pair Coeffs

       1     0.070000     3.550000
       2     0.070000     3.550000
       3     0.070000     3.550000
       4     0.066000     3.500000
       5     0.066000     3.500000
       6     0.066000     3.500000
       7     0.066000     3.500000
       8     0.066000     3.500000
       9     0.030000     2.420000
      10     0.030000     2.500000

Bond Coeffs

       1   469.000000     1.400000
       2   317.000000     1.510000
       3   469.000000     1.400000
       4   469.000000     1.400000
       5   367.000000     1.080000
       6   385.000000     1.460000
       7   268.000000     1.529000
       8   268.000000     1.529000
       9   268.000000     1.529000
      10   268.000000     1.529000
      11   340.000000     1.090000
      12   268.000000     1.529000
      13   340.000000     1.090000
      14   268.000000     1.529000
      15   268.000000     1.529000
      16   268.000000     1.529000
      17   340.000000     1.090000
      18   340.000000     1.090000

Angle Coeffs

       1    63.000000   120.000000
       2    63.000000   120.000000
       3    35.000000   120.000000
       4    63.000000   114.000000
       5    63.000000   114.000000
       6    63.000000   114.000000
       7    63.000000   114.000000
       8    35.000000   109.500000
       9    63.000000   120.000000
      10    70.000000   120.000000
      11    63.000000   120.000000
      12    63.000000   120.000000
      13    35.000000   120.000000
      14    63.000000   120.000000
      15    63.000000   120.000000
      16    35.000000   120.000000
      17    37.500000   110.700000
      18    58.350000   112.700000
      19    37.500000   110.700000
      20    58.350000   112.700000
      21    37.500000   110.700000
      22    58.350000   112.700000
      23    58.350000   112.700000
      24    37.500000   110.700000
      25    37.500000   110.700000
      26    37.500000   110.700000
      27    58.350000   112.700000
      28    58.350000   112.700000
      29    58.350000   112.700000
      30    37.500000   110.700000
      31    58.350000   112.700000
      32    37.500000   110.700000
      33    58.350000   112.700000
      34    37.500000   110.700000
      35    37.500000   110.700000
      36    37.500000   110.700000
      37    37.500000   110.700000
      38    33.000000   107.800000
      39    33.000000   107.800000
      40    33.000000   107.800000

Dihedral Coeffs

       1     0.000000     7.250000     0.000000     0.000000
       2     0.000000     7.250000     0.000000     0.000000
       3     0.000000     7.250000     0.000000     0.000000
       4     0.000000     7.250000     0.000000     0.000000
       5     0.000000     7.250000     0.000000     0.000000
       6     0.000000     0.000000     0.000000     0.000000
       7     0.000000     0.000000     0.462000     0.000000
       8     0.000000     0.000000     0.000000     0.000000
       9     0.000000     0.000000     0.462000     0.000000
      10     0.000000     0.000000     0.000000     0.000000
      11     0.000000     0.000000     0.462000     0.000000
      12     0.000000     0.000000     0.000000     0.000000
      13     0.000000     7.250000     0.000000     0.000000
      14     0.000000     7.250000     0.000000     0.000000
      15    -0.250000     0.000000     0.000000     0.000000
      16    -0.250000     0.000000     0.000000     0.000000
      17    -0.250000     0.000000     0.000000     0.000000
      18    -0.250000     0.000000     0.000000     0.000000
      19     0.000000     0.000000     0.000000     0.000000
      20     0.000000     7.250000     0.000000     0.000000
      21     0.000000     7.250000     0.000000     0.000000
      22     0.000000     7.250000     0.000000     0.000000
      23     0.000000     7.250000     0.000000     0.000000
      24     0.000000     7.250000     0.000000     0.000000
      25     0.000000     7.250000     0.000000     0.000000
      26     0.000000     7.250000     0.000000     0.000000
      27     0.000000     1.650000     0.000000    -0.050000
      28     0.000000     7.250000     0.000000     0.000000
      29     0.000000     7.250000     0.000000     0.000000
      30     0.000000     7.250000     0.000000     0.000000
      31     0.850000    -0.200000     0.200000     0.000000
      32     0.000000     0.000000     0.300000     0.000000
      33     0.850000    -0.200000     0.200000     0.000000
      34     0.000000     0.000000     0.300000     0.000000
      35     0.850000    -0.200000     0.200000     0.000000
      36     0.000000     0.000000     0.300000     0.000000
      37     0.850000    -0.200000     0.200000     0.000000
      38     0.850000    -0.200000     0.200000     0.000000
      39     0.850000    -0.200000     0.200000     0.000000
      40     0.000000     0.000000     0.300000     0.000000
      41     0.000000     0.000000     0.300000     0.000000
      42     0.000000     0.000000     0.300000     0.000000
      43     0.850000    -0.200000     0.200000     0.000000
      44     0.850000    -0.200000     0.200000     0.000000
      45     0.000000     0.000000     0.300000     0.000000
      46     0.850000    -0.200000     0.200000     0.000000
      47     0.000000     0.000000     0.300000     0.000000
      48     0.850000    -0.200000     0.200000     0.000000
      49     0.000000     0.000000     0.300000     0.000000
      50     0.000000     0.000000     0.300000     0.000000
      51     0.000000     0.000000     0.300000     0.000000
      52     0.000000     0.000000     0.300000     0.000000
      53     0.850000    -0.200000     0.200000     0.000000
      54     0.000000     0.000000     0.300000     0.000000
      55     0.850000    -0.200000     0.200000     0.000000
      56     0.000000     0.000000     0.300000     0.000000
      57     0.000000     7.250000     0.000000     0.000000
      58     0.000000     0.000000     0.300000     0.000000
      59     0.000000     0.000000     0.300000     0.000000
      60     0.000000     0.000000     0.300000     0.000000
      61     0.000000     0.000000     0.300000     0.000000
      62     0.000000     0.000000     0.300000     0.000000
      63     0.000000     0.000000     0.300000     0.000000

Improper Coeffs

       1     2.500000   -1    2
       2     2.500000   -1    2
       3     2.500000   -1    2
       4     2.500000   -1    2
       5     2.500000   -1    2
       6     2.500000   -1    2

Atoms

       1    1      3  -0.04388809     0.248700    -5.315200   -14.166400
       2    1      2  -0.15215073    -0.234100    -4.424300   -15.326200
       3    1      2  -0.15215073    -0.203600    -4.957200   -16.770900
       4    1      2  -0.15215073     0.313200    -6.379600   -17.056700
       5    1      2  -0.15215073     0.803900    -7.267500   -15.897900
       6    1      2  -0.15215073     0.772800    -6.734700   -14.452800
       7    1      9   0.16322445    -0.619200    -3.372400   -15.114400
       8    1      9   0.16322445    -0.565100    -4.299400   -17.629000
       9    1      9   0.16322445     0.333000    -6.774900   -18.125900
      10    1      9   0.16322445     1.188800    -8.319700   -16.109100
      11    1      9   0.16322445     1.133300    -7.392600   -13.594400
      12    1      1  -0.09216309     2.947200    -0.894800    -7.495600
      13    1      2  -0.15215073     2.552400     0.155300    -8.550100
      14    1      2  -0.15215073     2.953500    -0.046100   -10.023700
      15    1      2  -0.15215073     3.739600    -1.303000   -10.443800
      16    1      2  -0.15215073     4.116700    -2.362200    -9.391700
      17    1      2  -0.15215073     3.715200    -2.160700    -7.919600
      18    1      9   0.16322445     1.965300     1.082000    -8.240400
      19    1      9   0.16322445     2.668400     0.734400   -10.804200
      20    1      9   0.16322445     4.039400    -1.450400   -11.534000
      21    1      9   0.16322445     4.692400    -3.295600    -9.703300
      22    1      9   0.16322445     3.986400    -2.949200    -7.142000
      23    1      1  -0.09216309     8.244800    -5.957600     0.249500
      24    1      2  -0.15215073     8.157800    -5.812900     1.779400
      25    1      2  -0.15215073     9.377800    -6.158500     2.654000
      26    1      2  -0.15215073    10.686900    -6.636500     1.997500
      27    1      2  -0.15215073    10.780100    -6.758000     0.465400
      28    1      2  -0.15215073     9.561300    -6.411200    -0.408700
      29    1      9   0.16322445     7.189900    -5.455900     2.264500
      30    1      9   0.16322445     9.311700    -6.061000     3.787800
      31    1      9   0.16322445    11.587600    -6.897100     2.645700
      32    1      9   0.16322445    11.751000    -7.104500    -0.021400
      33    1      9   0.16322445     9.631400    -6.496200    -1.543500
      34    1      3  -0.04388809   -10.392400     3.890800    10.202600
      35    1      2  -0.15215073   -10.487900     5.337600    10.721600
      36    1      2  -0.15215073   -11.655500     5.752700    11.637000
      37    1      2  -0.15215073   -12.726300     4.720300    12.035300
      38    1      2  -0.15215073   -12.629600     3.272700    11.518200
      39    1      2  -0.15215073   -11.463300     2.858200    10.601600
      40    1      9   0.16322445    -9.696200     6.102400    10.424600
      41    1      9   0.16322445   -11.726900     6.824500    12.018500
      42    1      9   0.16322445   -13.590500     5.027500    12.712300
      43    1      9   0.16322445   -13.422600     2.508500    11.812800
      44    1      9   0.16322445   -11.395300     1.788400    10.213500
      45    1      3  -0.04388809     0.187400    -4.793900   -12.718100
      46    1      2  -0.15215073     0.646400    -5.694000   -11.556300
      47    1      2  -0.15215073     0.519800    -5.199400   -10.102800
      48    1      1  -0.09216309    -0.054600    -3.799500    -9.809300
      49    1      2  -0.15215073    -0.482500    -2.887300   -10.974600
      50    1      2  -0.15215073    -0.356100    -3.382500   -12.428700
      51    1      9   0.16322445     1.066000    -6.732100   -11.771100
      52    1      9   0.16322445     0.837700    -5.875500    -9.241800
      53    1      9   0.16322445    -0.906600    -1.851100   -10.760400
      54    1      9   0.16322445    -0.679500    -2.709600   -13.290300
      55    1      1  -0.09216309    -7.144700     2.760800     7.127400
      56    1      2  -0.15215073    -8.089900     1.673800     7.678600
      57    1      2  -0.15215073    -9.156300     2.042000     8.727700
      58    1      3  -0.04388809    -9.241600     3.482900     9.262900
      59    1      2  -0.15215073    -8.183500     4.520100     8.842100
      60    1      2  -0.15215073    -7.117800     4.149100     7.792400
      61    1      9   0.16322445    -8.038300     0.611900     7.267500
      62    1      9   0.16322445    -9.897800     1.255000     9.088800
      63    1      9   0.16322445    -8.204400     5.569100     9.288400
      64    1      9   0.16322445    -6.349400     4.923700     7.462400
      65    1      4  -0.14464017    -0.311900    -3.366400    -8.351300
      66    1      6  -0.19303759     0.959400    -2.784700    -7.704200
      67    1     10   0.09817200    -1.147200    -2.591500    -8.317700
      68    1     10   0.09817200    -0.630600    -4.286800    -7.759100
      69    1     10   0.09817200     1.274000    -1.833000    -8.246900
      70    1     10   0.09817200     1.793000    -3.558500    -7.782000
      71    1      6  -0.19303759     3.717000    -1.223300    -1.986300
      72    1      6  -0.19303759     4.999700    -0.614700    -1.389300
      73    1     10   0.09817200     3.826600    -2.354000    -1.949700
      74    1     10   0.09817200     3.619500    -0.894400    -3.073500
      75    1     10   0.09817200     5.896200    -1.025100    -1.961400
      76    1     10   0.09817200     5.086000    -0.914400    -0.293000
      77    1      6  -0.19303759     5.013000     0.919400    -1.515600
      78    1      6  -0.19303759     6.341300     1.432900    -0.928100
      79    1     10   0.09817200     4.949400     1.207800    -2.617000
      80    1     10   0.09817200     4.132300     1.371000    -0.949500
      81    1     10   0.09817200     7.211000     0.939500    -1.475600
      82    1     10   0.09817200     6.393100     1.169700     0.179900
      83    1      4  -0.14464017     5.948100    -4.806600     0.106800
      84    1      4  -0.14464017     7.030700    -5.617500    -0.632400
      85    1     10   0.09817200     5.552100    -5.393800     1.000100
      86    1     10   0.09817200     6.361800    -3.799300     0.444100
      87    1     10   0.09817200     7.384900    -5.020400    -1.536700
      88    1     10   0.09817200     6.564900    -6.591300    -0.998600
      89    1      7  -0.12678421     1.996700    -2.067500    -5.508200
      90    1      6  -0.19303759     0.694100    -2.500600    -6.210400
      91    1      4  -0.14464017     2.529300    -0.717400    -6.024300
      92    1      6  -0.19303759     1.855200    -2.070500    -3.972200
      93    1     10   0.09817200     2.781000    -2.862200    -5.740000
      94    1     10   0.09817200    -0.114900    -1.707900    -6.080800
      95    1     10   0.09817200     0.347200    -3.475500    -5.731900
      96    1     10   0.09817200     1.735000     0.092600    -5.911900
      97    1     10   0.09817200     3.455800    -0.431900    -5.424400
      98    1     10   0.09817200     1.472000    -3.102500    -3.699200
      99    1     10   0.09817200     2.908500    -1.940000    -3.567800
     100    1      7  -0.12678421     5.568500    -4.929900    -5.422300
     101    1      4  -0.14464017     4.281700    -5.575600    -4.864200
     102    1      6  -0.19303759     5.812800    -5.427400    -6.861400
     103    1      6  -0.19303759     6.769700    -5.256500    -4.516000
     104    1     10   0.09817200     5.436400    -3.798200    -5.462100
     105    1     10   0.09817200     4.410000    -6.708300    -4.844200
     106    1     10   0.09817200     3.403300    -5.306300    -5.539300
     107    1     10   0.09817200     4.893700    -5.153700    -7.477700
     108    1     10   0.09817200     6.721900    -4.894300    -7.295900
     109    1     10   0.09817200     6.829500    -6.381900    -4.360500
     110    1     10   0.09817200     6.636800    -4.752300    -3.503500
     111    1      7  -0.12678421    -3.758100     2.249200     2.011100
     112    1      6  -0.19303759    -2.765200     1.186000     1.465800
     113    1      6  -0.19303759    -2.885200     3.317800     2.718100
     114    1      6  -0.19303759    -4.854600     1.775500     3.005400
     115    1     10   0.09817200    -4.258900     2.734500     1.109400
     116    1     10   0.09817200    -3.267000     0.300500     0.952900
     117    1     10   0.09817200    -2.128700     0.830100     2.342100
     118    1     10   0.09817200    -1.933600     3.492800     2.121400
     119    1     10   0.09817200    -2.581100     2.930100     3.746100
     120    1     10   0.09817200    -5.627400     1.130400     2.470400
     121    1     10   0.09817200    -4.384700     1.191600     3.864200
     122    1      7  -0.12678421   -10.472500     2.972400     5.077900
     123    1      6  -0.19303759    -8.955800     2.874100     5.308700
     124    1      6  -0.19303759   -10.731100     4.237500     4.234300
     125    1      6  -0.19303759   -11.045800     3.060000     6.509400
     126    1     10   0.09817200   -10.871000     2.048600     4.541800
     127    1     10   0.09817200    -8.691500     3.789200     5.927900
     128    1     10   0.09817200    -8.752400     1.948200     5.934500
     129    1     10   0.09817200   -10.249700     5.139600     4.739200
     130    1     10   0.09817200   -10.248900     4.080900     3.213200
     131    1     10   0.09817200   -10.701400     2.135100     7.080100
     132    1     10   0.09817200   -10.615100     3.984400     7.019400
     133    1      8  -0.05331043     1.134800    -1.426100    -1.688800
     134    1      6  -0.19303759     0.915200    -1.131500    -3.195700
     135    1      6  -0.19303759     2.461100    -0.790900    -1.201900
     136    1      4  -0.14464017     1.149500    -2.947300    -1.381900
     137    1      6  -0.19303759     0.041500    -0.776500    -0.799800
     138    1     10   0.09817200    -0.154900    -1.387400    -3.493900
     139    1     10   0.09817200     1.124700    -0.031900    -3.411500
     140    1     10   0.09817200     2.382700     0.341900    -1.294500
     141    1     10   0.09817200     2.598800    -1.061800    -0.103500
     142    1     10   0.09817200     1.047400    -3.042300    -0.250600
     143    1     10   0.09817200     0.246700    -3.447900    -1.865100
     144    1     10   0.09817200    -1.006100    -1.163900    -1.027500
     145    1     10   0.09817200     0.312100    -1.023800     0.279900
     146    1      8  -0.05331043    -0.424000     1.679100     0.133700
     147    1      6  -0.19303759     0.110800     0.750900    -0.983600
     148    1      6  -0.19303759     0.246000     1.206400     1.438200
     149    1      6  -0.19303759     0.097200     3.048900    -0.348200
     150    1      6  -0.19303759    -1.904000     1.991100     0.461500
     151    1     10   0.09817200    -0.329300     1.038300    -1.995400
     152    1     10   0.09817200     1.224100     0.992200    -1.005500
     153    1     10   0.09817200    -0.097200     0.136800     1.633800
     154    1     10   0.09817200     1.378400     1.215400     1.307100
     155    1     10   0.09817200    -0.433700     3.300400    -1.325300
     156    1     10   0.09817200     1.218400     2.977000    -0.541900
     157    1     10   0.09817200    -1.778600     2.978600     1.001000
     158    1     10   0.09817200    -2.493400     2.222800    -0.486200
     159    1      8  -0.05331043    -6.606100     3.195500     4.616600
     160    1      6  -0.19303759    -5.470300     3.072000     3.573800
     161    1      6  -0.19303759    -6.612800     4.734500     4.774900
     162    1      4  -0.14464017    -6.218800     2.457800     5.925800
     163    1      6  -0.19303759    -8.008600     2.807200     4.092800
     164    1     10   0.09817200    -5.789200     3.703400     2.680100
     165    1     10   0.09817200    -4.589000     3.582100     4.083200
     166    1     10   0.09817200    -6.545200     5.161100     3.720000
     167    1     10   0.09817200    -5.681100     5.052100     5.349700
     168    1     10   0.09817200    -6.211200     1.334900     5.730500
     169    1     10   0.09817200    -5.166400     2.786500     6.214800
     170    1     10   0.09817200    -8.038900     1.754700     3.655800
     171    1     10   0.09817200    -8.305300     3.569300     3.298300
     172    1      5  -0.26368896     6.395400     3.281900    -2.612900
     173    1      6  -0.19303759     6.439900     2.958300    -1.108100
     174    1     10   0.09817200     6.468500     4.409600    -2.762900
     175    1     10   0.09817200     7.270400     2.771100    -3.135600
     176    1     10   0.09817200     5.415200     2.900100    -3.052500
     177    1     10   0.09817200     5.567100     3.464900    -0.578000
     178    1     10   0.09817200     7.422900     3.332000    -0.668200
     179    1      5  -0.26368896     7.364300    -7.395500    -6.329900
     180    1      6  -0.19303759     6.036700    -6.949200    -6.973900
     181    1     10   0.09817200     7.502600    -8.514600    -6.497400
     182    1     10   0.09817200     8.227400    -6.831200    -6.816100
     183    1     10   0.09817200     7.363500    -7.189100    -5.211900
     184    1     10   0.09817200     5.161200    -7.502000    -6.496500
     185    1     10   0.09817200     6.088300    -7.214900    -8.081400
     186    1      5  -0.26368896     9.257600    -5.110800    -4.246700
     187    1      6  -0.19303759     8.072700    -4.755400    -5.164300
     188    1     10   0.09817200    10.228700    -4.746300    -4.719500
     189    1     10   0.09817200     9.116400    -4.609500    -3.232600
     190    1     10   0.09817200     9.302900    -6.241400    -4.107600
     191    1     10   0.09817200     8.208700    -5.261700    -6.176900
     192    1     10   0.09817200     8.020600    -3.625700    -5.306400
     193    1      5  -0.26368896     0.504300     1.456400     3.916600
     194    1      6  -0.19303759    -0.157600     2.051500     2.660700
     195    1     10   0.09817200     1.638000     1.484200     3.799300
     196    1     10   0.09817200     0.200600     2.068500     4.829000
     197    1     10   0.09817200     0.162400     0.377200     4.051800
     198    1     10   0.09817200    -1.289600     2.021000     2.784900
     199    1     10   0.09817200     0.183800     3.128800     2.537400
     200    1      5  -0.26368896     0.297800     5.521400     0.041400
     201    1      6  -0.19303759    -0.168400     4.188600     0.654700
     202    1     10   0.09817200    -0.280700     5.718000    -0.921200
     203    1     10   0.09817200     0.103100     6.366300     0.781700
     204    1     10   0.09817200     1.412900     5.466200    -0.188900
     205    1     10   0.09817200     0.414300     4.003700     1.614200
     206    1     10   0.09817200    -1.283200     4.254700     0.884300
     207    1      5  -0.26368896    -2.514500     5.667100     3.479200
     208    1      6  -0.19303759    -3.530100     4.717500     2.818200
     209    1     10   0.09817200    -1.559400     5.693200     2.857200
     210    1     10   0.09817200    -2.958300     6.715300     3.540800
     211    1     10   0.09817200    -2.274400     5.293200     4.529100
     212    1     10   0.09817200    -4.484300     4.722600     3.437500
     213    1     10   0.09817200    -3.766300     5.093000     1.768300
     214    1      5  -0.26368896    -7.701100     6.912800     5.387300
     215    1      6  -0.19303759    -7.875500     5.383200     5.374700
     216    1     10   0.09817200    -7.524900     7.283500     4.323800
     217    1     10   0.09817200    -8.642000     7.399200     5.808700
     218    1     10   0.09817200    -6.806600     7.186800     6.038800
     219    1     10   0.09817200    -8.073300     5.019400     6.432000
     220    1     10   0.09817200    -8.771000     5.110700     4.724200
     221    1      5  -0.26368896   -12.920300     3.265000     3.471400
     222    1      6  -0.19303759   -12.233000     4.517000     4.044500
     223    1     10   0.09817200   -14.032900     3.470900     3.332900
     224    1     10   0.09817200   -12.453000     3.000500     2.465900
     225    1     10   0.09817200   -12.780300     2.397100     4.197700
     226    1     10   0.09817200   -12.701500     4.781900     5.047100
     227    1     10   0.09817200   -12.367000     5.397600     3.332800
     228    1      5  -0.26368896   -12.984100     3.166400     8.077400
     229    1      6  -0.19303759   -12.582900     3.112600     6.590400
     230    1     10   0.09817200   -12.591500     2.239000     8.611900
     231    1     10   0.09817200   -12.534200     4.096400     8.560100
     232    1     10   0.09817200   -14.120100     3.204300     8.165400
     233    1     10   0.09817200   -13.025900     2.181900     6.103900
     234    1     10   0.09817200   -12.981400     4.041500     6.069700
     235    1      1  -0.09216309     2.458000    -3.708300    -1.722600
     236    1      2  -0.15215073     3.546700    -3.861000    -0.637000
     237    1      1  -0.09216309     4.849400    -4.623600    -0.953800
     238    1      2  -0.15215073     5.076500    -5.215100    -2.351700
     239    1      1  -0.09216309     4.001200    -5.067800    -3.435800
     240    1      2  -0.15215073     2.660800    -4.389400    -3.096100
     241    1      9   0.16322445     3.389300    -3.405400     0.396000
     242    1      9   0.16322445     6.051500    -5.756600    -2.587100
     243    1      9   0.16322445     1.830500    -4.359200    -3.876200

Bonds

       1      4        1        2
       2      6        1       45
       3      3        2        3
       4      5        2        7
       5      3        3        4
       6      5        3        8
       7      3        4        5
       8      5        4        9
       9      3        5        6
      10      5        5       10
      11      4        6        1
      12      5        6       11
      13      1       12       13
      14      2       12       91
      15      3       13       14
      16      5       13       18
      17      3       14       15
      18      5       14       19
      19      3       15       16
      20      5       15       20
      21      3       16       17
      22      5       16       21
      23      1       17       12
      24      5       17       22
      25      1       23       24
      26      2       23       84
      27      3       24       25
      28      5       24       29
      29      3       25       26
      30      5       25       30
      31      3       26       27
      32      5       26       31
      33      3       27       28
      34      5       27       32
      35      1       28       23
      36      5       28       33
      37      4       34       35
      38      6       34       58
      39      3       35       36
      40      5       35       40
      41      3       36       37
      42      5       36       41
      43      3       37       38
      44      5       37       42
      45      3       38       39
      46      5       38       43
      47      4       39       34
      48      5       39       44
      49      4       45       46
      50      3       46       47
      51      5       46       51
      52      1       47       48
      53      5       47       52
      54      1       48       49
      55      2       48       65
      56      3       49       50
      57      5       49       53
      58      4       50       45
      59      5       50       54
      60      1       55       56
      61      2       55      162
      62      3       56       57
      63      5       56       61
      64      4       57       58
      65      5       57       62
      66      4       58       59
      67      3       59       60
      68      5       59       63
      69      1       60       55
      70      5       60       64
      71      8       65       66
      72     11       65       67
      73     11       65       68
      74     17       66       69
      75     17       66       70
      76     14       66       90
      77     14       71       72
      78     17       71       73
      79     17       71       74
      80     14       71      135
      81     17       72       75
      82     17       72       76
      83     14       72       77
      84     14       77       78
      85     17       77       79
      86     17       77       80
      87     17       78       81
      88     17       78       82
      89     14       78      173
      90      7       83       84
      91     11       83       85
      92     11       83       86
      93      2       83      237
      94     11       84       87
      95     11       84       88
      96     15       89       90
      97      9       89       91
      98     15       89       92
      99     18       89       93
     100     17       90       94
     101     17       90       95
     102     11       91       96
     103     11       91       97
     104     17       92       98
     105     17       92       99
     106     14       92      134
     107      9      100      101
     108     15      100      102
     109     15      100      103
     110     18      100      104
     111     11      101      105
     112     11      101      106
     113      2      101      239
     114     17      102      107
     115     17      102      108
     116     14      102      180
     117     17      103      109
     118     17      103      110
     119     14      103      187
     120     15      111      112
     121     15      111      113
     122     15      111      114
     123     18      111      115
     124     17      112      116
     125     17      112      117
     126     14      112      150
     127     17      113      118
     128     17      113      119
     129     14      113      208
     130     17      114      120
     131     17      114      121
     132     14      114      160
     133     15      122      123
     134     15      122      124
     135     15      122      125
     136     18      122      126
     137     17      123      127
     138     17      123      128
     139     14      123      163
     140     17      124      129
     141     17      124      130
     142     14      124      222
     143     17      125      131
     144     17      125      132
     145     14      125      229
     146     16      133      134
     147     16      133      135
     148     10      133      136
     149     16      133      137
     150     17      134      138
     151     17      134      139
     152     17      135      140
     153     17      135      141
     154     11      136      142
     155     11      136      143
     156      2      136      235
     157     17      137      144
     158     17      137      145
     159     14      137      147
     160     16      146      147
     161     16      146      148
     162     16      146      149
     163     16      146      150
     164     17      147      151
     165     17      147      152
     166     17      148      153
     167     17      148      154
     168     14      148      194
     169     17      149      155
     170     17      149      156
     171     14      149      201
     172     17      150      157
     173     17      150      158
     174     16      159      160
     175     16      159      161
     176     10      159      162
     177     16      159      163
     178     17      160      164
     179     17      160      165
     180     17      161      166
     181     17      161      167
     182     14      161      215
     183     11      162      168
     184     11      162      169
     185     17      163      170
     186     17      163      171
     187     12      172      173
     188     13      172      174
     189     13      172      175
     190     13      172      176
     191     17      173      177
     192     17      173      178
     193     12      179      180
     194     13      179      181
     195     13      179      182
     196     13      179      183
     197     17      180      184
     198     17      180      185
     199     12      186      187
     200     13      186      188
     201     13      186      189
     202     13      186      190
     203     17      187      191
     204     17      187      192
     205     12      193      194
     206     13      193      195
     207     13      193      196
     208     13      193      197
     209     17      194      198
     210     17      194      199
     211     12      200      201
     212     13      200      202
     213     13      200      203
     214     13      200      204
     215     17      201      205
     216     17      201      206
     217     12      207      208
     218     13      207      209
     219     13      207      210
     220     13      207      211
     221     17      208      212
     222     17      208      213
     223     12      214      215
     224     13      214      216
     225     13      214      217
     226     13      214      218
     227     17      215      219
     228     17      215      220
     229     12      221      222
     230     13      221      223
     231     13      221      224
     232     13      221      225
     233     17      222      226
     234     17      222      227
     235     12      228      229
     236     13      228      230
     237     13      228      231
     238     13      228      232
     239     17      229      233
     240     17      229      234
     241      1      235      236
     242      1      236      237
     243      5      236      241
     244      1      237      238
     245      1      238      239
     246      5      238      242
     247      1      239      240
     248      1      240      235
     249      5      240      243

Angles

       1     12        1        2        3
       2     16        1        2        7
       3     12        1        6        5
       4     16        1        6       11
       5     15        1       45       46
       6     15        1       45       50
       7     14        2        1        6
       8     15        2        1       45
       9     11        2        3        4
      10     13        2        3        8
      11     13        3        2        7
      12     11        3        4        5
      13     13        3        4        9
      14     13        4        3        8
      15     11        4        5        6
      16     13        4        5       10
      17     13        5        4        9
      18     13        5        6       11
      19     15        6        1       45
      20     13        6        5       10
      21      2       12       13       14
      22      3       12       13       18
      23      2       12       17       16
      24      3       12       17       22
      25      6       12       91       89
      26      8       12       91       96
      27      8       12       91       97
      28      9       13       12       17
      29     10       13       12       91
      30     11       13       14       15
      31     13       13       14       19
      32     13       14       13       18
      33     11       14       15       16
      34     13       14       15       20
      35     13       15       14       19
      36     11       15       16       17
      37     13       15       16       21
      38     13       16       15       20
      39     13       16       17       22
      40     10       17       12       91
      41     13       17       16       21
      42      2       23       24       25
      43      3       23       24       29
      44      2       23       28       27
      45      3       23       28       33
      46      4       23       84       83
      47      8       23       84       87
      48      8       23       84       88
      49      9       24       23       28
      50     10       24       23       84
      51     11       24       25       26
      52     13       24       25       30
      53     13       25       24       29
      54     11       25       26       27
      55     13       25       26       31
      56     13       26       25       30
      57     11       26       27       28
      58     13       26       27       32
      59     13       27       26       31
      60     13       27       28       33
      61     10       28       23       84
      62     13       28       27       32
      63     12       34       35       36
      64     16       34       35       40
      65     12       34       39       38
      66     16       34       39       44
      67     15       34       58       57
      68     15       34       58       59
      69     14       35       34       39
      70     15       35       34       58
      71     11       35       36       37
      72     13       35       36       41
      73     13       36       35       40
      74     11       36       37       38
      75     13       36       37       42
      76     13       37       36       41
      77     11       37       38       39
      78     13       37       38       43
      79     13       38       37       42
      80     13       38       39       44
      81     15       39       34       58
      82     13       39       38       43
      83     12       45       46       47
      84     16       45       46       51
      85     12       45       50       49
      86     16       45       50       54
      87     14       46       45       50
      88      2       46       47       48
      89     13       46       47       52
      90     13       47       46       51
      91      9       47       48       49
      92     10       47       48       65
      93      3       48       47       52
      94      2       48       49       50
      95      3       48       49       53
      96      5       48       65       66
      97      8       48       65       67
      98      8       48       65       68
      99     10       49       48       65
     100     13       49       50       54
     101     13       50       49       53
     102      2       55       56       57
     103      3       55       56       61
     104      2       55       60       59
     105      3       55       60       64
     106      7       55      162      159
     107      8       55      162      168
     108      8       55      162      169
     109      9       56       55       60
     110     10       56       55      162
     111     12       56       57       58
     112     13       56       57       62
     113     13       57       56       61
     114     14       57       58       59
     115     16       58       57       62
     116     12       58       59       60
     117     16       58       59       63
     118     13       59       60       64
     119     10       60       55      162
     120     13       60       59       63
     121     19       65       66       69
     122     19       65       66       70
     123     18       65       66       90
     124     25       66       65       67
     125     25       66       65       68
     126     28       66       90       89
     127     30       66       90       94
     128     30       66       90       95
     129     38       67       65       68
     130     40       69       66       70
     131     30       69       66       90
     132     30       70       66       90
     133     30       71       72       75
     134     30       71       72       76
     135     27       71       72       77
     136     29       71      135      133
     137     30       71      135      140
     138     30       71      135      141
     139     30       72       71       73
     140     30       72       71       74
     141     27       72       71      135
     142     27       72       77       78
     143     30       72       77       79
     144     30       72       77       80
     145     40       73       71       74
     146     30       73       71      135
     147     30       74       71      135
     148     40       75       72       76
     149     30       75       72       77
     150     30       76       72       77
     151     30       77       78       81
     152     30       77       78       82
     153     27       77       78      173
     154     30       78       77       79
     155     30       78       77       80
     156     23       78      173      172
     157     30       78      173      177
     158     30       78      173      178
     159     40       79       77       80
     160     40       81       78       82
     161     30       81       78      173
     162     30       82       78      173
     163     17       83       84       87
     164     17       83       84       88
     165     10       83      237      236
     166     10       83      237      238
     167     17       84       83       85
     168     17       84       83       86
     169      4       84       83      237
     170     38       85       83       86
     171      8       85       83      237
     172      8       86       83      237
     173     38       87       84       88
     174     35       89       90       94
     175     35       89       90       95
     176     34       89       91       96
     177     34       89       91       97
     178     35       89       92       98
     179     35       89       92       99
     180     28       89       92      134
     181     20       90       89       91
     182     31       90       89       92
     183     32       90       89       93
     184     20       91       89       92
     185     21       91       89       93
     186     32       92       89       93
     187     29       92      134      133
     188     30       92      134      138
     189     30       92      134      139
     190     40       94       90       95
     191     38       96       91       97
     192     40       98       92       99
     193     30       98       92      134
     194     30       99       92      134
     195     34      100      101      105
     196     34      100      101      106
     197      6      100      101      239
     198     35      100      102      107
     199     35      100      102      108
     200     28      100      102      180
     201     35      100      103      109
     202     35      100      103      110
     203     28      100      103      187
     204     20      101      100      102
     205     20      101      100      103
     206     21      101      100      104
     207     10      101      239      238
     208     10      101      239      240
     209     31      102      100      103
     210     32      102      100      104
     211     23      102      180      179
     212     30      102      180      184
     213     30      102      180      185
     214     32      103      100      104
     215     23      103      187      186
     216     30      103      187      191
     217     30      103      187      192
     218     38      105      101      106
     219      8      105      101      239
     220      8      106      101      239
     221     40      107      102      108
     222     30      107      102      180
     223     30      108      102      180
     224     40      109      103      110
     225     30      109      103      187
     226     30      110      103      187
     227     35      111      112      116
     228     35      111      112      117
     229     28      111      112      150
     230     35      111      113      118
     231     35      111      113      119
     232     28      111      113      208
     233     35      111      114      120
     234     35      111      114      121
     235     28      111      114      160
     236     31      112      111      113
     237     31      112      111      114
     238     32      112      111      115
     239     29      112      150      146
     240     30      112      150      157
     241     30      112      150      158
     242     31      113      111      114
     243     32      113      111      115
     244     23      113      208      207
     245     30      113      208      212
     246     30      113      208      213
     247     32      114      111      115
     248     29      114      160      159
     249     30      114      160      164
     250     30      114      160      165
     251     40      116      112      117
     252     30      116      112      150
     253     30      117      112      150
     254     40      118      113      119
     255     30      118      113      208
     256     30      119      113      208
     257     40      120      114      121
     258     30      120      114      160
     259     30      121      114      160
     260     35      122      123      127
     261     35      122      123      128
     262     28      122      123      163
     263     35      122      124      129
     264     35      122      124      130
     265     28      122      124      222
     266     35      122      125      131
     267     35      122      125      132
     268     28      122      125      229
     269     31      123      122      124
     270     31      123      122      125
     271     32      123      122      126
     272     29      123      163      159
     273     30      123      163      170
     274     30      123      163      171
     275     31      124      122      125
     276     32      124      122      126
     277     23      124      222      221
     278     30      124      222      226
     279     30      124      222      227
     280     32      125      122      126
     281     23      125      229      228
     282     30      125      229      233
     283     30      125      229      234
     284     40      127      123      128
     285     30      127      123      163
     286     30      128      123      163
     287     40      129      124      130
     288     30      129      124      222
     289     30      130      124      222
     290     40      131      125      132
     291     30      131      125      229
     292     30      132      125      229
     293     37      133      134      138
     294     37      133      134      139
     295     37      133      135      140
     296     37      133      135      141
     297     36      133      136      142
     298     36      133      136      143
     299      7      133      136      235
     300     37      133      137      144
     301     37      133      137      145
     302     29      133      137      147
     303     33      134      133      135
     304     22      134      133      136
     305     33      134      133      137
     306     22      135      133      136
     307     33      135      133      137
     308     22      136      133      137
     309     10      136      235      236
     310     10      136      235      240
     311     29      137      147      146
     312     30      137      147      151
     313     30      137      147      152
     314     40      138      134      139
     315     40      140      135      141
     316     38      142      136      143
     317      8      142      136      235
     318      8      143      136      235
     319     40      144      137      145
     320     30      144      137      147
     321     30      145      137      147
     322     37      146      147      151
     323     37      146      147      152
     324     37      146      148      153
     325     37      146      148      154
     326     29      146      148      194
     327     37      146      149      155
     328     37      146      149      156
     329     29      146      149      201
     330     37      146      150      157
     331     37      146      150      158
     332     33      147      146      148
     333     33      147      146      149
     334     33      147      146      150
     335     33      148      146      149
     336     33      148      146      150
     337     23      148      194      193
     338     30      148      194      198
     339     30      148      194      199
     340     33      149      146      150
     341     23      149      201      200
     342     30      149      201      205
     343     30      149      201      206
     344     40      151      147      152
     345     40      153      148      154
     346     30      153      148      194
     347     30      154      148      194
     348     40      155      149      156
     349     30      155      149      201
     350     30      156      149      201
     351     40      157      150      158
     352     37      159      160      164
     353     37      159      160      165
     354     37      159      161      166
     355     37      159      161      167
     356     29      159      161      215
     357     36      159      162      168
     358     36      159      162      169
     359     37      159      163      170
     360     37      159      163      171
     361     33      160      159      161
     362     22      160      159      162
     363     33      160      159      163
     364     22      161      159      162
     365     33      161      159      163
     366     23      161      215      214
     367     30      161      215      219
     368     30      161      215      220
     369     22      162      159      163
     370     40      164      160      165
     371     40      166      161      167
     372     30      166      161      215
     373     30      167      161      215
     374     38      168      162      169
     375     40      170      163      171
     376     24      172      173      177
     377     24      172      173      178
     378     26      173      172      174
     379     26      173      172      175
     380     26      173      172      176
     381     39      174      172      175
     382     39      174      172      176
     383     39      175      172      176
     384     40      177      173      178
     385     24      179      180      184
     386     24      179      180      185
     387     26      180      179      181
     388     26      180      179      182
     389     26      180      179      183
     390     39      181      179      182
     391     39      181      179      183
     392     39      182      179      183
     393     40      184      180      185
     394     24      186      187      191
     395     24      186      187      192
     396     26      187      186      188
     397     26      187      186      189
     398     26      187      186      190
     399     39      188      186      189
     400     39      188      186      190
     401     39      189      186      190
     402     40      191      187      192
     403     24      193      194      198
     404     24      193      194      199
     405     26      194      193      195
     406     26      194      193      196
     407     26      194      193      197
     408     39      195      193      196
     409     39      195      193      197
     410     39      196      193      197
     411     40      198      194      199
     412     24      200      201      205
     413     24      200      201      206
     414     26      201      200      202
     415     26      201      200      203
     416     26      201      200      204
     417     39      202      200      203
     418     39      202      200      204
     419     39      203      200      204
     420     40      205      201      206
     421     24      207      208      212
     422     24      207      208      213
     423     26      208      207      209
     424     26      208      207      210
     425     26      208      207      211
     426     39      209      207      210
     427     39      209      207      211
     428     39      210      207      211
     429     40      212      208      213
     430     24      214      215      219
     431     24      214      215      220
     432     26      215      214      216
     433     26      215      214      217
     434     26      215      214      218
     435     39      216      214      217
     436     39      216      214      218
     437     39      217      214      218
     438     40      219      215      220
     439     24      221      222      226
     440     24      221      222      227
     441     26      222      221      223
     442     26      222      221      224
     443     26      222      221      225
     444     39      223      221      224
     445     39      223      221      225
     446     39      224      221      225
     447     40      226      222      227
     448     24      228      229      233
     449     24      228      229      234
     450     26      229      228      230
     451     26      229      228      231
     452     26      229      228      232
     453     39      230      228      231
     454     39      230      228      232
     455     39      231      228      232
     456     40      233      229      234
     457      1      235      236      237
     458      3      235      236      241
     459      1      235      240      239
     460      3      235      240      243
     461      9      236      235      240
     462      9      236      237      238
     463      3      237      236      241
     464      1      237      238      239
     465      3      237      238      242
     466      9      238      239      240
     467      3      239      238      242
     468      3      239      240      243

Dihedrals

       1     22        1        2        3        4
       2     28        1        2        3        8
       3     22        1        6        5        4
       4     28        1        6        5       10
       5     25        1       45       46       47
       6     29        1       45       46       51
       7     25        1       45       50       49
       8     29        1       45       50       54
       9     24        2        1        6        5
      10     26        2        1        6       11
      11     27        2        1       45       46
      12     27        2        1       45       50
      13     21        2        3        4        5
      14     23        2        3        4        9
      15     24        3        2        1        6
      16     25        3        2        1       45
      17     21        3        4        5        6
      18     23        3        4        5       10
      19     23        4        3        2        7
      20     23        4        5        6       11
      21     23        5        4        3        8
      22     25        5        6        1       45
      23     26        6        1        2        7
      24     27        6        1       45       46
      25     27        6        1       45       50
      26     23        6        5        4        9
      27     29        7        2        1       45
      28     57        7        2        3        8
      29     57        8        3        4        9
      30     57        9        4        5       10
      31     57       10        5        6       11
      32     29       11        6        1       45
      33      3       12       13       14       15
      34      5       12       13       14       19
      35      3       12       17       16       15
      36      5       12       17       16       21
      37     10       12       91       89       90
      38     10       12       91       89       92
      39     11       12       91       89       93
      40     13       13       12       17       16
      41     14       13       12       17       22
      42     17       13       12       91       89
      43     19       13       12       91       96
      44     19       13       12       91       97
      45     21       13       14       15       16
      46     23       13       14       15       20
      47     13       14       13       12       17
      48     20       14       13       12       91
      49     21       14       15       16       17
      50     23       14       15       16       21
      51     23       15       14       13       18
      52     23       15       16       17       22
      53     23       16       15       14       19
      54     20       16       17       12       91
      55     14       17       12       13       18
      56     17       17       12       91       89
      57     19       17       12       91       96
      58     19       17       12       91       97
      59     23       17       16       15       20
      60     30       18       13       12       91
      61     57       18       13       14       19
      62     57       19       14       15       20
      63     57       20       15       16       21
      64     57       21       16       17       22
      65     30       22       17       12       91
      66      3       23       24       25       26
      67      5       23       24       25       30
      68      3       23       28       27       26
      69      5       23       28       27       32
      70      7       23       84       83       85
      71      7       23       84       83       86
      72      6       23       84       83      237
      73     13       24       23       28       27
      74     14       24       23       28       33
      75     15       24       23       84       83
      76     19       24       23       84       87
      77     19       24       23       84       88
      78     21       24       25       26       27
      79     23       24       25       26       31
      80     13       25       24       23       28
      81     20       25       24       23       84
      82     21       25       26       27       28
      83     23       25       26       27       32
      84     23       26       25       24       29
      85     23       26       27       28       33
      86     23       27       26       25       30
      87     20       27       28       23       84
      88     14       28       23       24       29
      89     15       28       23       84       83
      90     19       28       23       84       87
      91     19       28       23       84       88
      92     23       28       27       26       31
      93     30       29       24       23       84
      94     57       29       24       25       30
      95     57       30       25       26       31
      96     57       31       26       27       32
      97     57       32       27       28       33
      98     30       33       28       23       84
      99     22       34       35       36       37
     100     28       34       35       36       41
     101     22       34       39       38       37
     102     28       34       39       38       43
     103     25       34       58       57       56
     104     29       34       58       57       62
     105     25       34       58       59       60
     106     29       34       58       59       63
     107     24       35       34       39       38
     108     26       35       34       39       44
     109     27       35       34       58       57
     110     27       35       34       58       59
     111     21       35       36       37       38
     112     23       35       36       37       42
     113     24       36       35       34       39
     114     25       36       35       34       58
     115     21       36       37       38       39
     116     23       36       37       38       43
     117     23       37       36       35       40
     118     23       37       38       39       44
     119     23       38       37       36       41
     120     25       38       39       34       58
     121     26       39       34       35       40
     122     27       39       34       58       57
     123     27       39       34       58       59
     124     23       39       38       37       42
     125     29       40       35       34       58
     126     57       40       35       36       41
     127     57       41       36       37       42
     128     57       42       37       38       43
     129     57       43       38       39       44
     130     29       44       39       34       58
     131      4       45       46       47       48
     132     28       45       46       47       52
     133      4       45       50       49       48
     134     28       45       50       49       53
     135     24       46       45       50       49
     136     26       46       45       50       54
     137     13       46       47       48       49
     138     20       46       47       48       65
     139     24       47       46       45       50
     140     13       47       48       49       50
     141     14       47       48       49       53
     142     16       47       48       65       66
     143     19       47       48       65       67
     144     19       47       48       65       68
     145      5       48       47       46       51
     146      5       48       49       50       54
     147      9       48       65       66       69
     148      9       48       65       66       70
     149      8       48       65       66       90
     150     14       49       48       47       52
     151     16       49       48       65       66
     152     19       49       48       65       67
     153     19       49       48       65       68
     154     26       50       45       46       51
     155     20       50       49       48       65
     156     57       51       46       47       52
     157     30       52       47       48       65
     158     30       53       49       48       65
     159     57       53       49       50       54
     160      4       55       56       57       58
     161      5       55       56       57       62
     162      4       55       60       59       58
     163      5       55       60       59       63
     164     12       55      162      159      160
     165     12       55      162      159      161
     166     12       55      162      159      163
     167     13       56       55       60       59
     168     14       56       55       60       64
     169     18       56       55      162      159
     170     19       56       55      162      168
     171     19       56       55      162      169
     172     24       56       57       58       59
     173     13       57       56       55       60
     174     20       57       56       55      162
     175     24       57       58       59       60
     176     26       57       58       59       63
     177     28       58       57       56       61
     178     28       58       59       60       64
     179     26       59       58       57       62
     180     20       59       60       55      162
     181     14       60       55       56       61
     182     18       60       55      162      159
     183     19       60       55      162      168
     184     19       60       55      162      169
     185     30       61       56       55      162
     186     57       61       56       57       62
     187     57       63       59       60       64
     188     30       64       60       55      162
     189     31       65       66       90       89
     190     32       65       66       90       94
     191     32       65       66       90       95
     192     33       66       90       89       91
     193     46       66       90       89       92
     194     47       66       90       89       93
     195     59       67       65       66       69
     196     59       67       65       66       70
     197     41       67       65       66       90
     198     59       68       65       66       69
     199     59       68       65       66       70
     200     41       68       65       66       90
     201     54       69       66       90       89
     202     62       69       66       90       94
     203     62       69       66       90       95
     204     54       70       66       90       89
     205     62       70       66       90       94
     206     62       70       66       90       95
     207     43       71       72       77       78
     208     45       71       72       77       79
     209     45       71       72       77       80
     210     48       71      135      133      134
     211     35       71      135      133      136
     212     48       71      135      133      137
     213     44       72       71      135      133
     214     45       72       71      135      140
     215     45       72       71      135      141
     216     45       72       77       78       81
     217     45       72       77       78       82
     218     43       72       77       78      173
     219     62       73       71       72       75
     220     62       73       71       72       76
     221     45       73       71       72       77
     222     56       73       71      135      133
     223     62       73       71      135      140
     224     62       73       71      135      141
     225     62       74       71       72       75
     226     62       74       71       72       76
     227     45       74       71       72       77
     228     56       74       71      135      133
     229     62       74       71      135      140
     230     62       74       71      135      141
     231     45       75       72       71      135
     232     45       75       72       77       78
     233     62       75       72       77       79
     234     62       75       72       77       80
     235     45       76       72       71      135
     236     45       76       72       77       78
     237     62       76       72       77       79
     238     62       76       72       77       80
     239     43       77       72       71      135
     240     37       77       78      173      172
     241     45       77       78      173      177
     242     45       77       78      173      178
     243     42       78      173      172      174
     244     42       78      173      172      175
     245     42       78      173      172      176
     246     62       79       77       78       81
     247     62       79       77       78       82
     248     45       79       77       78      173
     249     62       80       77       78       81
     250     62       80       77       78       82
     251     45       80       77       78      173
     252     40       81       78      173      172
     253     62       81       78      173      177
     254     62       81       78      173      178
     255     40       82       78      173      172
     256     62       82       78      173      177
     257     62       82       78      173      178
     258      2       83      237      236      235
     259     30       83      237      236      241
     260      2       83      237      238      239
     261     30       83      237      238      242
     262     15       84       83      237      236
     263     15       84       83      237      238
     264     58       85       83       84       87
     265     58       85       83       84       88
     266     19       85       83      237      236
     267     19       85       83      237      238
     268     58       86       83       84       87
     269     58       86       83       84       88
     270     19       86       83      237      236
     271     19       86       83      237      238
     272      7       87       84       83      237
     273      7       88       84       83      237
     274     53       89       92      134      133
     275     54       89       92      134      138
     276     54       89       92      134      139
     277     49       90       89       91       96
     278     49       90       89       91       97
     279     50       90       89       92       98
     280     50       90       89       92       99
     281     46       90       89       92      134
     282     34       91       89       90       94
     283     34       91       89       90       95
     284     34       91       89       92       98
     285     34       91       89       92       99
     286     33       91       89       92      134
     287     50       92       89       90       94
     288     50       92       89       90       95
     289     49       92       89       91       96
     290     49       92       89       91       97
     291     48       92      134      133      135
     292     35       92      134      133      136
     293     48       92      134      133      137
     294     63       93       89       90       94
     295     63       93       89       90       95
     296     60       93       89       91       96
     297     60       93       89       91       97
     298     63       93       89       92       98
     299     63       93       89       92       99
     300     47       93       89       92      134
     301     56       98       92      134      133
     302     62       98       92      134      138
     303     62       98       92      134      139
     304     56       99       92      134      133
     305     62       99       92      134      138
     306     62       99       92      134      139
     307     17      100      101      239      238
     308     17      100      101      239      240
     309     38      100      102      180      179
     310     54      100      102      180      184
     311     54      100      102      180      185
     312     38      100      103      187      186
     313     54      100      103      187      191
     314     54      100      103      187      192
     315     34      101      100      102      107
     316     34      101      100      102      108
     317     33      101      100      102      180
     318     34      101      100      103      109
     319     34      101      100      103      110
     320     33      101      100      103      187
     321      2      101      239      238      237
     322     30      101      239      238      242
     323      2      101      239      240      235
     324     30      101      239      240      243
     325     49      102      100      101      105
     326     49      102      100      101      106
     327     10      102      100      101      239
     328     50      102      100      103      109
     329     50      102      100      103      110
     330     46      102      100      103      187
     331     42      102      180      179      181
     332     42      102      180      179      182
     333     42      102      180      179      183
     334     49      103      100      101      105
     335     49      103      100      101      106
     336     10      103      100      101      239
     337     50      103      100      102      107
     338     50      103      100      102      108
     339     46      103      100      102      180
     340     42      103      187      186      188
     341     42      103      187      186      189
     342     42      103      187      186      190
     343     60      104      100      101      105
     344     60      104      100      101      106
     345     11      104      100      101      239
     346     63      104      100      102      107
     347     63      104      100      102      108
     348     47      104      100      102      180
     349     63      104      100      103      109
     350     63      104      100      103      110
     351     47      104      100      103      187
     352     19      105      101      239      238
     353     19      105      101      239      240
     354     19      106      101      239      238
     355     19      106      101      239      240
     356     40      107      102      180      179
     357     62      107      102      180      184
     358     62      107      102      180      185
     359     40      108      102      180      179
     360     62      108      102      180      184
     361     62      108      102      180      185
     362     40      109      103      187      186
     363     62      109      103      187      191
     364     62      109      103      187      192
     365     40      110      103      187      186
     366     62      110      103      187      191
     367     62      110      103      187      192
     368     53      111      112      150      146
     369     54      111      112      150      157
     370     54      111      112      150      158
     371     38      111      113      208      207
     372     54      111      113      208      212
     373     54      111      113      208      213
     374     53      111      114      160      159
     375     54      111      114      160      164
     376     54      111      114      160      165
     377     50      112      111      113      118
     378     50      112      111      113      119
     379     46      112      111      113      208
     380     50      112      111      114      120
     381     50      112      111      114      121
     382     46      112      111      114      160
     383     48      112      150      146      147
     384     48      112      150      146      148
     385     48      112      150      146      149
     386     50      113      111      112      116
     387     50      113      111      112      117
     388     46      113      111      112      150
     389     50      113      111      114      120
     390     50      113      111      114      121
     391     46      113      111      114      160
     392     42      113      208      207      209
     393     42      113      208      207      210
     394     42      113      208      207      211
     395     50      114      111      112      116
     396     50      114      111      112      117
     397     46      114      111      112      150
     398     50      114      111      113      118
     399     50      114      111      113      119
     400     46      114      111      113      208
     401     48      114      160      159      161
     402     35      114      160      159      162
     403     48      114      160      159      163
     404     63      115      111      112      116
     405     63      115      111      112      117
     406     47      115      111      112      150
     407     63      115      111      113      118
     408     63      115      111      113      119
     409     47      115      111      113      208
     410     63      115      111      114      120
     411     63      115      111      114      121
     412     47      115      111      114      160
     413     56      116      112      150      146
     414     62      116      112      150      157
     415     62      116      112      150      158
     416     56      117      112      150      146
     417     62      117      112      150      157
     418     62      117      112      150      158
     419     40      118      113      208      207
     420     62      118      113      208      212
     421     62      118      113      208      213
     422     40      119      113      208      207
     423     62      119      113      208      212
     424     62      119      113      208      213
     425     56      120      114      160      159
     426     62      120      114      160      164
     427     62      120      114      160      165
     428     56      121      114      160      159
     429     62      121      114      160      164
     430     62      121      114      160      165
     431     53      122      123      163      159
     432     54      122      123      163      170
     433     54      122      123      163      171
     434     38      122      124      222      221
     435     54      122      124      222      226
     436     54      122      124      222      227
     437     38      122      125      229      228
     438     54      122      125      229      233
     439     54      122      125      229      234
     440     50      123      122      124      129
     441     50      123      122      124      130
     442     46      123      122      124      222
     443     50      123      122      125      131
     444     50      123      122      125      132
     445     46      123      122      125      229
     446     48      123      163      159      160
     447     48      123      163      159      161
     448     35      123      163      159      162
     449     50      124      122      123      127
     450     50      124      122      123      128
     451     46      124      122      123      163
     452     50      124      122      125      131
     453     50      124      122      125      132
     454     46      124      122      125      229
     455     42      124      222      221      223
     456     42      124      222      221      224
     457     42      124      222      221      225
     458     50      125      122      123      127
     459     50      125      122      123      128
     460     46      125      122      123      163
     461     50      125      122      124      129
     462     50      125      122      124      130
     463     46      125      122      124      222
     464     42      125      229      228      230
     465     42      125      229      228      231
     466     42      125      229      228      232
     467     63      126      122      123      127
     468     63      126      122      123      128
     469     47      126      122      123      163
     470     63      126      122      124      129
     471     63      126      122      124      130
     472     47      126      122      124      222
     473     63      126      122      125      131
     474     63      126      122      125      132
     475     47      126      122      125      229
     476     56      127      123      163      159
     477     62      127      123      163      170
     478     62      127      123      163      171
     479     56      128      123      163      159
     480     62      128      123      163      170
     481     62      128      123      163      171
     482     40      129      124      222      221
     483     62      129      124      222      226
     484     62      129      124      222      227
     485     40      130      124      222      221
     486     62      130      124      222      226
     487     62      130      124      222      227
     488     40      131      125      229      228
     489     62      131      125      229      233
     490     62      131      125      229      234
     491     40      132      125      229      228
     492     62      132      125      229      233
     493     62      132      125      229      234
     494     18      133      136      235      236
     495     18      133      136      235      240
     496     55      133      137      147      146
     497     56      133      137      147      151
     498     56      133      137      147      152
     499     52      134      133      135      140
     500     52      134      133      135      141
     501     51      134      133      136      142
     502     51      134      133      136      143
     503     12      134      133      136      235
     504     52      134      133      137      144
     505     52      134      133      137      145
     506     48      134      133      137      147
     507     52      135      133      134      138
     508     52      135      133      134      139
     509     51      135      133      136      142
     510     51      135      133      136      143
     511     12      135      133      136      235
     512     52      135      133      137      144
     513     52      135      133      137      145
     514     48      135      133      137      147
     515     36      136      133      134      138
     516     36      136      133      134      139
     517     36      136      133      135      140
     518     36      136      133      135      141
     519     36      136      133      137      144
     520     36      136      133      137      145
     521     35      136      133      137      147
     522      2      136      235      236      237
     523     30      136      235      236      241
     524      2      136      235      240      239
     525     30      136      235      240      243
     526     52      137      133      134      138
     527     52      137      133      134      139
     528     52      137      133      135      140
     529     52      137      133      135      141
     530     51      137      133      136      142
     531     51      137      133      136      143
     532     12      137      133      136      235
     533     48      137      147      146      148
     534     48      137      147      146      149
     535     48      137      147      146      150
     536     19      142      136      235      236
     537     19      142      136      235      240
     538     19      143      136      235      236
     539     19      143      136      235      240
     540     56      144      137      147      146
     541     62      144      137      147      151
     542     62      144      137      147      152
     543     56      145      137      147      146
     544     62      145      137      147      151
     545     62      145      137      147      152
     546     39      146      148      194      193
     547     56      146      148      194      198
     548     56      146      148      194      199
     549     39      146      149      201      200
     550     56      146      149      201      205
     551     56      146      149      201      206
     552     52      147      146      148      153
     553     52      147      146      148      154
     554     48      147      146      148      194
     555     52      147      146      149      155
     556     52      147      146      149      156
     557     48      147      146      149      201
     558     52      147      146      150      157
     559     52      147      146      150      158
     560     52      148      146      147      151
     561     52      148      146      147      152
     562     52      148      146      149      155
     563     52      148      146      149      156
     564     48      148      146      149      201
     565     52      148      146      150      157
     566     52      148      146      150      158
     567     42      148      194      193      195
     568     42      148      194      193      196
     569     42      148      194      193      197
     570     52      149      146      147      151
     571     52      149      146      147      152
     572     52      149      146      148      153
     573     52      149      146      148      154
     574     48      149      146      148      194
     575     52      149      146      150      157
     576     52      149      146      150      158
     577     42      149      201      200      202
     578     42      149      201      200      203
     579     42      149      201      200      204
     580     52      150      146      147      151
     581     52      150      146      147      152
     582     52      150      146      148      153
     583     52      150      146      148      154
     584     48      150      146      148      194
     585     52      150      146      149      155
     586     52      150      146      149      156
     587     48      150      146      149      201
     588     40      153      148      194      193
     589     62      153      148      194      198
     590     62      153      148      194      199
     591     40      154      148      194      193
     592     62      154      148      194      198
     593     62      154      148      194      199
     594     40      155      149      201      200
     595     62      155      149      201      205
     596     62      155      149      201      206
     597     40      156      149      201      200
     598     62      156      149      201      205
     599     62      156      149      201      206
     600     39      159      161      215      214
     601     56      159      161      215      219
     602     56      159      161      215      220
     603     52      160      159      161      166
     604     52      160      159      161      167
     605     48      160      159      161      215
     606     51      160      159      162      168
     607     51      160      159      162      169
     608     52      160      159      163      170
     609     52      160      159      163      171
     610     52      161      159      160      164
     611     52      161      159      160      165
     612     51      161      159      162      168
     613     51      161      159      162      169
     614     52      161      159      163      170
     615     52      161      159      163      171
     616     42      161      215      214      216
     617     42      161      215      214      217
     618     42      161      215      214      218
     619     36      162      159      160      164
     620     36      162      159      160      165
     621     36      162      159      161      166
     622     36      162      159      161      167
     623     35      162      159      161      215
     624     36      162      159      163      170
     625     36      162      159      163      171
     626     52      163      159      160      164
     627     52      163      159      160      165
     628     52      163      159      161      166
     629     52      163      159      161      167
     630     48      163      159      161      215
     631     51      163      159      162      168
     632     51      163      159      162      169
     633     40      166      161      215      214
     634     62      166      161      215      219
     635     62      166      161      215      220
     636     40      167      161      215      214
     637     62      167      161      215      219
     638     62      167      161      215      220
     639     61      174      172      173      177
     640     61      174      172      173      178
     641     61      175      172      173      177
     642     61      175      172      173      178
     643     61      176      172      173      177
     644     61      176      172      173      178
     645     61      181      179      180      184
     646     61      181      179      180      185
     647     61      182      179      180      184
     648     61      182      179      180      185
     649     61      183      179      180      184
     650     61      183      179      180      185
     651     61      188      186      187      191
     652     61      188      186      187      192
     653     61      189      186      187      191
     654     61      189      186      187      192
     655     61      190      186      187      191
     656     61      190      186      187      192
     657     61      195      193      194      198
     658     61      195      193      194      199
     659     61      196      193      194      198
     660     61      196      193      194      199
     661     61      197      193      194      198
     662     61      197      193      194      199
     663     61      202      200      201      205
     664     61      202      200      201      206
     665     61      203      200      201      205
     666     61      203      200      201      206
     667     61      204      200      201      205
     668     61      204      200      201      206
     669     61      209      207      208      212
     670     61      209      207      208      213
     671     61      210      207      208      212
     672     61      210      207      208      213
     673     61      211      207      208      212
     674     61      211      207      208      213
     675     61      216      214      215      219
     676     61      216      214      215      220
     677     61      217      214      215      219
     678     61      217      214      215      220
     679     61      218      214      215      219
     680     61      218      214      215      220
     681     61      223      221      222      226
     682     61      223      221      222      227
     683     61      224      221      222      226
     684     61      224      221      222      227
     685     61      225      221      222      226
     686     61      225      221      222      227
     687     61      230      228      229      233
     688     61      230      228      229      234
     689     61      231      228      229      233
     690     61      231      228      229      234
     691     61      232      228      229      233
     692     61      232      228      229      234
     693      1      235      236      237      238
     694      1      235      240      239      238
     695      1      236      235      240      239
     696     14      236      235      240      243
     697      1      236      237      238      239
     698     14      236      237      238      242
     699      1      237      236      235      240
     700      1      237      238      239      240
     701     14      238      237      236      241
     702     14      238      239      240      243
     703     14      240      235      236      241
     704     14      240      239      238      242

Impropers

       1      6        2        1        6       45
       2      5        1        2        3        7
       3      4        2        3        4        8
       4      4        3        4        5        9
       5      4        4        5        6       10
       6      5        1        6        5       11
       7      1       13       12       17       91
       8      3       12       13       14       18
       9      4       13       14       15       19
      10      4       14       15       16       20
      11      4       15       16       17       21
      12      3       12       17       16       22
      13      1       24       23       28       84
      14      3       23       24       25       29
      15      4       24       25       26       30
      16      4       25       26       27       31
      17      4       26       27       28       32
      18      3       23       28       27       33
      19      6       35       34       39       58
      20      5       34       35       36       40
      21      4       35       36       37       41
      22      4       36       37       38       42
      23      4       37       38       39       43
      24      5       34       39       38       44
      25      6        1       45       46       50
      26      5       45       46       47       51
      27      3       46       47       48       52
      28      1       47       48       49       65
      29      3       48       49       50       53
      30      5       45       50       49       54
      31      1       56       55       60      162
      32      3       55       56       57       61
      33      5       56       57       58       62
      34      6       34       58       57       59
      35      5       58       59       60       63
      36      3       55       60       59       64
      37      1      136      235      236      240
      38      2      235      236      237      241
      39      1       83      237      236      238
      40      2      237      238      239      242
      41      1      101      239      238      240
      42      2      235      240      239      243

