LAMMPS data file generated by clean-room 1-hop pipeline

     211 atoms
     221 bonds
     396 angles
     595 dihedrals
      66 impropers

      10 atom types
      17 bond types
      39 angle types
      59 dihedral types
       8 improper types

  -25.513800    32.022900 xlo xhi
  -32.795800    32.489300 ylo yhi
  -30.926100    31.515700 zlo zhi

Masses

       1    12.011000
       2    12.011000
       3    12.011000
       4    12.011000
       5    12.011000
       6    12.011000
       7    12.011000
       8    12.011000
       9     1.008000
      10     1.008000

Pair Coeffs

       1     0.070000     3.550000
       2     0.070000     3.550000
       3     0.070000     3.550000
       4     0.066000     3.500000
       5     0.066000     3.500000
       6     0.066000     3.500000
       7     0.066000     3.500000
       8     0.066000     3.500000
       9     0.030000     2.420000
      10     0.030000     2.500000

Bond Coeffs

       1   469.000000     1.400000
       2   317.000000     1.510000
       3   469.000000     1.400000
       4   469.000000     1.400000
       5   367.000000     1.080000
       6   385.000000     1.460000
       7   268.000000     1.529000
       8   268.000000     1.529000
       9   268.000000     1.529000
      10   340.000000     1.090000
      11   268.000000     1.529000
      12   340.000000     1.090000
      13   268.000000     1.529000
      14   268.000000     1.529000
      15   268.000000     1.529000
      16   340.000000     1.090000
      17   340.000000     1.090000

Angle Coeffs

       1    63.000000   120.000000
       2    63.000000   120.000000
       3    63.000000   120.000000
       4    35.000000   120.000000
       5    63.000000   114.000000
       6    63.000000   114.000000
       7    63.000000   114.000000
       8    35.000000   109.500000
       9    63.000000   120.000000
      10    70.000000   120.000000
      11    63.000000   120.000000
      12    63.000000   120.000000
      13    35.000000   120.000000
      14    63.000000   120.000000
      15    63.000000   120.000000
      16    63.000000   120.000000
      17    35.000000   120.000000
      18    37.500000   110.700000
      19    58.350000   112.700000
      20    37.500000   110.700000
      21    58.350000   112.700000
      22    58.350000   112.700000
      23    37.500000   110.700000
      24    58.350000   112.700000
      25    37.500000   110.700000
      26    37.500000   110.700000
      27    58.350000   112.700000
      28    58.350000   112.700000
      29    37.500000   110.700000
      30    58.350000   112.700000
      31    37.500000   110.700000
      32    58.350000   112.700000
      33    37.500000   110.700000
      34    37.500000   110.700000
      35    37.500000   110.700000
      36    37.500000   110.700000
      37    33.000000   107.800000
      38    33.000000   107.800000
      39    33.000000   107.800000

Dihedral Coeffs

       1     0.000000     7.250000     0.000000     0.000000
       2     0.000000     7.250000     0.000000     0.000000
       3     0.000000     7.250000     0.000000     0.000000
       4     0.000000     7.250000     0.000000     0.000000
       5     0.000000     7.250000     0.000000     0.000000
       6     0.000000     7.250000     0.000000     0.000000
       7     0.000000     7.250000     0.000000     0.000000
       8     0.000000     7.250000     0.000000     0.000000
       9     0.000000     0.000000     0.462000     0.000000
      10     0.000000     0.000000     0.000000     0.000000
      11     0.000000     0.000000     0.462000     0.000000
      12     0.000000     0.000000     0.000000     0.000000
      13     0.000000     0.000000     0.000000     0.000000
      14     0.000000     7.250000     0.000000     0.000000
      15     0.000000     7.250000     0.000000     0.000000
      16     0.000000     7.250000     0.000000     0.000000
      17    -0.250000     0.000000     0.000000     0.000000
      18    -0.250000     0.000000     0.000000     0.000000
      19    -0.250000     0.000000     0.000000     0.000000
      20     0.000000     0.000000     0.000000     0.000000
      21     0.000000     7.250000     0.000000     0.000000
      22     0.000000     7.250000     0.000000     0.000000
      23     0.000000     7.250000     0.000000     0.000000
      24     0.000000     7.250000     0.000000     0.000000
      25     0.000000     7.250000     0.000000     0.000000
      26     0.000000     7.250000     0.000000     0.000000
      27     0.000000     7.250000     0.000000     0.000000
      28     0.000000     7.250000     0.000000     0.000000
      29     0.000000     1.650000     0.000000    -0.050000
      30     0.000000     7.250000     0.000000     0.000000
      31     0.000000     7.250000     0.000000     0.000000
      32     0.000000     7.250000     0.000000     0.000000
      33     0.000000     7.250000     0.000000     0.000000
      34     0.000000     7.250000     0.000000     0.000000
      35     0.850000    -0.200000     0.200000     0.000000
      36     0.000000     0.000000     0.300000     0.000000
      37     0.000000     0.000000     0.300000     0.000000
      38     0.850000    -0.200000     0.200000     0.000000
      39     0.000000     0.000000     0.300000     0.000000
      40     0.850000    -0.200000     0.200000     0.000000
      41     0.850000    -0.200000     0.200000     0.000000
      42     0.000000     0.000000     0.300000     0.000000
      43     0.000000     0.000000     0.300000     0.000000
      44     0.850000    -0.200000     0.200000     0.000000
      45     0.000000     0.000000     0.300000     0.000000
      46     0.850000    -0.200000     0.200000     0.000000
      47     0.000000     0.000000     0.300000     0.000000
      48     0.000000     0.000000     0.300000     0.000000
      49     0.000000     0.000000     0.300000     0.000000
      50     0.000000     0.000000     0.300000     0.000000
      51     0.000000     0.000000     0.300000     0.000000
      52     0.850000    -0.200000     0.200000     0.000000
      53     0.000000     0.000000     0.300000     0.000000
      54     0.000000     7.250000     0.000000     0.000000
      55     0.000000     0.000000     0.300000     0.000000
      56     0.000000     0.000000     0.300000     0.000000
      57     0.000000     0.000000     0.300000     0.000000
      58     0.000000     0.000000     0.300000     0.000000
      59     0.000000     0.000000     0.300000     0.000000

Improper Coeffs

       1     2.500000   -1    2
       2     2.500000   -1    2
       3     2.500000   -1    2
       4     2.500000   -1    2
       5     2.500000   -1    2
       6     2.500000   -1    2
       7     2.500000   -1    2
       8     2.500000   -1    2

Atoms

       1    1      5  -0.26242396    10.912700    -1.263600     0.911800
       2    1      4  -0.14337517    10.134300    -2.584800     0.772000
       3    1     10   0.09943700    12.022900    -1.484800     1.048800
       4    1     10   0.09943700    10.761500    -0.635500    -0.027300
       5    1     10   0.09943700    10.524400    -0.690100     1.817100
       6    1     10   0.09943700    10.275700    -3.214100     1.711600
       7    1     10   0.09943700    10.515100    -3.159500    -0.136000
       8    1      5  -0.26242396     4.140900     8.801600     5.223400
       9    1      4  -0.14337517     4.465600     7.422400     4.621600
      10    1     10   0.09943700     5.106800     9.386400     5.378800
      11    1     10   0.09943700     3.461000     9.374600     4.509600
      12    1     10   0.09943700     3.610400     8.663000     6.223100
      13    1     10   0.09943700     4.983900     7.563900     3.616600
      14    1     10   0.09943700     5.146600     6.841400     5.327900
      15    1      5  -0.26242396    -4.695300     7.496000     6.978000
      16    1      6  -0.19177259    -3.418200     7.269700     6.148000
      17    1     10   0.09943700    -4.475200     7.295300     8.078200
      18    1     10   0.09943700    -5.043200     8.574600     6.854500
      19    1     10   0.09943700    -5.513800     6.788600     6.618300
      20    1     10   0.09943700    -3.639600     7.472400     5.048200
      21    1     10   0.09943700    -3.067100     6.192000     6.272800
      22    1      5  -0.26242396     0.664300    11.347600     6.592000
      23    1      6  -0.19177259    -0.431600    10.380200     6.107600
      24    1     10   0.09943700     1.604700    11.200100     5.965300
      25    1     10   0.09943700     0.299400    12.422200     6.481900
      26    1     10   0.09943700     0.897700    11.136800     7.688000
      27    1     10   0.09943700    -1.373200    10.525200     6.734200
      28    1     10   0.09943700    -0.668600    10.588900     5.012400
      29    1      5  -0.26242396     4.108400    -6.417700    -1.471800
      30    1      6  -0.19177259     3.576000    -5.493300    -2.581100
      31    1     10   0.09943700     4.913100    -7.102200    -1.899700
      32    1     10   0.09943700     4.551500    -5.787000    -0.631600
      33    1     10   0.09943700     3.252600    -7.048700    -1.061000
      34    1     10   0.09943700     3.148300    -6.129600    -3.421100
      35    1     10   0.09943700     4.437800    -4.866100    -2.979000
      36    1      5  -0.26242396    -1.641500    -4.543200    -8.251300
      37    1      6  -0.19177259    -1.245900    -5.643200    -7.248900
      38    1     10   0.09943700    -0.809300    -4.415900    -9.019900
      39    1     10   0.09943700    -2.606000    -4.841700    -8.780800
      40    1     10   0.09943700    -1.801500    -3.562100    -7.692900
      41    1     10   0.09943700    -2.073100    -5.756900    -6.477200
      42    1     10   0.09943700    -1.101400    -6.629600    -7.795800
      43    1      5  -0.26242396    -3.053000   -11.947000    -8.387800
      44    1      4  -0.14337517    -3.831300   -11.425500    -7.165600
      45    1     10   0.09943700    -2.033300   -12.329900    -8.050600
      46    1     10   0.09943700    -2.909400   -11.098800    -9.135700
      47    1     10   0.09943700    -3.635400   -12.795800    -8.877700
      48    1     10   0.09943700    -3.970700   -12.270900    -6.413300
      49    1     10   0.09943700    -4.850800   -11.038700    -7.496600
      50    1      1  -0.09089809     8.643100    -2.252400     0.587900
      51    1      2  -0.15088573     7.750000    -3.161900    -0.276900
      52    1      2  -0.15088573     6.284300    -2.772600    -0.538900
      53    1      3  -0.04262309     5.718300    -1.465600     0.046500
      54    1      2  -0.15088573     6.605000    -0.564500     0.923300
      55    1      2  -0.15088573     8.071000    -0.954000     1.187600
      56    1      9   0.16448945     8.177000    -4.119200    -0.727000
      57    1      9   0.16448945     5.621100    -3.446400    -1.176900
      58    1      9   0.16448945     6.180300     0.396300     1.366500
      59    1      9   0.16448945     8.735000    -0.279200     1.821900
      60    1      1  -0.09089809     3.526800     2.375900     3.928900
      61    1      2  -0.15088573     3.271000     1.607400     5.240700
      62    1      2  -0.15088573     3.902100     2.091900     6.560100
      63    1      3  -0.04262309     4.779200     3.356500     6.574800
      64    1      2  -0.15088573     5.021000     4.136900     5.271400
      65    1      2  -0.15088573     4.391700     3.647500     3.953400
      66    1      9   0.16448945     2.614100     0.676200     5.234200
      67    1      9   0.16448945     3.718200     1.516400     7.526900
      68    1      9   0.16448945     5.658700     5.082600     5.283300
      69    1      9   0.16448945     4.544000     4.244100     3.002000
      70    1      1  -0.09089809    -1.397400    -7.994600    -5.254000
      71    1      2  -0.15088573    -1.019400    -9.461300    -4.973000
      72    1      2  -0.15088573    -1.830800   -10.604700    -5.608800
      73    1      1  -0.09089809    -3.032900   -10.282200    -6.514000
      74    1      2  -0.15088573    -3.474200    -8.821500    -6.711300
      75    1      2  -0.15088573    -2.670900    -7.677600    -6.063000
      76    1      9   0.16448945    -0.122800    -9.698800    -4.310700
      77    1      9   0.16448945    -1.533500   -11.688700    -5.417200
      78    1      9   0.16448945    -4.397100    -8.585900    -7.337600
      79    1      9   0.16448945    -3.023500    -6.601200    -6.180600
      80    1      3  -0.04262309     4.265900    -1.061700    -0.256900
      81    1      2  -0.15088573     3.691100     0.259100     0.292400
      82    1      1  -0.09089809     2.233800     0.646200    -0.022700
      83    1      2  -0.15088573     1.345900    -0.305500    -0.849700
      84    1      1  -0.09089809     1.916600    -1.632000    -1.385800
      85    1      2  -0.15088573     3.390600    -1.986000    -1.123500
      86    1      9   0.16448945     4.341900     0.948500     0.925600
      87    1      9   0.16448945     0.263300    -0.023900    -1.067100
      88    1      9   0.16448945     3.837700    -2.933300    -1.572900
      89    1      1  -0.09089809     4.591500     4.422000     1.054100
      90    1      2  -0.15088573     4.173300     5.891400     0.833100
      91    1      3  -0.04262309     5.002800     7.023500     1.469100
      92    1      2  -0.15088573     6.299900     6.694600     2.229100
      93    1      3  -0.04262309     6.783400     5.237300     2.333500
      94    1      2  -0.15088573     5.946400     4.100400     1.716300
      95    1      9   0.16448945     3.221400     6.135500     0.253800
      96    1      9   0.16448945     6.906200     7.531800     2.710700
      97    1      9   0.16448945     6.304200     3.021300     1.791700
      98    1      1  -0.09089809     1.691700     4.912700     3.009700
      99    1      2  -0.15088573     3.028400     5.628900     3.273200
     100    1      1  -0.09089809     3.150600     6.648000     4.419900
     101    1      2  -0.15088573     1.935200     6.954600     5.311100
     102    1      1  -0.09089809     0.606100     6.216500     5.073600
     103    1      2  -0.15088573     0.491600     5.184700     3.936400
     104    1      9   0.16448945     3.937200     5.391700     2.637900
     105    1      9   0.16448945     2.018300     7.730200     6.141500
     106    1      9   0.16448945    -0.492500     4.634400     3.765400
     107    1      8  -0.05204543     2.512400     2.817000     1.445600
     108    1      4  -0.14337517     1.631500     1.961600     0.511600
     109    1      4  -0.14337517     2.857100     1.878400     2.627400
     110    1      4  -0.14337517     3.684100     3.287000     0.545400
     111    1      4  -0.14337517     1.505800     3.925600     1.833400
     112    1     10   0.09943700     1.325400     2.604700    -0.378900
     113    1     10   0.09943700     0.690300     1.683500     1.091100
     114    1     10   0.09943700     1.865100     1.429500     2.963600
     115    1     10   0.09943700     3.498900     1.029900     2.219200
     116    1     10   0.09943700     3.210700     3.686400    -0.411500
     117    1     10   0.09943700     4.326100     2.383500     0.277500
     118    1     10   0.09943700     0.553200     3.362500     2.108300
     119    1     10   0.09943700     1.279700     4.530100     0.893600
     120    1      8  -0.05204543     1.857700    -3.605300    -3.010600
     121    1      4  -0.14337517     1.026300    -2.562600    -2.237500
     122    1      4  -0.14337517     2.854200    -2.786400    -3.861800
     123    1      6  -0.19177259     2.510300    -4.557000    -1.982500
     124    1      6  -0.19177259     0.882900    -4.403000    -3.905500
     125    1     10   0.09943700     0.461200    -1.919000    -2.990000
     126    1     10   0.09943700     0.276600    -3.100000    -1.568300
     127    1     10   0.09943700     2.245500    -2.007500    -4.429800
     128    1     10   0.09943700     3.582800    -2.245200    -3.172700
     129    1     10   0.09943700     3.026600    -3.946900    -1.172500
     130    1     10   0.09943700     1.686300    -5.176000    -1.494600
     131    1     10   0.09943700     0.437400    -3.697800    -4.682300
     132    1     10   0.09943700     0.041400    -4.820900    -3.259700
     133    1      8  -0.05204543     0.548100    -6.296900    -5.532900
     134    1      6  -0.19177259     1.559400    -5.592600    -4.612800
     135    1      6  -0.19177259     0.031900    -5.218200    -6.505900
     136    1      4  -0.14337517     1.341600    -7.390300    -6.284300
     137    1      4  -0.14337517    -0.553900    -6.872400    -4.615000
     138    1     10   0.09943700     1.928200    -6.341000    -3.837500
     139    1     10   0.09943700     2.438500    -5.234900    -5.236900
     140    1     10   0.09943700     0.865800    -4.957500    -7.238700
     141    1     10   0.09943700    -0.235700    -4.287600    -5.904700
     142    1     10   0.09943700     2.256300    -6.886200    -6.741100
     143    1     10   0.09943700     1.691800    -8.184100    -5.544300
     144    1     10   0.09943700    -1.207200    -6.030000    -4.210400
     145    1     10   0.09943700    -0.019200    -7.369900    -3.740000
     146    1      3  -0.04262309     5.407800     3.840200     7.895500
     147    1      2  -0.15088573     6.273800     5.112200     7.916000
     148    1      2  -0.15088573     6.903000     5.592600     9.237500
     149    1      2  -0.15088573     6.661800     4.802100    10.537800
     150    1      2  -0.15088573     5.794200     3.530200    10.515200
     151    1      2  -0.15088573     5.165100     3.050400     9.194500
     152    1      9   0.16448945     6.451100     5.695700     6.953000
     153    1      9   0.16448945     7.543800     6.534700     9.254400
     154    1      9   0.16448945     7.128700     5.156600    11.515700
     155    1      9   0.16448945     5.614500     2.945500    11.477500
     156    1      9   0.16448945     4.522300     2.109000     9.177100
     157    1      3  -0.04262309     4.520300     8.483200     1.388600
     158    1      2  -0.15088573     5.303100     9.586300     2.123800
     159    1      2  -0.15088573     4.822800    11.046700     2.056500
     160    1      2  -0.15088573     3.561200    11.406400     1.250400
     161    1      2  -0.15088573     2.777500    10.303000     0.514600
     162    1      2  -0.15088573     3.254300     8.839300     0.588900
     163    1      9   0.16448945     6.236400     9.319600     2.722400
     164    1      9   0.16448945     5.400400    11.862500     2.604000
     165    1      9   0.16448945     3.209200    12.489300     1.196100
     166    1      9   0.16448945     1.843600    10.569200    -0.082700
     167    1      9   0.16448945     2.672700     8.021000     0.048400
     168    1      3  -0.04262309     8.086300     4.923000     3.087000
     169    1      2  -0.15088573     8.875300     6.064200     3.755300
     170    1      2  -0.15088573    10.170700     5.755900     4.526700
     171    1      2  -0.15088573    10.682000     4.306500     4.623200
     172    1      2  -0.15088573     9.896600     3.165000     3.948400
     173    1      2  -0.15088573     8.595900     3.473800     3.182500
     174    1      9   0.16448945     8.496500     7.137100     3.684000
     175    1      9   0.16448945    10.752000     6.600000     5.025400
     176    1      9   0.16448945    11.642700     4.078200     5.192800
     177    1      9   0.16448945    10.276700     2.092200     4.018900
     178    1      9   0.16448945     8.010800     2.630400     2.686800
     179    1      1  -0.09089809     3.637700    -3.582700    -4.923300
     180    1      2  -0.15088573     3.037300    -3.768600    -6.330800
     181    1      2  -0.15088573     3.835600    -4.512900    -7.416800
     182    1      2  -0.15088573     5.251700    -5.033500    -7.109600
     183    1      2  -0.15088573     5.871800    -4.802900    -5.719300
     184    1      2  -0.15088573     5.069600    -4.066400    -4.630700
     185    1      9   0.16448945     1.994100    -3.371400    -6.561200
     186    1      9   0.16448945     3.379500    -4.674600    -8.449200
     187    1      9   0.16448945     5.842700    -5.587000    -7.912300
     188    1      9   0.16448945     6.926200    -5.174300    -5.495900
     189    1      9   0.16448945     5.530800    -3.890600    -3.603100
     190    1      1  -0.09089809     0.577400    -8.048900    -7.450200
     191    1      2  -0.15088573     0.409000    -7.289400    -8.780300
     192    1      2  -0.15088573    -0.346300    -7.944000    -9.952400
     193    1      2  -0.15088573    -0.896000    -9.375700    -9.809900
     194    1      2  -0.15088573    -0.663500   -10.161000    -8.505800
     195    1      2  -0.15088573     0.094800    -9.505900    -7.337600
     196    1      9   0.16448945     0.818900    -6.230700    -8.886700
     197    1      9   0.16448945    -0.495600    -7.370000   -10.926100
     198    1      9   0.16448945    -1.466700    -9.856800   -10.671400
     199    1      9   0.16448945    -1.044800   -11.230300    -8.408700
     200    1      9   0.16448945     0.295700   -10.099200    -6.385900
     201    1      7  -0.12551921    -1.050600     7.977600     5.788400
     202    1      4  -0.14337517    -0.613700     6.510600     5.964700
     203    1      6  -0.19177259    -2.311800     8.224300     6.633200
     204    1      6  -0.19177259     0.063100     8.930800     6.259100
     205    1     10   0.09943700    -1.287500     8.176400     4.691000
     206    1     10   0.09943700    -0.352600     6.316100     7.057500
     207    1     10   0.09943700    -1.473000     5.828500     5.654500
     208    1     10   0.09943700    -2.651400     9.305200     6.505200
     209    1     10   0.09943700    -2.083100     8.022600     7.731600
     210    1     10   0.09943700     0.303000     8.724000     7.354200
     211    1     10   0.09943700     1.000400     8.778200     5.629100

Bonds

       1      7        1        2
       2     12        1        3
       3     12        1        4
       4     12        1        5
       5     10        2        6
       6     10        2        7
       7      2        2       50
       8      7        8        9
       9     12        8       10
      10     12        8       11
      11     12        8       12
      12     10        9       13
      13     10        9       14
      14      2        9      100
      15     11       15       16
      16     12       15       17
      17     12       15       18
      18     12       15       19
      19     16       16       20
      20     16       16       21
      21     13       16      203
      22     11       22       23
      23     12       22       24
      24     12       22       25
      25     12       22       26
      26     16       23       27
      27     16       23       28
      28     13       23      204
      29     11       29       30
      30     12       29       31
      31     12       29       32
      32     12       29       33
      33     16       30       34
      34     16       30       35
      35     13       30      123
      36     11       36       37
      37     12       36       38
      38     12       36       39
      39     12       36       40
      40     16       37       41
      41     16       37       42
      42     13       37      135
      43      7       43       44
      44     12       43       45
      45     12       43       46
      46     12       43       47
      47     10       44       48
      48     10       44       49
      49      2       44       73
      50      1       50       51
      51      3       51       52
      52      5       51       56
      53      4       52       53
      54      5       52       57
      55      4       53       54
      56      6       53       80
      57      3       54       55
      58      5       54       58
      59      1       55       50
      60      5       55       59
      61      1       60       61
      62      2       60      109
      63      3       61       62
      64      5       61       66
      65      4       62       63
      66      5       62       67
      67      4       63       64
      68      6       63      146
      69      3       64       65
      70      5       64       68
      71      1       65       60
      72      5       65       69
      73      1       70       71
      74      2       70      137
      75      3       71       72
      76      5       71       76
      77      1       72       73
      78      5       72       77
      79      1       73       74
      80      3       74       75
      81      5       74       78
      82      1       75       70
      83      5       75       79
      84      4       80       81
      85      1       81       82
      86      5       81       86
      87      1       82       83
      88      2       82      108
      89      1       83       84
      90      5       83       87
      91      1       84       85
      92      2       84      121
      93      4       85       80
      94      5       85       88
      95      1       89       90
      96      2       89      110
      97      4       90       91
      98      5       90       95
      99      4       91       92
     100      6       91      157
     101      4       92       93
     102      5       92       96
     103      4       93       94
     104      6       93      168
     105      1       94       89
     106      5       94       97
     107      1       98       99
     108      2       98      111
     109      1       99      100
     110      5       99      104
     111      1      100      101
     112      1      101      102
     113      5      101      105
     114      1      102      103
     115      2      102      202
     116      1      103       98
     117      5      103      106
     118      9      107      108
     119      9      107      109
     120      9      107      110
     121      9      107      111
     122     10      108      112
     123     10      108      113
     124     10      109      114
     125     10      109      115
     126     10      110      116
     127     10      110      117
     128     10      111      118
     129     10      111      119
     130      9      120      121
     131      9      120      122
     132     15      120      123
     133     15      120      124
     134     10      121      125
     135     10      121      126
     136     10      122      127
     137     10      122      128
     138      2      122      179
     139     16      123      129
     140     16      123      130
     141     16      124      131
     142     16      124      132
     143     13      124      134
     144     15      133      134
     145     15      133      135
     146      9      133      136
     147      9      133      137
     148     16      134      138
     149     16      134      139
     150     16      135      140
     151     16      135      141
     152     10      136      142
     153     10      136      143
     154      2      136      190
     155     10      137      144
     156     10      137      145
     157      4      146      147
     158      3      147      148
     159      5      147      152
     160      3      148      149
     161      5      148      153
     162      3      149      150
     163      5      149      154
     164      3      150      151
     165      5      150      155
     166      4      151      146
     167      5      151      156
     168      4      157      158
     169      3      158      159
     170      5      158      163
     171      3      159      160
     172      5      159      164
     173      3      160      161
     174      5      160      165
     175      3      161      162
     176      5      161      166
     177      4      162      157
     178      5      162      167
     179      4      168      169
     180      3      169      170
     181      5      169      174
     182      3      170      171
     183      5      170      175
     184      3      171      172
     185      5      171      176
     186      3      172      173
     187      5      172      177
     188      4      173      168
     189      5      173      178
     190      1      179      180
     191      3      180      181
     192      5      180      185
     193      3      181      182
     194      5      181      186
     195      3      182      183
     196      5      182      187
     197      3      183      184
     198      5      183      188
     199      1      184      179
     200      5      184      189
     201      1      190      191
     202      3      191      192
     203      5      191      196
     204      3      192      193
     205      5      192      197
     206      3      193      194
     207      5      193      198
     208      3      194      195
     209      5      194      199
     210      1      195      190
     211      5      195      200
     212      8      201      202
     213     14      201      203
     214     14      201      204
     215     17      201      205
     216     10      202      206
     217     10      202      207
     218     16      203      208
     219     16      203      209
     220     16      204      210
     221     16      204      211

Angles

       1     23        1        2        6
       2     23        1        2        7
       3      5        1        2       50
       4     18        2        1        3
       5     18        2        1        4
       6     18        2        1        5
       7     10        2       50       51
       8     10        2       50       55
       9     38        3        1        4
      10     38        3        1        5
      11     38        4        1        5
      12     37        6        2        7
      13      8        6        2       50
      14      8        7        2       50
      15     23        8        9       13
      16     23        8        9       14
      17      5        8        9      100
      18     18        9        8       10
      19     18        9        8       11
      20     18        9        8       12
      21     10        9      100       99
      22     10        9      100      101
      23     38       10        8       11
      24     38       10        8       12
      25     38       11        8       12
      26     37       13        9       14
      27      8       13        9      100
      28      8       14        9      100
      29     25       15       16       20
      30     25       15       16       21
      31     24       15       16      203
      32     26       16       15       17
      33     26       16       15       18
      34     26       16       15       19
      35     27       16      203      201
      36     29       16      203      208
      37     29       16      203      209
      38     38       17       15       18
      39     38       17       15       19
      40     38       18       15       19
      41     39       20       16       21
      42     29       20       16      203
      43     29       21       16      203
      44     25       22       23       27
      45     25       22       23       28
      46     24       22       23      204
      47     26       23       22       24
      48     26       23       22       25
      49     26       23       22       26
      50     27       23      204      201
      51     29       23      204      210
      52     29       23      204      211
      53     38       24       22       25
      54     38       24       22       26
      55     38       25       22       26
      56     39       27       23       28
      57     29       27       23      204
      58     29       28       23      204
      59     25       29       30       34
      60     25       29       30       35
      61     24       29       30      123
      62     26       30       29       31
      63     26       30       29       32
      64     26       30       29       33
      65     28       30      123      120
      66     29       30      123      129
      67     29       30      123      130
      68     38       31       29       32
      69     38       31       29       33
      70     38       32       29       33
      71     39       34       30       35
      72     29       34       30      123
      73     29       35       30      123
      74     25       36       37       41
      75     25       36       37       42
      76     24       36       37      135
      77     26       37       36       38
      78     26       37       36       39
      79     26       37       36       40
      80     28       37      135      133
      81     29       37      135      140
      82     29       37      135      141
      83     38       38       36       39
      84     38       38       36       40
      85     38       39       36       40
      86     39       41       37       42
      87     29       41       37      135
      88     29       42       37      135
      89     23       43       44       48
      90     23       43       44       49
      91      5       43       44       73
      92     18       44       43       45
      93     18       44       43       46
      94     18       44       43       47
      95     10       44       73       72
      96     10       44       73       74
      97     38       45       43       46
      98     38       45       43       47
      99     38       46       43       47
     100     37       48       44       49
     101      8       48       44       73
     102      8       49       44       73
     103      2       50       51       52
     104      4       50       51       56
     105      2       50       55       54
     106      4       50       55       59
     107      9       51       50       55
     108     12       51       52       53
     109     13       51       52       57
     110     13       52       51       56
     111     14       52       53       54
     112     15       52       53       80
     113     17       53       52       57
     114     12       53       54       55
     115     17       53       54       58
     116     15       53       80       81
     117     15       53       80       85
     118     15       54       53       80
     119     13       54       55       59
     120     13       55       54       58
     121      2       60       61       62
     122      4       60       61       66
     123      2       60       65       64
     124      4       60       65       69
     125      7       60      109      107
     126      8       60      109      114
     127      8       60      109      115
     128      9       61       60       65
     129     10       61       60      109
     130     12       61       62       63
     131     13       61       62       67
     132     13       62       61       66
     133     14       62       63       64
     134     15       62       63      146
     135     17       63       62       67
     136     12       63       64       65
     137     17       63       64       68
     138     15       63      146      147
     139     15       63      146      151
     140     15       64       63      146
     141     13       64       65       69
     142     10       65       60      109
     143     13       65       64       68
     144      2       70       71       72
     145      4       70       71       76
     146      2       70       75       74
     147      4       70       75       79
     148      7       70      137      133
     149      8       70      137      144
     150      8       70      137      145
     151      9       71       70       75
     152     10       71       70      137
     153      2       71       72       73
     154     13       71       72       77
     155     13       72       71       76
     156      9       72       73       74
     157      4       73       72       77
     158      2       73       74       75
     159      4       73       74       78
     160     13       74       75       79
     161     10       75       70      137
     162     13       75       74       78
     163      3       80       81       82
     164     17       80       81       86
     165      3       80       85       84
     166     17       80       85       88
     167     14       81       80       85
     168      9       81       82       83
     169     10       81       82      108
     170      4       82       81       86
     171      1       82       83       84
     172      4       82       83       87
     173      7       82      108      107
     174      8       82      108      112
     175      8       82      108      113
     176     10       83       82      108
     177      9       83       84       85
     178     10       83       84      121
     179      4       84       83       87
     180      4       84       85       88
     181      7       84      121      120
     182      8       84      121      125
     183      8       84      121      126
     184     10       85       84      121
     185      3       89       90       91
     186      4       89       90       95
     187      3       89       94       93
     188      4       89       94       97
     189      7       89      110      107
     190      8       89      110      116
     191      8       89      110      117
     192      9       90       89       94
     193     10       90       89      110
     194     14       90       91       92
     195     15       90       91      157
     196     17       91       90       95
     197     16       91       92       93
     198     17       91       92       96
     199     15       91      157      158
     200     15       91      157      162
     201     15       92       91      157
     202     14       92       93       94
     203     15       92       93      168
     204     17       93       92       96
     205     17       93       94       97
     206     15       93      168      169
     207     15       93      168      173
     208     10       94       89      110
     209     15       94       93      168
     210      1       98       99      100
     211      4       98       99      104
     212      1       98      103      102
     213      4       98      103      106
     214      7       98      111      107
     215      8       98      111      118
     216      8       98      111      119
     217      9       99       98      103
     218     10       99       98      111
     219      9       99      100      101
     220      4      100       99      104
     221      1      100      101      102
     222      4      100      101      105
     223      9      101      102      103
     224     10      101      102      202
     225      4      102      101      105
     226      4      102      103      106
     227      6      102      202      201
     228      8      102      202      206
     229      8      102      202      207
     230     10      103       98      111
     231     10      103      102      202
     232     35      107      108      112
     233     35      107      108      113
     234     35      107      109      114
     235     35      107      109      115
     236     35      107      110      116
     237     35      107      110      117
     238     35      107      111      118
     239     35      107      111      119
     240     21      108      107      109
     241     21      108      107      110
     242     21      108      107      111
     243     21      109      107      110
     244     21      109      107      111
     245     21      110      107      111
     246     37      112      108      113
     247     37      114      109      115
     248     37      116      110      117
     249     37      118      111      119
     250     35      120      121      125
     251     35      120      121      126
     252     35      120      122      127
     253     35      120      122      128
     254      7      120      122      179
     255     36      120      123      129
     256     36      120      123      130
     257     36      120      124      131
     258     36      120      124      132
     259     28      120      124      134
     260     21      121      120      122
     261     22      121      120      123
     262     22      121      120      124
     263     22      122      120      123
     264     22      122      120      124
     265     10      122      179      180
     266     10      122      179      184
     267     32      123      120      124
     268     28      124      134      133
     269     29      124      134      138
     270     29      124      134      139
     271     37      125      121      126
     272     37      127      122      128
     273      8      127      122      179
     274      8      128      122      179
     275     39      129      123      130
     276     39      131      124      132
     277     29      131      124      134
     278     29      132      124      134
     279     36      133      134      138
     280     36      133      134      139
     281     36      133      135      140
     282     36      133      135      141
     283     35      133      136      142
     284     35      133      136      143
     285      7      133      136      190
     286     35      133      137      144
     287     35      133      137      145
     288     32      134      133      135
     289     22      134      133      136
     290     22      134      133      137
     291     22      135      133      136
     292     22      135      133      137
     293     21      136      133      137
     294     10      136      190      191
     295     10      136      190      195
     296     39      138      134      139
     297     39      140      135      141
     298     37      142      136      143
     299      8      142      136      190
     300      8      143      136      190
     301     37      144      137      145
     302     12      146      147      148
     303     17      146      147      152
     304     12      146      151      150
     305     17      146      151      156
     306     14      147      146      151
     307     11      147      148      149
     308     13      147      148      153
     309     13      148      147      152
     310     11      148      149      150
     311     13      148      149      154
     312     13      149      148      153
     313     11      149      150      151
     314     13      149      150      155
     315     13      150      149      154
     316     13      150      151      156
     317     13      151      150      155
     318     12      157      158      159
     319     17      157      158      163
     320     12      157      162      161
     321     17      157      162      167
     322     14      158      157      162
     323     11      158      159      160
     324     13      158      159      164
     325     13      159      158      163
     326     11      159      160      161
     327     13      159      160      165
     328     13      160      159      164
     329     11      160      161      162
     330     13      160      161      166
     331     13      161      160      165
     332     13      161      162      167
     333     13      162      161      166
     334     12      168      169      170
     335     17      168      169      174
     336     12      168      173      172
     337     17      168      173      178
     338     14      169      168      173
     339     11      169      170      171
     340     13      169      170      175
     341     13      170      169      174
     342     11      170      171      172
     343     13      170      171      176
     344     13      171      170      175
     345     11      171      172      173
     346     13      171      172      177
     347     13      172      171      176
     348     13      172      173      178
     349     13      173      172      177
     350      2      179      180      181
     351      4      179      180      185
     352      2      179      184      183
     353      4      179      184      189
     354      9      180      179      184
     355     11      180      181      182
     356     13      180      181      186
     357     13      181      180      185
     358     11      181      182      183
     359     13      181      182      187
     360     13      182      181      186
     361     11      182      183      184
     362     13      182      183      188
     363     13      183      182      187
     364     13      183      184      189
     365     13      184      183      188
     366      2      190      191      192
     367      4      190      191      196
     368      2      190      195      194
     369      4      190      195      200
     370      9      191      190      195
     371     11      191      192      193
     372     13      191      192      197
     373     13      192      191      196
     374     11      192      193      194
     375     13      192      193      198
     376     13      193      192      197
     377     11      193      194      195
     378     13      193      194      199
     379     13      194      193      198
     380     13      194      195      200
     381     13      195      194      199
     382     33      201      202      206
     383     33      201      202      207
     384     34      201      203      208
     385     34      201      203      209
     386     34      201      204      210
     387     34      201      204      211
     388     19      202      201      203
     389     19      202      201      204
     390     20      202      201      205
     391     30      203      201      204
     392     31      203      201      205
     393     31      204      201      205
     394     37      206      202      207
     395     39      208      203      209
     396     39      210      204      211

Dihedrals

       1     17        1        2       50       51
       2     17        1        2       50       55
       3     21        2       50       51       52
       4     34        2       50       51       56
       5     21        2       50       55       54
       6     34        2       50       55       59
       7     55        3        1        2        6
       8     55        3        1        2        7
       9      9        3        1        2       50
      10     55        4        1        2        6
      11     55        4        1        2        7
      12      9        4        1        2       50
      13     55        5        1        2        6
      14     55        5        1        2        7
      15      9        5        1        2       50
      16     20        6        2       50       51
      17     20        6        2       50       55
      18     20        7        2       50       51
      19     20        7        2       50       55
      20     17        8        9      100       99
      21     17        8        9      100      101
      22      2        9      100       99       98
      23     34        9      100       99      104
      24      2        9      100      101      102
      25     34        9      100      101      105
      26     55       10        8        9       13
      27     55       10        8        9       14
      28      9       10        8        9      100
      29     55       11        8        9       13
      30     55       11        8        9       14
      31      9       11        8        9      100
      32     55       12        8        9       13
      33     55       12        8        9       14
      34      9       12        8        9      100
      35     20       13        9      100       99
      36     20       13        9      100      101
      37     20       14        9      100       99
      38     20       14        9      100      101
      39     40       15       16      203      201
      40     42       15       16      203      208
      41     42       15       16      203      209
      42     35       16      203      201      202
      43     44       16      203      201      204
      44     45       16      203      201      205
      45     57       17       15       16       20
      46     57       17       15       16       21
      47     43       17       15       16      203
      48     57       18       15       16       20
      49     57       18       15       16       21
      50     43       18       15       16      203
      51     57       19       15       16       20
      52     57       19       15       16       21
      53     43       19       15       16      203
      54     51       20       16      203      201
      55     58       20       16      203      208
      56     58       20       16      203      209
      57     51       21       16      203      201
      58     58       21       16      203      208
      59     58       21       16      203      209
      60     40       22       23      204      201
      61     42       22       23      204      210
      62     42       22       23      204      211
      63     35       23      204      201      202
      64     44       23      204      201      203
      65     45       23      204      201      205
      66     57       24       22       23       27
      67     57       24       22       23       28
      68     43       24       22       23      204
      69     57       25       22       23       27
      70     57       25       22       23       28
      71     43       25       22       23      204
      72     57       26       22       23       27
      73     57       26       22       23       28
      74     43       26       22       23      204
      75     51       27       23      204      201
      76     58       27       23      204      210
      77     58       27       23      204      211
      78     51       28       23      204      201
      79     58       28       23      204      210
      80     58       28       23      204      211
      81     41       29       30      123      120
      82     42       29       30      123      129
      83     42       29       30      123      130
      84     38       30      123      120      121
      85     38       30      123      120      122
      86     46       30      123      120      124
      87     57       31       29       30       34
      88     57       31       29       30       35
      89     43       31       29       30      123
      90     57       32       29       30       34
      91     57       32       29       30       35
      92     43       32       29       30      123
      93     57       33       29       30       34
      94     57       33       29       30       35
      95     43       33       29       30      123
      96     53       34       30      123      120
      97     58       34       30      123      129
      98     58       34       30      123      130
      99     53       35       30      123      120
     100     58       35       30      123      129
     101     58       35       30      123      130
     102     41       36       37      135      133
     103     42       36       37      135      140
     104     42       36       37      135      141
     105     46       37      135      133      134
     106     38       37      135      133      136
     107     38       37      135      133      137
     108     57       38       36       37       41
     109     57       38       36       37       42
     110     43       38       36       37      135
     111     57       39       36       37       41
     112     57       39       36       37       42
     113     43       39       36       37      135
     114     57       40       36       37       41
     115     57       40       36       37       42
     116     43       40       36       37      135
     117     53       41       37      135      133
     118     58       41       37      135      140
     119     58       41       37      135      141
     120     53       42       37      135      133
     121     58       42       37      135      140
     122     58       42       37      135      141
     123     17       43       44       73       72
     124     17       43       44       73       74
     125     21       44       73       72       71
     126     34       44       73       72       77
     127     21       44       73       74       75
     128     34       44       73       74       78
     129     55       45       43       44       48
     130     55       45       43       44       49
     131      9       45       43       44       73
     132     55       46       43       44       48
     133     55       46       43       44       49
     134      9       46       43       44       73
     135     55       47       43       44       48
     136     55       47       43       44       49
     137      9       47       43       44       73
     138     20       48       44       73       72
     139     20       48       44       73       74
     140     20       49       44       73       72
     141     20       49       44       73       74
     142      5       50       51       52       53
     143      6       50       51       52       57
     144      5       50       55       54       53
     145      6       50       55       54       58
     146     14       51       50       55       54
     147     16       51       50       55       59
     148     25       51       52       53       54
     149     26       51       52       53       80
     150     14       52       51       50       55
     151     25       52       53       54       55
     152     28       52       53       54       58
     153     29       52       53       80       81
     154     29       52       53       80       85
     155     31       53       52       51       56
     156     31       53       54       55       59
     157      8       53       80       81       82
     158     33       53       80       81       86
     159      8       53       80       85       84
     160     33       53       80       85       88
     161     28       54       53       52       57
     162     29       54       53       80       81
     163     29       54       53       80       85
     164     16       55       50       51       56
     165     26       55       54       53       80
     166     54       56       51       52       57
     167     33       57       52       53       80
     168     33       58       54       53       80
     169     54       58       54       55       59
     170      5       60       61       62       63
     171      6       60       61       62       67
     172      5       60       65       64       63
     173      6       60       65       64       68
     174     12       60      109      107      108
     175     12       60      109      107      110
     176     12       60      109      107      111
     177     14       61       60       65       64
     178     16       61       60       65       69
     179     19       61       60      109      107
     180     20       61       60      109      114
     181     20       61       60      109      115
     182     25       61       62       63       64
     183     26       61       62       63      146
     184     14       62       61       60       65
     185     21       62       61       60      109
     186     25       62       63       64       65
     187     28       62       63       64       68
     188     29       62       63      146      147
     189     29       62       63      146      151
     190     31       63       62       61       66
     191     31       63       64       65       69
     192     26       63      146      147      148
     193     33       63      146      147      152
     194     26       63      146      151      150
     195     33       63      146      151      156
     196     28       64       63       62       67
     197     29       64       63      146      147
     198     29       64       63      146      151
     199     21       64       65       60      109
     200     16       65       60       61       66
     201     19       65       60      109      107
     202     20       65       60      109      114
     203     20       65       60      109      115
     204     26       65       64       63      146
     205     34       66       61       60      109
     206     54       66       61       62       67
     207     33       67       62       63      146
     208     33       68       64       63      146
     209     54       68       64       65       69
     210     34       69       65       60      109
     211      3       70       71       72       73
     212      6       70       71       72       77
     213      3       70       75       74       73
     214      6       70       75       74       78
     215     13       70      137      133      134
     216     13       70      137      133      135
     217     12       70      137      133      136
     218     14       71       70       75       74
     219     16       71       70       75       79
     220     19       71       70      137      133
     221     20       71       70      137      144
     222     20       71       70      137      145
     223     14       71       72       73       74
     224     14       72       71       70       75
     225     21       72       71       70      137
     226     14       72       73       74       75
     227     16       72       73       74       78
     228      6       73       72       71       76
     229      6       73       74       75       79
     230     16       74       73       72       77
     231     21       74       75       70      137
     232     16       75       70       71       76
     233     19       75       70      137      133
     234     20       75       70      137      144
     235     20       75       70      137      145
     236     34       76       71       70      137
     237     54       76       71       72       77
     238     54       78       74       75       79
     239     34       79       75       70      137
     240     15       80       81       82       83
     241     30       80       81       82      108
     242     15       80       85       84       83
     243     30       80       85       84      121
     244      7       81       80       85       84
     245     28       81       80       85       88
     246      1       81       82       83       84
     247     16       81       82       83       87
     248     19       81       82      108      107
     249     20       81       82      108      112
     250     20       81       82      108      113
     251      7       82       81       80       85
     252      1       82       83       84       85
     253      2       82       83       84      121
     254     12       82      108      107      109
     255     12       82      108      107      110
     256     12       82      108      107      111
     257     16       83       82       81       86
     258     19       83       82      108      107
     259     20       83       82      108      112
     260     20       83       82      108      113
     261     16       83       84       85       88
     262     19       83       84      121      120
     263     20       83       84      121      125
     264     20       83       84      121      126
     265      2       84       83       82      108
     266     12       84      121      120      122
     267     13       84      121      120      123
     268     13       84      121      120      124
     269     28       85       80       81       86
     270     16       85       84       83       87
     271     19       85       84      121      120
     272     20       85       84      121      125
     273     20       85       84      121      126
     274     34       86       81       82      108
     275     34       87       83       82      108
     276     34       87       83       84      121
     277     34       88       85       84      121
     278      7       89       90       91       92
     279      8       89       90       91      157
     280      7       89       94       93       92
     281      8       89       94       93      168
     282     12       89      110      107      108
     283     12       89      110      107      109
     284     12       89      110      107      111
     285     15       90       89       94       93
     286     16       90       89       94       97
     287     19       90       89      110      107
     288     20       90       89      110      116
     289     20       90       89      110      117
     290     27       90       91       92       93
     291     28       90       91       92       96
     292     29       90       91      157      158
     293     29       90       91      157      162
     294     15       91       90       89       94
     295     30       91       90       89      110
     296     27       91       92       93       94
     297     32       91       92       93      168
     298     26       91      157      158      159
     299     33       91      157      158      163
     300     26       91      157      162      161
     301     33       91      157      162      167
     302     28       92       91       90       95
     303     29       92       91      157      158
     304     29       92       91      157      162
     305     28       92       93       94       97
     306     29       92       93      168      169
     307     29       92       93      168      173
     308     32       93       92       91      157
     309     30       93       94       89      110
     310     26       93      168      169      170
     311     33       93      168      169      174
     312     26       93      168      173      172
     313     33       93      168      173      178
     314     16       94       89       90       95
     315     19       94       89      110      107
     316     20       94       89      110      116
     317     20       94       89      110      117
     318     28       94       93       92       96
     319     29       94       93      168      169
     320     29       94       93      168      173
     321     34       95       90       89      110
     322     33       95       90       91      157
     323     33       96       92       91      157
     324     33       96       92       93      168
     325     34       97       94       89      110
     326     33       97       94       93      168
     327      1       98       99      100      101
     328      1       98      103      102      101
     329      2       98      103      102      202
     330     12       98      111      107      108
     331     12       98      111      107      109
     332     12       98      111      107      110
     333      1       99       98      103      102
     334     16       99       98      103      106
     335     19       99       98      111      107
     336     20       99       98      111      118
     337     20       99       98      111      119
     338      1       99      100      101      102
     339     16       99      100      101      105
     340      1      100       99       98      103
     341      2      100       99       98      111
     342      1      100      101      102      103
     343      2      100      101      102      202
     344     16      101      100       99      104
     345     16      101      102      103      106
     346     18      101      102      202      201
     347     20      101      102      202      206
     348     20      101      102      202      207
     349      2      102      103       98      111
     350     10      102      202      201      203
     351     10      102      202      201      204
     352     11      102      202      201      205
     353     16      103       98       99      104
     354     19      103       98      111      107
     355     20      103       98      111      118
     356     20      103       98      111      119
     357     16      103      102      101      105
     358     18      103      102      202      201
     359     20      103      102      202      206
     360     20      103      102      202      207
     361     34      104       99       98      111
     362     34      105      101      102      202
     363     34      106      103       98      111
     364     34      106      103      102      202
     365     37      108      107      109      114
     366     37      108      107      109      115
     367     37      108      107      110      116
     368     37      108      107      110      117
     369     37      108      107      111      118
     370     37      108      107      111      119
     371     37      109      107      108      112
     372     37      109      107      108      113
     373     37      109      107      110      116
     374     37      109      107      110      117
     375     37      109      107      111      118
     376     37      109      107      111      119
     377     37      110      107      108      112
     378     37      110      107      108      113
     379     37      110      107      109      114
     380     37      110      107      109      115
     381     37      110      107      111      118
     382     37      110      107      111      119
     383     37      111      107      108      112
     384     37      111      107      108      113
     385     37      111      107      109      114
     386     37      111      107      109      115
     387     37      111      107      110      116
     388     37      111      107      110      117
     389     19      120      122      179      180
     390     19      120      122      179      184
     391     52      120      124      134      133
     392     53      120      124      134      138
     393     53      120      124      134      139
     394     37      121      120      122      127
     395     37      121      120      122      128
     396     12      121      120      122      179
     397     39      121      120      123      129
     398     39      121      120      123      130
     399     39      121      120      124      131
     400     39      121      120      124      132
     401     38      121      120      124      134
     402     37      122      120      121      125
     403     37      122      120      121      126
     404     39      122      120      123      129
     405     39      122      120      123      130
     406     39      122      120      124      131
     407     39      122      120      124      132
     408     38      122      120      124      134
     409     21      122      179      180      181
     410     34      122      179      180      185
     411     21      122      179      184      183
     412     34      122      179      184      189
     413     49      123      120      121      125
     414     49      123      120      121      126
     415     49      123      120      122      127
     416     49      123      120      122      128
     417     13      123      120      122      179
     418     50      123      120      124      131
     419     50      123      120      124      132
     420     46      123      120      124      134
     421     49      124      120      121      125
     422     49      124      120      121      126
     423     49      124      120      122      127
     424     49      124      120      122      128
     425     13      124      120      122      179
     426     50      124      120      123      129
     427     50      124      120      123      130
     428     46      124      134      133      135
     429     38      124      134      133      136
     430     38      124      134      133      137
     431     20      127      122      179      180
     432     20      127      122      179      184
     433     20      128      122      179      180
     434     20      128      122      179      184
     435     53      131      124      134      133
     436     58      131      124      134      138
     437     58      131      124      134      139
     438     53      132      124      134      133
     439     58      132      124      134      138
     440     58      132      124      134      139
     441     19      133      136      190      191
     442     19      133      136      190      195
     443     50      134      133      135      140
     444     50      134      133      135      141
     445     49      134      133      136      142
     446     49      134      133      136      143
     447     13      134      133      136      190
     448     49      134      133      137      144
     449     49      134      133      137      145
     450     50      135      133      134      138
     451     50      135      133      134      139
     452     49      135      133      136      142
     453     49      135      133      136      143
     454     13      135      133      136      190
     455     49      135      133      137      144
     456     49      135      133      137      145
     457     39      136      133      134      138
     458     39      136      133      134      139
     459     39      136      133      135      140
     460     39      136      133      135      141
     461     37      136      133      137      144
     462     37      136      133      137      145
     463     21      136      190      191      192
     464     34      136      190      191      196
     465     21      136      190      195      194
     466     34      136      190      195      200
     467     39      137      133      134      138
     468     39      137      133      134      139
     469     39      137      133      135      140
     470     39      137      133      135      141
     471     37      137      133      136      142
     472     37      137      133      136      143
     473     12      137      133      136      190
     474     20      142      136      190      191
     475     20      142      136      190      195
     476     20      143      136      190      191
     477     20      143      136      190      195
     478     23      146      147      148      149
     479     31      146      147      148      153
     480     23      146      151      150      149
     481     31      146      151      150      155
     482     25      147      146      151      150
     483     28      147      146      151      156
     484     22      147      148      149      150
     485     24      147      148      149      154
     486     25      148      147      146      151
     487     22      148      149      150      151
     488     24      148      149      150      155
     489     24      149      148      147      152
     490     24      149      150      151      156
     491     24      150      149      148      153
     492     28      151      146      147      152
     493     24      151      150      149      154
     494     54      152      147      148      153
     495     54      153      148      149      154
     496     54      154      149      150      155
     497     54      155      150      151      156
     498     23      157      158      159      160
     499     31      157      158      159      164
     500     23      157      162      161      160
     501     31      157      162      161      166
     502     25      158      157      162      161
     503     28      158      157      162      167
     504     22      158      159      160      161
     505     24      158      159      160      165
     506     25      159      158      157      162
     507     22      159      160      161      162
     508     24      159      160      161      166
     509     24      160      159      158      163
     510     24      160      161      162      167
     511     24      161      160      159      164
     512     28      162      157      158      163
     513     24      162      161      160      165
     514     54      163      158      159      164
     515     54      164      159      160      165
     516     54      165      160      161      166
     517     54      166      161      162      167
     518     23      168      169      170      171
     519     31      168      169      170      175
     520     23      168      173      172      171
     521     31      168      173      172      177
     522     25      169      168      173      172
     523     28      169      168      173      178
     524     22      169      170      171      172
     525     24      169      170      171      176
     526     25      170      169      168      173
     527     22      170      171      172      173
     528     24      170      171      172      177
     529     24      171      170      169      174
     530     24      171      172      173      178
     531     24      172      171      170      175
     532     28      173      168      169      174
     533     24      173      172      171      176
     534     54      174      169      170      175
     535     54      175      170      171      176
     536     54      176      171      172      177
     537     54      177      172      173      178
     538      4      179      180      181      182
     539      6      179      180      181      186
     540      4      179      184      183      182
     541      6      179      184      183      188
     542     14      180      179      184      183
     543     16      180      179      184      189
     544     22      180      181      182      183
     545     24      180      181      182      187
     546     14      181      180      179      184
     547     22      181      182      183      184
     548     24      181      182      183      188
     549     24      182      181      180      185
     550     24      182      183      184      189
     551     24      183      182      181      186
     552     16      184      179      180      185
     553     24      184      183      182      187
     554     54      185      180      181      186
     555     54      186      181      182      187
     556     54      187      182      183      188
     557     54      188      183      184      189
     558      4      190      191      192      193
     559      6      190      191      192      197
     560      4      190      195      194      193
     561      6      190      195      194      199
     562     14      191      190      195      194
     563     16      191      190      195      200
     564     22      191      192      193      194
     565     24      191      192      193      198
     566     14      192      191      190      195
     567     22      192      193      194      195
     568     24      192      193      194      199
     569     24      193      192      191      196
     570     24      193      194      195      200
     571     24      194      193      192      197
     572     16      195      190      191      196
     573     24      195      194      193      198
     574     54      196      191      192      197
     575     54      197      192      193      198
     576     54      198      193      194      199
     577     54      199      194      195      200
     578     36      202      201      203      208
     579     36      202      201      203      209
     580     36      202      201      204      210
     581     36      202      201      204      211
     582     47      203      201      202      206
     583     47      203      201      202      207
     584     48      203      201      204      210
     585     48      203      201      204      211
     586     47      204      201      202      206
     587     47      204      201      202      207
     588     48      204      201      203      208
     589     48      204      201      203      209
     590     56      205      201      202      206
     591     56      205      201      202      207
     592     59      205      201      203      208
     593     59      205      201      203      209
     594     59      205      201      204      210
     595     59      205      201      204      211

Impropers

       1      1        2       50       51       55
       2      3       50       51       52       56
       3      6       51       52       53       57
       4      8       52       53       54       80
       5      6       53       54       55       58
       6      3       50       55       54       59
       7      1       61       60       65      109
       8      3       60       61       62       66
       9      6       61       62       63       67
      10      8       62       63       64      146
      11      6       63       64       65       68
      12      3       60       65       64       69
      13      1       71       70       75      137
      14      3       70       71       72       76
      15      3       71       72       73       77
      16      1       44       73       72       74
      17      3       73       74       75       78
      18      3       70       75       74       79
      19      8       53       80       81       85
      20      4       80       81       82       86
      21      1       81       82       83      108
      22      2       82       83       84       87
      23      1       83       84       85      121
      24      4       80       85       84       88
      25      1       90       89       94      110
      26      4       89       90       91       95
      27      8       90       91       92      157
      28      7       91       92       93       96
      29      8       92       93       94      168
      30      4       89       94       93       97
      31      1       99       98      103      111
      32      2       98       99      100      104
      33      1        9      100       99      101
      34      2      100      101      102      105
      35      1      101      102      103      202
      36      2       98      103      102      106
      37      8       63      146      147      151
      38      6      146      147      148      152
      39      5      147      148      149      153
      40      5      148      149      150      154
      41      5      149      150      151      155
      42      6      146      151      150      156
      43      8       91      157      158      162
      44      6      157      158      159      163
      45      5      158      159      160      164
      46      5      159      160      161      165
      47      5      160      161      162      166
      48      6      157      162      161      167
      49      8       93      168      169      173
      50      6      168      169      170      174
      51      5      169      170      171      175
      52      5      170      171      172      176
      53      5      171      172      173      177
      54      6      168      173      172      178
      55      1      122      179      180      184
      56      3      179      180      181      185
      57      5      180      181      182      186
      58      5      181      182      183      187
      59      5      182      183      184      188
      60      3      179      184      183      189
      61      1      136      190      191      195
      62      3      190      191      192      196
      63      5      191      192      193      197
      64      5      192      193      194      198
      65      5      193      194      195      199
      66      3      190      195      194      200

