LAMMPS data file generated by clean-room 1-hop pipeline

     262 atoms
     269 bonds
     504 angles
     743 dihedrals
      48 impropers

      10 atom types
      20 bond types
      48 angle types
      85 dihedral types
       8 improper types

  -27.761100    33.344100 xlo xhi
  -33.007200    29.712700 ylo yhi
  -32.735300    32.662200 zlo zhi

Masses

       1    12.011000
       2    12.011000
       3    12.011000
       4    12.011000
       5    12.011000
       6    12.011000
       7    12.011000
       8    12.011000
       9     1.008000
      10     1.008000

Pair Coeffs

       1     0.070000     3.550000
       2     0.070000     3.550000
       3     0.070000     3.550000
       4     0.066000     3.500000
       5     0.066000     3.500000
       6     0.066000     3.500000
       7     0.066000     3.500000
       8     0.066000     3.500000
       9     0.030000     2.420000
      10     0.030000     2.500000

Bond Coeffs

       1   469.000000     1.400000
       2   469.000000     1.400000
       3   317.000000     1.510000
       4   469.000000     1.400000
       5   469.000000     1.400000
       6   367.000000     1.080000
       7   385.000000     1.460000
       8   268.000000     1.529000
       9   268.000000     1.529000
      10   268.000000     1.529000
      11   268.000000     1.529000
      12   268.000000     1.529000
      13   340.000000     1.090000
      14   268.000000     1.529000
      15   340.000000     1.090000
      16   268.000000     1.529000
      17   268.000000     1.529000
      18   268.000000     1.529000
      19   340.000000     1.090000
      20   340.000000     1.090000

Angle Coeffs

       1    63.000000   120.000000
       2    70.000000   120.000000
       3    63.000000   120.000000
       4    63.000000   120.000000
       5    63.000000   120.000000
       6    35.000000   120.000000
       7    63.000000   114.000000
       8    63.000000   114.000000
       9    63.000000   114.000000
      10    63.000000   114.000000
      11    63.000000   114.000000
      12    35.000000   109.500000
      13    63.000000   120.000000
      14    70.000000   120.000000
      15    63.000000   120.000000
      16    63.000000   120.000000
      17    35.000000   120.000000
      18    63.000000   120.000000
      19    63.000000   120.000000
      20    35.000000   120.000000
      21    37.500000   110.700000
      22    37.500000   110.700000
      23    58.350000   112.700000
      24    37.500000   110.700000
      25    58.350000   112.700000
      26    58.350000   112.700000
      27    37.500000   110.700000
      28    58.350000   112.700000
      29    58.350000   112.700000
      30    37.500000   110.700000
      31    58.350000   112.700000
      32    37.500000   110.700000
      33    37.500000   110.700000
      34    37.500000   110.700000
      35    58.350000   112.700000
      36    58.350000   112.700000
      37    58.350000   112.700000
      38    37.500000   110.700000
      39    58.350000   112.700000
      40    37.500000   110.700000
      41    58.350000   112.700000
      42    37.500000   110.700000
      43    37.500000   110.700000
      44    37.500000   110.700000
      45    37.500000   110.700000
      46    33.000000   107.800000
      47    33.000000   107.800000
      48    33.000000   107.800000

Dihedral Coeffs

       1     0.000000     7.250000     0.000000     0.000000
       2     0.000000     7.250000     0.000000     0.000000
       3    -0.250000     0.000000     0.000000     0.000000
       4    -0.250000     0.000000     0.000000     0.000000
       5    -0.250000     0.000000     0.000000     0.000000
       6     0.000000     0.000000     0.000000     0.000000
       7     0.000000     7.250000     0.000000     0.000000
       8     0.000000     7.250000     0.000000     0.000000
       9     0.000000     7.250000     0.000000     0.000000
      10     0.000000     7.250000     0.000000     0.000000
      11     0.000000     7.250000     0.000000     0.000000
      12     0.000000     7.250000     0.000000     0.000000
      13     0.000000     7.250000     0.000000     0.000000
      14     0.000000     0.000000     0.000000     0.000000
      15     0.000000     0.000000     0.462000     0.000000
      16     0.000000     0.000000     0.462000     0.000000
      17     0.000000     0.000000     0.000000     0.000000
      18     0.000000     0.000000     0.462000     0.000000
      19     0.000000     0.000000     0.000000     0.000000
      20     0.000000     0.000000     0.000000     0.000000
      21     0.000000     0.000000     0.462000     0.000000
      22     0.000000     0.000000     0.000000     0.000000
      23     0.000000     0.000000     0.000000     0.000000
      24     0.000000     7.250000     0.000000     0.000000
      25     0.000000     7.250000     0.000000     0.000000
      26     0.000000     7.250000     0.000000     0.000000
      27     0.000000     7.250000     0.000000     0.000000
      28     0.000000     7.250000     0.000000     0.000000
      29    -0.250000     0.000000     0.000000     0.000000
      30    -0.250000     0.000000     0.000000     0.000000
      31    -0.250000     0.000000     0.000000     0.000000
      32    -0.250000     0.000000     0.000000     0.000000
      33    -0.250000     0.000000     0.000000     0.000000
      34     0.000000     0.000000     0.000000     0.000000
      35     0.000000     7.250000     0.000000     0.000000
      36     0.000000     7.250000     0.000000     0.000000
      37     0.000000     7.250000     0.000000     0.000000
      38     0.000000     7.250000     0.000000     0.000000
      39     0.000000     7.250000     0.000000     0.000000
      40     0.000000     7.250000     0.000000     0.000000
      41     0.000000     7.250000     0.000000     0.000000
      42     0.000000     1.650000     0.000000    -0.050000
      43     0.000000     7.250000     0.000000     0.000000
      44     0.000000     7.250000     0.000000     0.000000
      45     0.000000     7.250000     0.000000     0.000000
      46     0.000000     7.250000     0.000000     0.000000
      47     0.000000     7.250000     0.000000     0.000000
      48     0.000000     7.250000     0.000000     0.000000
      49     0.850000    -0.200000     0.200000     0.000000
      50     0.850000    -0.200000     0.200000     0.000000
      51     0.000000     0.000000     0.300000     0.000000
      52     0.000000     0.000000     0.300000     0.000000
      53     0.850000    -0.200000     0.200000     0.000000
      54     0.000000     0.000000     0.300000     0.000000
      55     0.000000     0.000000     0.300000     0.000000
      56     0.850000    -0.200000     0.200000     0.000000
      57     0.000000     0.000000     0.300000     0.000000
      58     0.850000    -0.200000     0.200000     0.000000
      59     0.850000    -0.200000     0.200000     0.000000
      60     0.850000    -0.200000     0.200000     0.000000
      61     0.000000     0.000000     0.300000     0.000000
      62     0.000000     0.000000     0.300000     0.000000
      63     0.000000     0.000000     0.300000     0.000000
      64     0.850000    -0.200000     0.200000     0.000000
      65     0.850000    -0.200000     0.200000     0.000000
      66     0.000000     0.000000     0.300000     0.000000
      67     0.850000    -0.200000     0.200000     0.000000
      68     0.000000     0.000000     0.300000     0.000000
      69     0.850000    -0.200000     0.200000     0.000000
      70     0.000000     0.000000     0.300000     0.000000
      71     0.000000     0.000000     0.300000     0.000000
      72     0.000000     0.000000     0.300000     0.000000
      73     0.000000     0.000000     0.300000     0.000000
      74     0.850000    -0.200000     0.200000     0.000000
      75     0.850000    -0.200000     0.200000     0.000000
      76     0.000000     0.000000     0.300000     0.000000
      77     0.000000     0.000000     0.300000     0.000000
      78     0.000000     7.250000     0.000000     0.000000
      79     0.000000     0.000000     0.300000     0.000000
      80     0.000000     0.000000     0.300000     0.000000
      81     0.000000     0.000000     0.300000     0.000000
      82     0.000000     0.000000     0.300000     0.000000
      83     0.000000     0.000000     0.300000     0.000000
      84     0.000000     0.000000     0.300000     0.000000
      85     0.000000     0.000000     0.300000     0.000000

Improper Coeffs

       1     2.500000   -1    2
       2     2.500000   -1    2
       3     2.500000   -1    2
       4     2.500000   -1    2
       5     2.500000   -1    2
       6     2.500000   -1    2
       7     2.500000   -1    2
       8     2.500000   -1    2

Atoms

       1    1      5  -0.26304646    -2.319400     7.294000    -4.565500
       2    1      6  -0.19239509    -2.873600     6.113500    -5.385300
       3    1     10   0.09881450    -1.183600     7.213000    -4.505100
       4    1     10   0.09881450    -2.607600     8.284400    -5.051700
       5    1     10   0.09881450    -2.756600     7.245600    -3.513900
       6    1     10   0.09881450    -4.010900     6.180100    -5.429700
       7    1     10   0.09881450    -2.447600     6.135800    -6.442300
       8    1      5  -0.26304646    -0.551000     6.629400    -1.814300
       9    1      6  -0.19239509     0.550200     6.130800    -0.858100
      10    1     10   0.09881450    -0.967000     7.620900    -1.435100
      11    1     10   0.09881450    -0.113900     6.772900    -2.857600
      12    1     10   0.09881450    -1.388800     5.857300    -1.859700
      13    1     10   0.09881450     0.104500     5.985800     0.178800
      14    1     10   0.09881450     1.389900     6.899900    -0.816200
      15    1      5  -0.26304646     4.394000     8.455000    -0.531400
      16    1      6  -0.19239509     4.089500     7.789400     0.823000
      17    1     10   0.09881450     5.320300     9.112000    -0.432500
      18    1     10   0.09881450     4.580000     7.650800    -1.317500
      19    1     10   0.09881450     3.504900     9.095600    -0.845600
      20    1     10   0.09881450     3.921100     8.601400     1.600900
      21    1     10   0.09881450     4.980100     7.150800     1.137500
      22    1      5  -0.26304646     6.637700     8.666100     4.249900
      23    1      6  -0.19239509     5.199200     9.087700     3.897100
      24    1     10   0.09881450     6.625400     8.055600     5.212500
      25    1     10   0.09881450     7.074500     8.036600     3.405700
      26    1     10   0.09881450     7.277200     9.597900     4.399400
      27    1     10   0.09881450     5.208100     9.706200     2.939200
      28    1     10   0.09881450     4.769300     9.712700     4.748100
      29    1      5  -0.26304646    -2.275700    -7.296200     5.639100
      30    1      4  -0.14399767    -1.118300    -6.314100     5.375800
      31    1     10   0.09881450    -3.210800    -6.933200     5.097100
      32    1     10   0.09881450    -1.991100    -8.330900     5.254100
      33    1     10   0.09881450    -2.480400    -7.348100     6.759400
      34    1     10   0.09881450    -0.180600    -6.671700     5.917100
      35    1     10   0.09881450    -1.402400    -5.277000     5.755400
      36    1      5  -0.26304646    -2.702500   -12.016900     1.409400
      37    1      6  -0.19239509    -1.738800   -11.079900     0.657200
      38    1     10   0.09881450    -2.784200   -13.007200     0.850500
      39    1     10   0.09881450    -2.302400   -12.205800     2.460100
      40    1     10   0.09881450    -3.732000   -11.531600     1.476900
      41    1     10   0.09881450    -2.130100   -10.889100    -0.396500
      42    1     10   0.09881450    -0.709500   -11.566300     0.598900
      43    1      5  -0.26304646     1.233300    -0.526600     6.880000
      44    1      6  -0.19239509     0.584600    -1.764900     6.223700
      45    1     10   0.09881450     2.367300    -0.548000     6.786000
      46    1     10   0.09881450     0.833400     0.418000     6.382500
      47    1     10   0.09881450     0.959100    -0.511300     7.986300
      48    1     10   0.09881450     0.968200    -2.707200     6.732900
      49    1     10   0.09881450    -0.539000    -1.675000     6.394200
      50    1      5  -0.26304646     1.791200    -5.268200    10.917500
      51    1      4  -0.14399767     0.916900    -5.975500     9.868500
      52    1     10   0.09881450     2.888400    -5.502500    10.715900
      53    1     10   0.09881450     1.626000    -4.142300    10.853700
      54    1     10   0.09881450     1.507600    -5.635500    11.958500
      55    1     10   0.09881450    -0.180500    -5.738100    10.066300
      56    1     10   0.09881450     1.080600    -7.101700     9.928800
      57    1      5  -0.26304646    -2.995000    -0.042300    -6.424800
      58    1      6  -0.19239509    -3.607600    -0.060600    -5.022400
      59    1     10   0.09881450    -2.422700    -1.017900    -6.524400
      60    1     10   0.09881450    -3.811500     0.024100    -7.217900
      61    1     10   0.09881450    -2.276200     0.837100    -6.523800
      62    1     10   0.09881450    -4.164800     0.916400    -4.835800
      63    1     10   0.09881450    -4.331700    -0.933500    -4.916600
      64    1      5  -0.26304646     0.869200    -1.225100   -11.595600
      65    1      4  -0.14399767    -0.449300    -1.810900   -11.058200
      66    1     10   0.09881450     0.859300    -1.252700   -12.735300
      67    1     10   0.09881450     0.973100    -0.146800   -11.241000
      68    1     10   0.09881450     1.746200    -1.840900   -11.206800
      69    1     10   0.09881450    -0.557800    -2.888800   -11.413200
      70    1     10   0.09881450    -1.324200    -1.193200   -11.449200
      71    1      5  -0.26304646    -3.167100    -1.868700   -10.257100
      72    1      6  -0.19239509    -3.965200    -2.377600    -9.041800
      73    1     10   0.09881450    -3.874700    -1.689600   -11.133000
      74    1     10   0.09881450    -2.644200    -0.893700    -9.981700
      75    1     10   0.09881450    -2.386300    -2.646300   -10.549900
      76    1     10   0.09881450    -4.483600    -3.357600    -9.307800
      77    1     10   0.09881450    -4.746200    -1.600900    -8.747000
      78    1      5  -0.26304646    -7.130600    -2.057800    -5.033900
      79    1      6  -0.19239509    -5.892500    -2.940500    -5.283600
      80    1     10   0.09881450    -7.761100    -2.516100    -4.202100
      81    1     10   0.09881450    -6.799300    -1.010500    -4.728900
      82    1     10   0.09881450    -7.748700    -1.997400    -5.990100
      83    1     10   0.09881450    -5.265700    -3.007200    -4.333100
      84    1     10   0.09881450    -6.227800    -3.984700    -5.594700
      85    1      6  -0.19239509    -2.463500     4.803300    -4.689800
      86    1      6  -0.19239509    -0.928100     4.683500    -4.639200
      87    1     10   0.09881450    -2.887800     3.913100    -5.261900
      88    1     10   0.09881450    -2.878500     4.802200    -3.627900
      89    1     10   0.09881450    -0.484700     5.580900    -4.092900
      90    1     10   0.09881450    -0.509400     4.627900    -5.698200
      91    1      6  -0.19239509    -0.606400     3.394300    -3.863500
      92    1      4  -0.14399767     0.898800     3.085900    -3.744800
      93    1     10   0.09881450    -1.111500     2.509700    -4.375900
      94    1     10   0.09881450    -1.032900     3.504600    -2.811800
      95    1     10   0.09881450     1.457600     3.942900    -3.247500
      96    1     10   0.09881450     1.349600     2.863400    -4.768000
      97    1      6  -0.19239509     2.897900     8.295600     3.326800
      98    1      6  -0.19239509     4.322100     7.838000     3.690600
      99    1     10   0.09881450     2.934700     8.940800     2.388900
     100    1     10   0.09881450     2.464400     8.916200     4.178900
     101    1     10   0.09881450     4.748900     7.209000     2.840900
     102    1     10   0.09881450     4.297600     7.220300     4.648600
     103    1      4  -0.14399767    -0.682400    -8.782700     0.688700
     104    1      6  -0.19239509    -1.636300    -9.746800     1.420200
     105    1     10   0.09881450     0.358000    -9.244200     0.625000
     106    1     10   0.09881450    -1.075100    -8.568000    -0.359800
     107    1     10   0.09881450    -1.232900    -9.942500     2.468400
     108    1     10   0.09881450    -2.670300    -9.272900     1.497500
     109    1      4  -0.14399767     7.801500     1.231400     5.195900
     110    1      4  -0.14399767     8.853500     1.083600     6.316200
     111    1     10   0.09881450     8.295900     1.247700     4.168800
     112    1     10   0.09881450     7.155900     2.156900     5.355300
     113    1     10   0.09881450     9.417600     0.110300     6.133000
     114    1     10   0.09881450     8.300600     0.992900     7.309300
     115    1      1  -0.09152059     0.912300     1.842900    -2.840600
     116    1      1  -0.09152059     1.670500     1.853100    -1.500100
     117    1      2  -0.15150823     1.399800     0.741900    -0.461700
     118    1      1  -0.09152059     0.409100    -0.393700    -0.794200
     119    1      1  -0.09152059    -0.197200    -0.489800    -2.211900
     120    1      2  -0.15150823     0.064600     0.626600    -3.233000
     121    1      9   0.16386695     1.893100     0.787800     0.565000
     122    1      9   0.16386695    -0.407800     0.572800    -4.269300
     123    1      7  -0.12614171     2.245000     4.205300    -0.547200
     124    1      4  -0.14399767     2.749700     2.925600    -1.244300
     125    1      6  -0.19239509     1.101400     4.798200    -1.397600
     126    1      6  -0.19239509     1.839400     3.860900     0.899300
     127    1     10   0.09881450     3.123200     4.927000    -0.515300
     128    1     10   0.09881450     3.592400     2.475400    -0.622500
     129    1     10   0.09881450     3.165400     3.226900    -2.262100
     130    1     10   0.09881450     1.506100     4.998500    -2.443400
     131    1     10   0.09881450     0.253700     4.038500    -1.464600
     132    1     10   0.09881450     0.972300     3.122300     0.857600
     133    1     10   0.09881450     2.728700     3.351100     1.398300
     134    1      7  -0.12614171     2.525700     6.129300     1.982000
     135    1      6  -0.19239509     1.426300     5.059800     1.783500
     136    1      6  -0.19239509     2.847700     6.886800     0.676200
     137    1      6  -0.19239509     1.980800     7.088900     3.060000
     138    1     10   0.09881450     3.475000     5.627400     2.364700
     139    1     10   0.09881450     0.496100     5.560700     1.360400
     140    1     10   0.09881450     1.168500     4.635900     2.809900
     141    1     10   0.09881450     1.942400     7.500700     0.355900
     142    1     10   0.09881450     3.092100     6.138800    -0.142300
     143    1     10   0.09881450     0.964400     7.483300     2.726700
     144    1     10   0.09881450     1.851100     6.494900     4.024100
     145    1      7  -0.12614171     0.494200    -2.601300     0.790300
     146    1      4  -0.14399767    -0.170800    -1.291600     0.317600
     147    1      4  -0.14399767    -0.779300    -3.460700     0.916100
     148    1      6  -0.19239509     1.034000    -2.622500     2.238800
     149    1     10   0.09881450     1.200100    -3.063800     0.023600
     150    1     10   0.09881450    -1.130800    -1.659100    -0.175100
     151    1     10   0.09881450    -0.489100    -0.681100     1.226400
     152    1     10   0.09881450    -1.514700    -2.866200     1.552800
     153    1     10   0.09881450    -1.240000    -3.613600    -0.115600
     154    1     10   0.09881450     0.150100    -2.287200     2.874400
     155    1     10   0.09881450     1.240400    -3.717800     2.474800
     156    1      7  -0.12614171    -3.817800    -3.190100    -6.688800
     157    1      6  -0.19239509    -2.999900    -3.593900    -5.433900
     158    1      6  -0.19239509    -3.005500    -2.609100    -7.860900
     159    1      6  -0.19239509    -5.051000    -2.313500    -6.409300
     160    1     10   0.09881450    -4.207700    -4.179400    -7.099500
     161    1     10   0.09881450    -3.633500    -4.432500    -4.992400
     162    1     10   0.09881450    -2.043000    -4.071700    -5.829200
     163    1     10   0.09881450    -2.486200    -1.630200    -7.614800
     164    1     10   0.09881450    -2.226900    -3.380700    -8.167000
     165    1     10   0.09881450    -4.727500    -1.266600    -6.111500
     166    1     10   0.09881450    -5.674500    -2.237800    -7.360800
     167    1      1  -0.09152059    -0.605500    -4.816600     1.623900
     168    1      2  -0.15150823    -0.719800    -4.885800     3.159300
     169    1      1  -0.09152059    -0.847300    -6.249700     3.861700
     170    1      2  -0.15150823    -0.808000    -7.546500     3.036200
     171    1      1  -0.09152059    -0.630700    -7.481600     1.508400
     172    1      2  -0.15150823    -0.544200    -6.116100     0.798800
     173    1      9   0.16386695    -0.754400    -3.924300     3.771800
     174    1      9   0.16386695    -0.928500    -8.555900     3.552800
     175    1      9   0.16386695    -0.467900    -6.068200    -0.337600
     176    1      1  -0.09152059     4.719700    -1.456500     5.324900
     177    1      2  -0.15150823     5.379500    -2.562700     6.187800
     178    1      3  -0.04324559     6.815700    -2.369600     6.719100
     179    1      2  -0.15150823     7.613500    -1.123400     6.327700
     180    1      1  -0.09152059     6.998200    -0.060000     5.414200
     181    1      2  -0.15150823     5.554000    -0.227200     4.896700
     182    1      9   0.16386695     4.773800    -3.469300     6.508600
     183    1      9   0.16386695     8.668300    -0.978900     6.736300
     184    1      9   0.16386695     5.075000     0.592200     4.265600
     185    1      8  -0.05266793     2.263300    -2.179000     4.256300
     186    1      6  -0.19239509     2.266300    -1.837000     2.745900
     187    1      6  -0.19239509     0.827400    -1.823900     4.698700
     188    1      4  -0.14399767     2.492600    -3.701400     4.371300
     189    1      4  -0.14399767     3.175800    -1.386900     5.221900
     190    1     10   0.09881450     2.097500    -0.720400     2.589600
     191    1     10   0.09881450     3.229400    -2.170900     2.235400
     192    1     10   0.09881450     0.129800    -2.594700     4.230300
     193    1     10   0.09881450     0.561000    -0.791300     4.296500
     194    1     10   0.09881450     1.820600    -4.217900     3.610200
     195    1     10   0.09881450     3.578600    -3.946900     4.126700
     196    1     10   0.09881450     2.897000    -0.286300     5.115500
     197    1     10   0.09881450     2.833900    -1.727800     6.254500
     198    1      8  -0.05266793    -1.697800    -1.567200    -4.017400
     199    1      4  -0.14399767    -1.139500    -1.655700    -2.576800
     200    1      6  -0.19239509    -2.504600    -0.245600    -3.971000
     201    1      4  -0.14399767    -0.431200    -1.663600    -4.901600
     202    1      6  -0.19239509    -2.625700    -2.800900    -4.148500
     203    1     10   0.09881450    -2.016400    -1.648300    -1.848900
     204    1     10   0.09881450    -0.568300    -2.634900    -2.455300
     205    1     10   0.09881450    -1.797000     0.646700    -3.980300
     206    1     10   0.09881450    -3.057700    -0.250700    -2.974300
     207    1     10   0.09881450     0.104300    -2.622500    -4.596700
     208    1     10   0.09881450     0.248200    -0.787800    -4.641100
     209    1     10   0.09881450    -3.588000    -2.546500    -3.592300
     210    1     10   0.09881450    -2.084900    -3.596200    -3.536300
     211    1      1  -0.09152059     2.109200    -4.278500     5.744700
     212    1      2  -0.15150823     3.196600    -4.757600     6.723200
     213    1      2  -0.15150823     2.799400    -5.325600     8.098200
     214    1      1  -0.09152059     1.313300    -5.471100     8.469500
     215    1      2  -0.15150823     0.225400    -5.058200     7.462300
     216    1      2  -0.15150823     0.624700    -4.483800     6.091500
     217    1      9   0.16386695     4.295800    -4.699900     6.428900
     218    1      9   0.16386695     3.605900    -5.643100     8.838700
     219    1      9   0.16386695    -0.876400    -5.181100     7.728600
     220    1      9   0.16386695    -0.181600    -4.194900     5.338800
     221    1      3  -0.04324559     7.480800    -3.340500     7.713500
     222    1      2  -0.15150823     6.980000    -4.782600     7.931700
     223    1      2  -0.15150823     7.783400    -5.740400     8.843600
     224    1      3  -0.04324559     9.039600    -5.229200     9.582400
     225    1      2  -0.15150823     9.466600    -3.761200     9.442600
     226    1      2  -0.15150823     8.710500    -2.831300     8.484700
     227    1      9   0.16386695     6.046700    -5.153100     7.391900
     228    1      9   0.16386695     7.456600    -6.826400     8.960300
     229    1      9   0.16386695    10.368200    -3.372400    10.022000
     230    1      9   0.16386695     9.060800    -1.755500     8.344500
     231    1      1  -0.09152059    -0.539900    -1.702400    -6.436900
     232    1      2  -0.15150823    -0.404900    -3.046800    -7.175100
     233    1      2  -0.15150823    -0.345200    -3.081700    -8.714400
     234    1      1  -0.09152059    -0.441900    -1.772600    -9.517800
     235    1      2  -0.15150823    -0.572700    -0.427600    -8.779800
     236    1      2  -0.15150823    -0.588100    -0.390200    -7.240400
     237    1      9   0.16386695    -0.342900    -4.017500    -6.581000
     238    1      9   0.16386695    -0.245600    -4.078500    -9.258500
     239    1      9   0.16386695    -0.650000     0.542400    -9.373400
     240    1      9   0.16386695    -0.652700     0.608900    -6.694900
     241    1      3  -0.04324559     9.910100    -6.174400    10.431500
     242    1      2  -0.15150823    11.078100    -5.590900    11.248600
     243    1      2  -0.15150823    11.993500    -6.522900    12.062600
     244    1      2  -0.15150823    11.747800    -8.042300    12.051600
     245    1      2  -0.15150823    10.573500    -8.625900    11.242900
     246    1      2  -0.15150823     9.644900    -7.690400    10.444100
     247    1      9   0.16386695    11.263700    -4.466100    11.250800
     248    1      9   0.16386695    12.860800    -6.089200    12.662200
     249    1      9   0.16386695    12.444300    -8.736500    12.628300
     250    1      9   0.16386695    10.402500    -9.752700    11.220400
     251    1      9   0.16386695     8.777100    -8.122500     9.844500
     252    1      1  -0.09152059     9.901900     2.201600     6.461100
     253    1      2  -0.15150823     9.709500     3.294800     7.529300
     254    1      2  -0.15150823    10.842300     4.296300     7.820400
     255    1      2  -0.15150823    12.169600     4.204400     7.044800
     256    1      2  -0.15150823    12.360200     3.117200     5.970800
     257    1      2  -0.15150823    11.227800     2.114400     5.680800
     258    1      9   0.16386695     8.735700     3.348400     8.119600
     259    1      9   0.16386695    10.701800     5.100100     8.616700
     260    1      9   0.16386695    13.012300     4.938800     7.268300
     261    1      9   0.16386695    13.344100     3.047200     5.399200
     262    1      9   0.16386695    11.378600     1.292700     4.905000

Bonds

       1     14        1        2
       2     15        1        3
       3     15        1        4
       4     15        1        5
       5     19        2        6
       6     19        2        7
       7     16        2       85
       8     14        8        9
       9     15        8       10
      10     15        8       11
      11     15        8       12
      12     19        9       13
      13     19        9       14
      14     16        9      125
      15     14       15       16
      16     15       15       17
      17     15       15       18
      18     15       15       19
      19     19       16       20
      20     19       16       21
      21     16       16      136
      22     14       22       23
      23     15       22       24
      24     15       22       25
      25     15       22       26
      26     19       23       27
      27     19       23       28
      28     16       23       98
      29      9       29       30
      30     15       29       31
      31     15       29       32
      32     15       29       33
      33     13       30       34
      34     13       30       35
      35      3       30      169
      36     14       36       37
      37     15       36       38
      38     15       36       39
      39     15       36       40
      40     19       37       41
      41     19       37       42
      42     16       37      104
      43     14       43       44
      44     15       43       45
      45     15       43       46
      46     15       43       47
      47     19       44       48
      48     19       44       49
      49     16       44      187
      50      9       50       51
      51     15       50       52
      52     15       50       53
      53     15       50       54
      54     13       51       55
      55     13       51       56
      56      3       51      214
      57     14       57       58
      58     15       57       59
      59     15       57       60
      60     15       57       61
      61     19       58       62
      62     19       58       63
      63     16       58      200
      64      9       64       65
      65     15       64       66
      66     15       64       67
      67     15       64       68
      68     13       65       69
      69     13       65       70
      70      3       65      234
      71     14       71       72
      72     15       71       73
      73     15       71       74
      74     15       71       75
      75     19       72       76
      76     19       72       77
      77     16       72      158
      78     14       78       79
      79     15       78       80
      80     15       78       81
      81     15       78       82
      82     19       79       83
      83     19       79       84
      84     16       79      159
      85     16       85       86
      86     19       85       87
      87     19       85       88
      88     19       86       89
      89     19       86       90
      90     16       86       91
      91     10       91       92
      92     19       91       93
      93     19       91       94
      94     13       92       95
      95     13       92       96
      96      3       92      115
      97     16       97       98
      98     19       97       99
      99     19       97      100
     100     16       97      137
     101     19       98      101
     102     19       98      102
     103     10      103      104
     104     13      103      105
     105     13      103      106
     106      3      103      171
     107     19      104      107
     108     19      104      108
     109      8      109      110
     110     13      109      111
     111     13      109      112
     112      3      109      180
     113     13      110      113
     114     13      110      114
     115      3      110      252
     116      1      115      116
     117      2      116      117
     118      3      116      124
     119      2      117      118
     120      6      117      121
     121      1      118      119
     122      3      118      146
     123      2      119      120
     124      3      119      199
     125      2      120      115
     126      6      120      122
     127     11      123      124
     128     17      123      125
     129     17      123      126
     130     20      123      127
     131     13      124      128
     132     13      124      129
     133     19      125      130
     134     19      125      131
     135     19      126      132
     136     19      126      133
     137     16      126      135
     138     17      134      135
     139     17      134      136
     140     17      134      137
     141     20      134      138
     142     19      135      139
     143     19      135      140
     144     19      136      141
     145     19      136      142
     146     19      137      143
     147     19      137      144
     148     11      145      146
     149     11      145      147
     150     17      145      148
     151     20      145      149
     152     13      146      150
     153     13      146      151
     154     13      147      152
     155     13      147      153
     156      3      147      167
     157     19      148      154
     158     19      148      155
     159     16      148      186
     160     17      156      157
     161     17      156      158
     162     17      156      159
     163     20      156      160
     164     19      157      161
     165     19      157      162
     166     16      157      202
     167     19      158      163
     168     19      158      164
     169     19      159      165
     170     19      159      166
     171      2      167      168
     172      2      168      169
     173      6      168      173
     174      2      169      170
     175      2      170      171
     176      6      170      174
     177      2      171      172
     178      2      172      167
     179      6      172      175
     180      2      176      177
     181      3      176      189
     182      5      177      178
     183      6      177      182
     184      5      178      179
     185      7      178      221
     186      2      179      180
     187      6      179      183
     188      2      180      181
     189      2      181      176
     190      6      181      184
     191     18      185      186
     192     18      185      187
     193     12      185      188
     194     12      185      189
     195     19      186      190
     196     19      186      191
     197     19      187      192
     198     19      187      193
     199     13      188      194
     200     13      188      195
     201      3      188      211
     202     13      189      196
     203     13      189      197
     204     12      198      199
     205     18      198      200
     206     12      198      201
     207     18      198      202
     208     13      199      203
     209     13      199      204
     210     19      200      205
     211     19      200      206
     212     13      201      207
     213     13      201      208
     214      3      201      231
     215     19      202      209
     216     19      202      210
     217      2      211      212
     218      4      212      213
     219      6      212      217
     220      2      213      214
     221      6      213      218
     222      2      214      215
     223      4      215      216
     224      6      215      219
     225      2      216      211
     226      6      216      220
     227      5      221      222
     228      4      222      223
     229      6      222      227
     230      5      223      224
     231      6      223      228
     232      5      224      225
     233      7      224      241
     234      4      225      226
     235      6      225      229
     236      5      226      221
     237      6      226      230
     238      2      231      232
     239      4      232      233
     240      6      232      237
     241      2      233      234
     242      6      233      238
     243      2      234      235
     244      4      235      236
     245      6      235      239
     246      2      236      231
     247      6      236      240
     248      5      241      242
     249      4      242      243
     250      6      242      247
     251      4      243      244
     252      6      243      248
     253      4      244      245
     254      6      244      249
     255      4      245      246
     256      6      245      250
     257      5      246      241
     258      6      246      251
     259      2      252      253
     260      4      253      254
     261      6      253      258
     262      4      254      255
     263      6      254      259
     264      4      255      256
     265      6      255      260
     266      4      256      257
     267      6      256      261
     268      2      257      252
     269      6      257      262

Angles

       1     32        1        2        6
       2     32        1        2        7
       3     31        1        2       85
       4     34        2        1        3
       5     34        2        1        4
       6     34        2        1        5
       7     35        2       85       86
       8     38        2       85       87
       9     38        2       85       88
      10     47        3        1        4
      11     47        3        1        5
      12     47        4        1        5
      13     48        6        2        7
      14     38        6        2       85
      15     38        7        2       85
      16     32        8        9       13
      17     32        8        9       14
      18     31        8        9      125
      19     34        9        8       10
      20     34        9        8       11
      21     34        9        8       12
      22     36        9      125      123
      23     38        9      125      130
      24     38        9      125      131
      25     47       10        8       11
      26     47       10        8       12
      27     47       11        8       12
      28     48       13        9       14
      29     38       13        9      125
      30     38       14        9      125
      31     32       15       16       20
      32     32       15       16       21
      33     31       15       16      136
      34     34       16       15       17
      35     34       16       15       18
      36     34       16       15       19
      37     36       16      136      134
      38     38       16      136      141
      39     38       16      136      142
      40     47       17       15       18
      41     47       17       15       19
      42     47       18       15       19
      43     48       20       16       21
      44     38       20       16      136
      45     38       21       16      136
      46     32       22       23       27
      47     32       22       23       28
      48     31       22       23       98
      49     34       23       22       24
      50     34       23       22       25
      51     34       23       22       26
      52     35       23       98       97
      53     38       23       98      101
      54     38       23       98      102
      55     47       24       22       25
      56     47       24       22       26
      57     47       25       22       26
      58     48       27       23       28
      59     38       27       23       98
      60     38       28       23       98
      61     30       29       30       34
      62     30       29       30       35
      63      8       29       30      169
      64     22       30       29       31
      65     22       30       29       32
      66     22       30       29       33
      67     14       30      169      168
      68     14       30      169      170
      69     47       31       29       32
      70     47       31       29       33
      71     47       32       29       33
      72     46       34       30       35
      73     12       34       30      169
      74     12       35       30      169
      75     32       36       37       41
      76     32       36       37       42
      77     31       36       37      104
      78     34       37       36       38
      79     34       37       36       39
      80     34       37       36       40
      81     23       37      104      103
      82     38       37      104      107
      83     38       37      104      108
      84     47       38       36       39
      85     47       38       36       40
      86     47       39       36       40
      87     48       41       37       42
      88     38       41       37      104
      89     38       42       37      104
      90     32       43       44       48
      91     32       43       44       49
      92     31       43       44      187
      93     34       44       43       45
      94     34       44       43       46
      95     34       44       43       47
      96     37       44      187      185
      97     38       44      187      192
      98     38       44      187      193
      99     47       45       43       46
     100     47       45       43       47
     101     47       46       43       47
     102     48       48       44       49
     103     38       48       44      187
     104     38       49       44      187
     105     30       50       51       55
     106     30       50       51       56
     107      8       50       51      214
     108     22       51       50       52
     109     22       51       50       53
     110     22       51       50       54
     111     14       51      214      213
     112     14       51      214      215
     113     47       52       50       53
     114     47       52       50       54
     115     47       53       50       54
     116     46       55       51       56
     117     12       55       51      214
     118     12       56       51      214
     119     32       57       58       62
     120     32       57       58       63
     121     31       57       58      200
     122     34       58       57       59
     123     34       58       57       60
     124     34       58       57       61
     125     37       58      200      198
     126     38       58      200      205
     127     38       58      200      206
     128     47       59       57       60
     129     47       59       57       61
     130     47       60       57       61
     131     48       62       58       63
     132     38       62       58      200
     133     38       63       58      200
     134     30       64       65       69
     135     30       64       65       70
     136      8       64       65      234
     137     22       65       64       66
     138     22       65       64       67
     139     22       65       64       68
     140     14       65      234      233
     141     14       65      234      235
     142     47       66       64       67
     143     47       66       64       68
     144     47       67       64       68
     145     46       69       65       70
     146     12       69       65      234
     147     12       70       65      234
     148     32       71       72       76
     149     32       71       72       77
     150     31       71       72      158
     151     34       72       71       73
     152     34       72       71       74
     153     34       72       71       75
     154     36       72      158      156
     155     38       72      158      163
     156     38       72      158      164
     157     47       73       71       74
     158     47       73       71       75
     159     47       74       71       75
     160     48       76       72       77
     161     38       76       72      158
     162     38       77       72      158
     163     32       78       79       83
     164     32       78       79       84
     165     31       78       79      159
     166     34       79       78       80
     167     34       79       78       81
     168     34       79       78       82
     169     36       79      159      156
     170     38       79      159      165
     171     38       79      159      166
     172     47       80       78       81
     173     47       80       78       82
     174     47       81       78       82
     175     48       83       79       84
     176     38       83       79      159
     177     38       84       79      159
     178     38       85       86       89
     179     38       85       86       90
     180     35       85       86       91
     181     38       86       85       87
     182     38       86       85       88
     183     23       86       91       92
     184     38       86       91       93
     185     38       86       91       94
     186     48       87       85       88
     187     48       89       86       90
     188     38       89       86       91
     189     38       90       86       91
     190     33       91       92       95
     191     33       91       92       96
     192      9       91       92      115
     193     24       92       91       93
     194     24       92       91       94
     195      2       92      115      116
     196     14       92      115      120
     197     48       93       91       94
     198     46       95       92       96
     199     12       95       92      115
     200     12       96       92      115
     201     38       97       98      101
     202     38       97       98      102
     203     36       97      137      134
     204     38       97      137      143
     205     38       97      137      144
     206     38       98       97       99
     207     38       98       97      100
     208     35       98       97      137
     209     48       99       97      100
     210     38       99       97      137
     211     38      100       97      137
     212     48      101       98      102
     213     24      103      104      107
     214     24      103      104      108
     215     14      103      171      170
     216     14      103      171      172
     217     33      104      103      105
     218     33      104      103      106
     219      9      104      103      171
     220     46      105      103      106
     221     12      105      103      171
     222     12      106      103      171
     223     48      107      104      108
     224     21      109      110      113
     225     21      109      110      114
     226      7      109      110      252
     227     14      109      180      179
     228     14      109      180      181
     229     21      110      109      111
     230     21      110      109      112
     231      7      110      109      180
     232     14      110      252      253
     233     14      110      252      257
     234     46      111      109      112
     235     12      111      109      180
     236     12      112      109      180
     237     46      113      110      114
     238     12      113      110      252
     239     12      114      110      252
     240      1      115      116      117
     241      2      115      116      124
     242      3      115      120      119
     243      6      115      120      122
     244      1      116      115      120
     245      3      116      117      118
     246      6      116      117      121
     247     10      116      124      123
     248     12      116      124      128
     249     12      116      124      129
     250     14      117      116      124
     251      1      117      118      119
     252     14      117      118      146
     253      6      118      117      121
     254      1      118      119      120
     255      2      118      119      199
     256     10      118      146      145
     257     12      118      146      150
     258     12      118      146      151
     259      2      119      118      146
     260      6      119      120      122
     261     11      119      199      198
     262     12      119      199      203
     263     12      119      199      204
     264     14      120      119      199
     265     42      123      124      128
     266     42      123      124      129
     267     43      123      125      130
     268     43      123      125      131
     269     43      123      126      132
     270     43      123      126      133
     271     36      123      126      135
     272     26      124      123      125
     273     26      124      123      126
     274     27      124      123      127
     275     39      125      123      126
     276     40      125      123      127
     277     40      126      123      127
     278     36      126      135      134
     279     38      126      135      139
     280     38      126      135      140
     281     46      128      124      129
     282     48      130      125      131
     283     48      132      126      133
     284     38      132      126      135
     285     38      133      126      135
     286     43      134      135      139
     287     43      134      135      140
     288     43      134      136      141
     289     43      134      136      142
     290     43      134      137      143
     291     43      134      137      144
     292     39      135      134      136
     293     39      135      134      137
     294     40      135      134      138
     295     39      136      134      137
     296     40      136      134      138
     297     40      137      134      138
     298     48      139      135      140
     299     48      141      136      142
     300     48      143      137      144
     301     42      145      146      150
     302     42      145      146      151
     303     42      145      147      152
     304     42      145      147      153
     305     10      145      147      167
     306     43      145      148      154
     307     43      145      148      155
     308     36      145      148      186
     309     25      146      145      147
     310     26      146      145      148
     311     27      146      145      149
     312     26      147      145      148
     313     27      147      145      149
     314     14      147      167      168
     315     14      147      167      172
     316     40      148      145      149
     317     37      148      186      185
     318     38      148      186      190
     319     38      148      186      191
     320     46      150      146      151
     321     46      152      147      153
     322     12      152      147      167
     323     12      153      147      167
     324     48      154      148      155
     325     38      154      148      186
     326     38      155      148      186
     327     43      156      157      161
     328     43      156      157      162
     329     36      156      157      202
     330     43      156      158      163
     331     43      156      158      164
     332     43      156      159      165
     333     43      156      159      166
     334     39      157      156      158
     335     39      157      156      159
     336     40      157      156      160
     337     37      157      202      198
     338     38      157      202      209
     339     38      157      202      210
     340     39      158      156      159
     341     40      158      156      160
     342     40      159      156      160
     343     48      161      157      162
     344     38      161      157      202
     345     38      162      157      202
     346     48      163      158      164
     347     48      165      159      166
     348      3      167      168      169
     349      6      167      168      173
     350      3      167      172      171
     351      6      167      172      175
     352     13      168      167      172
     353     13      168      169      170
     354      6      169      168      173
     355      3      169      170      171
     356      6      169      170      174
     357     13      170      171      172
     358      6      171      170      174
     359      6      171      172      175
     360      5      176      177      178
     361      6      176      177      182
     362      3      176      181      180
     363      6      176      181      184
     364     11      176      189      185
     365     12      176      189      196
     366     12      176      189      197
     367     13      177      176      181
     368     14      177      176      189
     369     18      177      178      179
     370     19      177      178      221
     371     20      178      177      182
     372      5      178      179      180
     373     20      178      179      183
     374     19      178      221      222
     375     19      178      221      226
     376     19      179      178      221
     377     13      179      180      181
     378      6      180      179      183
     379      6      180      181      184
     380     14      181      176      189
     381     45      185      186      190
     382     45      185      186      191
     383     45      185      187      192
     384     45      185      187      193
     385     44      185      188      194
     386     44      185      188      195
     387     11      185      188      211
     388     44      185      189      196
     389     44      185      189      197
     390     41      186      185      187
     391     29      186      185      188
     392     29      186      185      189
     393     29      187      185      188
     394     29      187      185      189
     395     28      188      185      189
     396     14      188      211      212
     397     14      188      211      216
     398     48      190      186      191
     399     48      192      187      193
     400     46      194      188      195
     401     12      194      188      211
     402     12      195      188      211
     403     46      196      189      197
     404     44      198      199      203
     405     44      198      199      204
     406     45      198      200      205
     407     45      198      200      206
     408     44      198      201      207
     409     44      198      201      208
     410     11      198      201      231
     411     45      198      202      209
     412     45      198      202      210
     413     29      199      198      200
     414     28      199      198      201
     415     29      199      198      202
     416     29      200      198      201
     417     41      200      198      202
     418     29      201      198      202
     419     14      201      231      232
     420     14      201      231      236
     421     46      203      199      204
     422     48      205      200      206
     423     46      207      201      208
     424     12      207      201      231
     425     12      208      201      231
     426     48      209      202      210
     427      4      211      212      213
     428      6      211      212      217
     429      4      211      216      215
     430      6      211      216      220
     431     13      212      211      216
     432      4      212      213      214
     433     17      212      213      218
     434     17      213      212      217
     435     13      213      214      215
     436      6      214      213      218
     437      4      214      215      216
     438      6      214      215      219
     439     17      215      216      220
     440     17      216      215      219
     441     16      221      222      223
     442     20      221      222      227
     443     16      221      226      225
     444     20      221      226      230
     445     18      222      221      226
     446     16      222      223      224
     447     17      222      223      228
     448     17      223      222      227
     449     18      223      224      225
     450     19      223      224      241
     451     20      224      223      228
     452     16      224      225      226
     453     20      224      225      229
     454     19      224      241      242
     455     19      224      241      246
     456     19      225      224      241
     457     17      225      226      230
     458     17      226      225      229
     459      4      231      232      233
     460      6      231      232      237
     461      4      231      236      235
     462      6      231      236      240
     463     13      232      231      236
     464      4      232      233      234
     465     17      232      233      238
     466     17      233      232      237
     467     13      233      234      235
     468      6      234      233      238
     469      4      234      235      236
     470      6      234      235      239
     471     17      235      236      240
     472     17      236      235      239
     473     16      241      242      243
     474     20      241      242      247
     475     16      241      246      245
     476     20      241      246      251
     477     18      242      241      246
     478     15      242      243      244
     479     17      242      243      248
     480     17      243      242      247
     481     15      243      244      245
     482     17      243      244      249
     483     17      244      243      248
     484     15      244      245      246
     485     17      244      245      250
     486     17      245      244      249
     487     17      245      246      251
     488     17      246      245      250
     489      4      252      253      254
     490      6      252      253      258
     491      4      252      257      256
     492      6      252      257      262
     493     13      253      252      257
     494     15      253      254      255
     495     17      253      254      259
     496     17      254      253      258
     497     15      254      255      256
     498     17      254      255      260
     499     17      255      254      259
     500     15      255      256      257
     501     17      255      256      261
     502     17      256      255      260
     503     17      256      257      262
     504     17      257      256      261

Dihedrals

       1     58        1        2       85       86
       2     61        1        2       85       87
       3     61        1        2       85       88
       4     66        2       85       86       89
       5     66        2       85       86       90
       6     64        2       85       86       91
       7     83        3        1        2        6
       8     83        3        1        2        7
       9     63        3        1        2       85
      10     83        4        1        2        6
      11     83        4        1        2        7
      12     63        4        1        2       85
      13     83        5        1        2        6
      14     83        5        1        2        7
      15     63        5        1        2       85
      16     66        6        2       85       86
      17     84        6        2       85       87
      18     84        6        2       85       88
      19     66        7        2       85       86
      20     84        7        2       85       87
      21     84        7        2       85       88
      22     59        8        9      125      123
      23     61        8        9      125      130
      24     61        8        9      125      131
      25     53        9      125      123      124
      26     67        9      125      123      126
      27     68        9      125      123      127
      28     83       10        8        9       13
      29     83       10        8        9       14
      30     63       10        8        9      125
      31     83       11        8        9       13
      32     83       11        8        9       14
      33     63       11        8        9      125
      34     83       12        8        9       13
      35     83       12        8        9       14
      36     63       12        8        9      125
      37     76       13        9      125      123
      38     84       13        9      125      130
      39     84       13        9      125      131
      40     76       14        9      125      123
      41     84       14        9      125      130
      42     84       14        9      125      131
      43     59       15       16      136      134
      44     61       15       16      136      141
      45     61       15       16      136      142
      46     67       16      136      134      135
      47     67       16      136      134      137
      48     68       16      136      134      138
      49     83       17       15       16       20
      50     83       17       15       16       21
      51     63       17       15       16      136
      52     83       18       15       16       20
      53     83       18       15       16       21
      54     63       18       15       16      136
      55     83       19       15       16       20
      56     83       19       15       16       21
      57     63       19       15       16      136
      58     76       20       16      136      134
      59     84       20       16      136      141
      60     84       20       16      136      142
      61     76       21       16      136      134
      62     84       21       16      136      141
      63     84       21       16      136      142
      64     58       22       23       98       97
      65     61       22       23       98      101
      66     61       22       23       98      102
      67     66       23       98       97       99
      68     66       23       98       97      100
      69     64       23       98       97      137
      70     83       24       22       23       27
      71     83       24       22       23       28
      72     63       24       22       23       98
      73     83       25       22       23       27
      74     83       25       22       23       28
      75     63       25       22       23       98
      76     83       26       22       23       27
      77     83       26       22       23       28
      78     63       26       22       23       98
      79     66       27       23       98       97
      80     84       27       23       98      101
      81     84       27       23       98      102
      82     66       28       23       98       97
      83     84       28       23       98      101
      84     84       28       23       98      102
      85     30       29       30      169      168
      86     30       29       30      169      170
      87      8       30      169      168      167
      88     48       30      169      168      173
      89      8       30      169      170      171
      90     48       30      169      170      174
      91     80       31       29       30       34
      92     80       31       29       30       35
      93     16       31       29       30      169
      94     80       32       29       30       34
      95     80       32       29       30       35
      96     16       32       29       30      169
      97     80       33       29       30       34
      98     80       33       29       30       35
      99     16       33       29       30      169
     100     34       34       30      169      168
     101     34       34       30      169      170
     102     34       35       30      169      168
     103     34       35       30      169      170
     104     49       36       37      104      103
     105     61       36       37      104      107
     106     61       36       37      104      108
     107     62       37      104      103      105
     108     62       37      104      103      106
     109     17       37      104      103      171
     110     83       38       36       37       41
     111     83       38       36       37       42
     112     63       38       36       37      104
     113     83       39       36       37       41
     114     83       39       36       37       42
     115     63       39       36       37      104
     116     83       40       36       37       41
     117     83       40       36       37       42
     118     63       40       36       37      104
     119     51       41       37      104      103
     120     84       41       37      104      107
     121     84       41       37      104      108
     122     51       42       37      104      103
     123     84       42       37      104      107
     124     84       42       37      104      108
     125     60       43       44      187      185
     126     61       43       44      187      192
     127     61       43       44      187      193
     128     69       44      187      185      186
     129     56       44      187      185      188
     130     56       44      187      185      189
     131     83       45       43       44       48
     132     83       45       43       44       49
     133     63       45       43       44      187
     134     83       46       43       44       48
     135     83       46       43       44       49
     136     63       46       43       44      187
     137     83       47       43       44       48
     138     83       47       43       44       49
     139     63       47       43       44      187
     140     77       48       44      187      185
     141     84       48       44      187      192
     142     84       48       44      187      193
     143     77       49       44      187      185
     144     84       49       44      187      192
     145     84       49       44      187      193
     146     30       50       51      214      213
     147     30       50       51      214      215
     148     35       51      214      213      212
     149     48       51      214      213      218
     150     35       51      214      215      216
     151     48       51      214      215      219
     152     80       52       50       51       55
     153     80       52       50       51       56
     154     16       52       50       51      214
     155     80       53       50       51       55
     156     80       53       50       51       56
     157     16       53       50       51      214
     158     80       54       50       51       55
     159     80       54       50       51       56
     160     16       54       50       51      214
     161     34       55       51      214      213
     162     34       55       51      214      215
     163     34       56       51      214      213
     164     34       56       51      214      215
     165     60       57       58      200      198
     166     61       57       58      200      205
     167     61       57       58      200      206
     168     56       58      200      198      199
     169     56       58      200      198      201
     170     69       58      200      198      202
     171     83       59       57       58       62
     172     83       59       57       58       63
     173     63       59       57       58      200
     174     83       60       57       58       62
     175     83       60       57       58       63
     176     63       60       57       58      200
     177     83       61       57       58       62
     178     83       61       57       58       63
     179     63       61       57       58      200
     180     77       62       58      200      198
     181     84       62       58      200      205
     182     84       62       58      200      206
     183     77       63       58      200      198
     184     84       63       58      200      205
     185     84       63       58      200      206
     186     30       64       65      234      233
     187     30       64       65      234      235
     188     35       65      234      233      232
     189     48       65      234      233      238
     190     35       65      234      235      236
     191     48       65      234      235      239
     192     80       66       64       65       69
     193     80       66       64       65       70
     194     16       66       64       65      234
     195     80       67       64       65       69
     196     80       67       64       65       70
     197     16       67       64       65      234
     198     80       68       64       65       69
     199     80       68       64       65       70
     200     16       68       64       65      234
     201     34       69       65      234      233
     202     34       69       65      234      235
     203     34       70       65      234      233
     204     34       70       65      234      235
     205     59       71       72      158      156
     206     61       71       72      158      163
     207     61       71       72      158      164
     208     67       72      158      156      157
     209     67       72      158      156      159
     210     68       72      158      156      160
     211     83       73       71       72       76
     212     83       73       71       72       77
     213     63       73       71       72      158
     214     83       74       71       72       76
     215     83       74       71       72       77
     216     63       74       71       72      158
     217     83       75       71       72       76
     218     83       75       71       72       77
     219     63       75       71       72      158
     220     76       76       72      158      156
     221     84       76       72      158      163
     222     84       76       72      158      164
     223     76       77       72      158      156
     224     84       77       72      158      163
     225     84       77       72      158      164
     226     59       78       79      159      156
     227     61       78       79      159      165
     228     61       78       79      159      166
     229     67       79      159      156      157
     230     67       79      159      156      158
     231     68       79      159      156      160
     232     83       80       78       79       83
     233     83       80       78       79       84
     234     63       80       78       79      159
     235     83       81       78       79       83
     236     83       81       78       79       84
     237     63       81       78       79      159
     238     83       82       78       79       83
     239     83       82       78       79       84
     240     63       82       78       79      159
     241     76       83       79      159      156
     242     84       83       79      159      165
     243     84       83       79      159      166
     244     76       84       79      159      156
     245     84       84       79      159      165
     246     84       84       79      159      166
     247     50       85       86       91       92
     248     66       85       86       91       93
     249     66       85       86       91       94
     250     62       86       91       92       95
     251     62       86       91       92       96
     252     17       86       91       92      115
     253     84       87       85       86       89
     254     84       87       85       86       90
     255     66       87       85       86       91
     256     84       88       85       86       89
     257     84       88       85       86       90
     258     66       88       85       86       91
     259     51       89       86       91       92
     260     84       89       86       91       93
     261     84       89       86       91       94
     262     51       90       86       91       92
     263     84       90       86       91       93
     264     84       90       86       91       94
     265      3       91       92      115      116
     266     31       91       92      115      120
     267     25       92      115      116      117
     268     47       92      115      116      124
     269      8       92      115      120      119
     270     48       92      115      120      122
     271     81       93       91       92       95
     272     81       93       91       92       96
     273     18       93       91       92      115
     274     81       94       91       92       95
     275     81       94       91       92       96
     276     18       94       91       92      115
     277      6       95       92      115      116
     278     34       95       92      115      120
     279      6       96       92      115      116
     280     34       96       92      115      120
     281     67       97      137      134      135
     282     67       97      137      134      136
     283     68       97      137      134      138
     284     65       98       97      137      134
     285     66       98       97      137      143
     286     66       98       97      137      144
     287     84       99       97       98      101
     288     84       99       97       98      102
     289     76       99       97      137      134
     290     84       99       97      137      143
     291     84       99       97      137      144
     292     84      100       97       98      101
     293     84      100       97       98      102
     294     76      100       97      137      134
     295     84      100       97      137      143
     296     84      100       97      137      144
     297     66      101       98       97      137
     298     66      102       98       97      137
     299      8      103      171      170      169
     300     48      103      171      170      174
     301      8      103      171      172      167
     302     48      103      171      172      175
     303     31      104      103      171      170
     304     31      104      103      171      172
     305     81      105      103      104      107
     306     81      105      103      104      108
     307     34      105      103      171      170
     308     34      105      103      171      172
     309     81      106      103      104      107
     310     81      106      103      104      108
     311     34      106      103      171      170
     312     34      106      103      171      172
     313     18      107      104      103      171
     314     18      108      104      103      171
     315     29      109      110      252      253
     316     29      109      110      252      257
     317     43      109      180      179      178
     318     48      109      180      179      183
     319      8      109      180      181      176
     320     48      109      180      181      184
     321     29      110      109      180      179
     322     29      110      109      180      181
     323     35      110      252      253      254
     324     48      110      252      253      258
     325     35      110      252      257      256
     326     48      110      252      257      262
     327     79      111      109      110      113
     328     79      111      109      110      114
     329     15      111      109      110      252
     330     34      111      109      180      179
     331     34      111      109      180      181
     332     79      112      109      110      113
     333     79      112      109      110      114
     334     15      112      109      110      252
     335     34      112      109      180      179
     336     34      112      109      180      181
     337     15      113      110      109      180
     338     34      113      110      252      253
     339     34      113      110      252      257
     340     15      114      110      109      180
     341     34      114      110      252      253
     342     34      114      110      252      257
     343      1      115      116      117      118
     344      2      115      116      117      121
     345      4      115      116      124      123
     346      6      115      116      124      128
     347      6      115      116      124      129
     348      1      115      120      119      118
     349      8      115      120      119      199
     350      1      116      115      120      119
     351      2      116      115      120      122
     352      1      116      117      118      119
     353      8      116      117      118      146
     354     20      116      124      123      125
     355     20      116      124      123      126
     356     21      116      124      123      127
     357     24      117      116      115      120
     358     32      117      116      124      123
     359     34      117      116      124      128
     360     34      117      116      124      129
     361     24      117      118      119      120
     362     25      117      118      119      199
     363     32      117      118      146      145
     364     34      117      118      146      150
     365     34      117      118      146      151
     366      8      118      117      116      124
     367      2      118      119      120      122
     368      5      118      119      199      198
     369      6      118      119      199      203
     370      6      118      119      199      204
     371     19      118      146      145      147
     372     20      118      146      145      148
     373     21      118      146      145      149
     374      2      119      118      117      121
     375      4      119      118      146      145
     376      6      119      118      146      150
     377      6      119      118      146      151
     378     23      119      199      198      200
     379     22      119      199      198      201
     380     23      119      199      198      202
     381     25      120      115      116      124
     382     25      120      119      118      146
     383     33      120      119      199      198
     384     34      120      119      199      203
     385     34      120      119      199      204
     386     48      121      117      116      124
     387     48      121      117      118      146
     388     48      122      120      119      199
     389     74      123      126      135      134
     390     76      123      126      135      139
     391     76      123      126      135      140
     392     54      124      123      125      130
     393     54      124      123      125      131
     394     54      124      123      126      132
     395     54      124      123      126      133
     396     53      124      123      126      135
     397     70      125      123      124      128
     398     70      125      123      124      129
     399     71      125      123      126      132
     400     71      125      123      126      133
     401     67      125      123      126      135
     402     70      126      123      124      128
     403     70      126      123      124      129
     404     71      126      123      125      130
     405     71      126      123      125      131
     406     67      126      135      134      136
     407     67      126      135      134      137
     408     68      126      135      134      138
     409     82      127      123      124      128
     410     82      127      123      124      129
     411     85      127      123      125      130
     412     85      127      123      125      131
     413     85      127      123      126      132
     414     85      127      123      126      133
     415     68      127      123      126      135
     416     76      132      126      135      134
     417     84      132      126      135      139
     418     84      132      126      135      140
     419     76      133      126      135      134
     420     84      133      126      135      139
     421     84      133      126      135      140
     422     71      135      134      136      141
     423     71      135      134      136      142
     424     71      135      134      137      143
     425     71      135      134      137      144
     426     71      136      134      135      139
     427     71      136      134      135      140
     428     71      136      134      137      143
     429     71      136      134      137      144
     430     71      137      134      135      139
     431     71      137      134      135      140
     432     71      137      134      136      141
     433     71      137      134      136      142
     434     85      138      134      135      139
     435     85      138      134      135      140
     436     85      138      134      136      141
     437     85      138      134      136      142
     438     85      138      134      137      143
     439     85      138      134      137      144
     440     32      145      147      167      168
     441     32      145      147      167      172
     442     75      145      148      186      185
     443     76      145      148      186      190
     444     76      145      148      186      191
     445     47      146      118      119      199
     446     52      146      145      147      152
     447     52      146      145      147      153
     448     19      146      145      147      167
     449     54      146      145      148      154
     450     54      146      145      148      155
     451     53      146      145      148      186
     452     52      147      145      146      150
     453     52      147      145      146      151
     454     54      147      145      148      154
     455     54      147      145      148      155
     456     53      147      145      148      186
     457      8      147      167      168      169
     458     48      147      167      168      173
     459      8      147      167      172      171
     460     48      147      167      172      175
     461     70      148      145      146      150
     462     70      148      145      146      151
     463     70      148      145      147      152
     464     70      148      145      147      153
     465     20      148      145      147      167
     466     69      148      186      185      187
     467     56      148      186      185      188
     468     56      148      186      185      189
     469     82      149      145      146      150
     470     82      149      145      146      151
     471     82      149      145      147      152
     472     82      149      145      147      153
     473     21      149      145      147      167
     474     85      149      145      148      154
     475     85      149      145      148      155
     476     68      149      145      148      186
     477     34      152      147      167      168
     478     34      152      147      167      172
     479     34      153      147      167      168
     480     34      153      147      167      172
     481     77      154      148      186      185
     482     84      154      148      186      190
     483     84      154      148      186      191
     484     77      155      148      186      185
     485     84      155      148      186      190
     486     84      155      148      186      191
     487     75      156      157      202      198
     488     76      156      157      202      209
     489     76      156      157      202      210
     490     71      157      156      158      163
     491     71      157      156      158      164
     492     71      157      156      159      165
     493     71      157      156      159      166
     494     56      157      202      198      199
     495     69      157      202      198      200
     496     56      157      202      198      201
     497     71      158      156      157      161
     498     71      158      156      157      162
     499     67      158      156      157      202
     500     71      158      156      159      165
     501     71      158      156      159      166
     502     71      159      156      157      161
     503     71      159      156      157      162
     504     67      159      156      157      202
     505     71      159      156      158      163
     506     71      159      156      158      164
     507     85      160      156      157      161
     508     85      160      156      157      162
     509     68      160      156      157      202
     510     85      160      156      158      163
     511     85      160      156      158      164
     512     85      160      156      159      165
     513     85      160      156      159      166
     514     77      161      157      202      198
     515     84      161      157      202      209
     516     84      161      157      202      210
     517     77      162      157      202      198
     518     84      162      157      202      209
     519     84      162      157      202      210
     520      7      167      168      169      170
     521      7      167      172      171      170
     522      7      168      167      172      171
     523     28      168      167      172      175
     524      7      168      169      170      171
     525     28      168      169      170      174
     526      7      169      168      167      172
     527      7      169      170      171      172
     528     28      170      169      168      173
     529     28      170      171      172      175
     530     28      172      167      168      173
     531     28      172      171      170      174
     532     12      176      177      178      179
     533     13      176      177      178      221
     534      7      176      181      180      179
     535     23      176      189      185      186
     536     23      176      189      185      187
     537     22      176      189      185      188
     538      7      177      176      181      180
     539     28      177      176      181      184
     540     33      177      176      189      185
     541     34      177      176      189      196
     542     34      177      176      189      197
     543     12      177      178      179      180
     544     41      177      178      179      183
     545     42      177      178      221      222
     546     42      177      178      221      226
     547     27      178      177      176      181
     548     43      178      177      176      189
     549     27      178      179      180      181
     550     40      178      221      222      223
     551     46      178      221      222      227
     552     40      178      221      226      225
     553     46      178      221      226      230
     554     41      179      178      177      182
     555     42      179      178      221      222
     556     42      179      178      221      226
     557     28      179      180      181      184
     558     14      180      109      110      252
     559     13      180      179      178      221
     560      8      180      181      176      189
     561     28      181      176      177      182
     562     33      181      176      189      185
     563     34      181      176      189      196
     564     34      181      176      189      197
     565     28      181      180      179      183
     566     48      182      177      176      189
     567     46      182      177      178      221
     568     46      183      179      178      221
     569     48      184      181      176      189
     570     33      185      188      211      212
     571     33      185      188      211      216
     572     73      186      185      187      192
     573     73      186      185      187      193
     574     72      186      185      188      194
     575     72      186      185      188      195
     576     23      186      185      188      211
     577     72      186      185      189      196
     578     72      186      185      189      197
     579     73      187      185      186      190
     580     73      187      185      186      191
     581     72      187      185      188      194
     582     72      187      185      188      195
     583     23      187      185      188      211
     584     72      187      185      189      196
     585     72      187      185      189      197
     586     57      188      185      186      190
     587     57      188      185      186      191
     588     57      188      185      187      192
     589     57      188      185      187      193
     590     55      188      185      189      196
     591     55      188      185      189      197
     592     35      188      211      212      213
     593     48      188      211      212      217
     594     35      188      211      216      215
     595     48      188      211      216      220
     596     57      189      185      186      190
     597     57      189      185      186      191
     598     57      189      185      187      192
     599     57      189      185      187      193
     600     55      189      185      188      194
     601     55      189      185      188      195
     602     22      189      185      188      211
     603     34      194      188      211      212
     604     34      194      188      211      216
     605     34      195      188      211      212
     606     34      195      188      211      216
     607     33      198      201      231      232
     608     33      198      201      231      236
     609     57      199      198      200      205
     610     57      199      198      200      206
     611     55      199      198      201      207
     612     55      199      198      201      208
     613     22      199      198      201      231
     614     57      199      198      202      209
     615     57      199      198      202      210
     616     72      200      198      199      203
     617     72      200      198      199      204
     618     72      200      198      201      207
     619     72      200      198      201      208
     620     23      200      198      201      231
     621     73      200      198      202      209
     622     73      200      198      202      210
     623     55      201      198      199      203
     624     55      201      198      199      204
     625     57      201      198      200      205
     626     57      201      198      200      206
     627     57      201      198      202      209
     628     57      201      198      202      210
     629     35      201      231      232      233
     630     48      201      231      232      237
     631     35      201      231      236      235
     632     48      201      231      236      240
     633     72      202      198      199      203
     634     72      202      198      199      204
     635     73      202      198      200      205
     636     73      202      198      200      206
     637     72      202      198      201      207
     638     72      202      198      201      208
     639     23      202      198      201      231
     640     34      207      201      231      232
     641     34      207      201      231      236
     642     34      208      201      231      232
     643     34      208      201      231      236
     644      9      211      212      213      214
     645     11      211      212      213      218
     646      9      211      216      215      214
     647     11      211      216      215      219
     648     26      212      211      216      215
     649     28      212      211      216      220
     650     26      212      213      214      215
     651     26      213      212      211      216
     652     26      213      214      215      216
     653     28      213      214      215      219
     654     11      214      213      212      217
     655     11      214      215      216      220
     656     28      215      214      213      218
     657     28      216      211      212      217
     658     78      217      212      213      218
     659     78      219      215      216      220
     660     44      221      222      223      224
     661     45      221      222      223      228
     662     44      221      226      225      224
     663     45      221      226      225      229
     664     39      222      221      226      225
     665     41      222      221      226      230
     666     39      222      223      224      225
     667     40      222      223      224      241
     668     39      223      222      221      226
     669     39      223      224      225      226
     670     41      223      224      225      229
     671     42      223      224      241      242
     672     42      223      224      241      246
     673     45      224      223      222      227
     674     45      224      225      226      230
     675     40      224      241      242      243
     676     46      224      241      242      247
     677     40      224      241      246      245
     678     46      224      241      246      251
     679     41      225      224      223      228
     680     42      225      224      241      242
     681     42      225      224      241      246
     682     41      226      221      222      227
     683     40      226      225      224      241
     684     78      227      222      223      228
     685     46      228      223      224      241
     686     46      229      225      224      241
     687     78      229      225      226      230
     688      9      231      232      233      234
     689     11      231      232      233      238
     690      9      231      236      235      234
     691     11      231      236      235      239
     692     26      232      231      236      235
     693     28      232      231      236      240
     694     26      232      233      234      235
     695     26      233      232      231      236
     696     26      233      234      235      236
     697     28      233      234      235      239
     698     11      234      233      232      237
     699     11      234      235      236      240
     700     28      235      234      233      238
     701     28      236      231      232      237
     702     78      237      232      233      238
     703     78      239      235      236      240
     704     37      241      242      243      244
     705     45      241      242      243      248
     706     37      241      246      245      244
     707     45      241      246      245      250
     708     39      242      241      246      245
     709     41      242      241      246      251
     710     36      242      243      244      245
     711     38      242      243      244      249
     712     39      243      242      241      246
     713     36      243      244      245      246
     714     38      243      244      245      250
     715     38      244      243      242      247
     716     38      244      245      246      251
     717     38      245      244      243      248
     718     41      246      241      242      247
     719     38      246      245      244      249
     720     78      247      242      243      248
     721     78      248      243      244      249
     722     78      249      244      245      250
     723     78      250      245      246      251
     724     10      252      253      254      255
     725     11      252      253      254      259
     726     10      252      257      256      255
     727     11      252      257      256      261
     728     26      253      252      257      256
     729     28      253      252      257      262
     730     36      253      254      255      256
     731     38      253      254      255      260
     732     26      254      253      252      257
     733     36      254      255      256      257
     734     38      254      255      256      261
     735     38      255      254      253      258
     736     38      255      256      257      262
     737     38      256      255      254      259
     738     28      257      252      253      258
     739     38      257      256      255      260
     740     78      258      253      254      259
     741     78      259      254      255      260
     742     78      260      255      256      261
     743     78      261      256      257      262

Impropers

       1      1       92      115      116      120
       2      1      115      116      117      124
       3      3      116      117      118      121
       4      1      117      118      119      146
       5      1      118      119      120      199
       6      3      115      120      119      122
       7      2      147      167      168      172
       8      3      167      168      169      173
       9      2       30      169      168      170
      10      3      169      170      171      174
      11      2      103      171      170      172
      12      3      167      172      171      175
      13      2      177      176      181      189
      14      5      176      177      178      182
      15      8      177      178      179      221
      16      5      178      179      180      183
      17      2      109      180      179      181
      18      3      176      181      180      184
      19      2      188      211      212      216
      20      4      211      212      213      217
      21      4      212      213      214      218
      22      2       51      214      213      215
      23      4      214      215      216      219
      24      4      211      216      215      220
      25      8      178      221      222      226
      26      7      221      222      223      227
      27      7      222      223      224      228
      28      8      223      224      225      241
      29      7      224      225      226      229
      30      7      221      226      225      230
      31      2      201      231      232      236
      32      4      231      232      233      237
      33      4      232      233      234      238
      34      2       65      234      233      235
      35      4      234      235      236      239
      36      4      231      236      235      240
      37      8      224      241      242      246
      38      7      241      242      243      247
      39      6      242      243      244      248
      40      6      243      244      245      249
      41      6      244      245      246      250
      42      7      241      246      245      251
      43      2      110      252      253      257
      44      4      252      253      254      258
      45      6      253      254      255      259
      46      6      254      255      256      260
      47      6      255      256      257      261
      48      4      252      257      256      262

