LAMMPS data file generated by clean-room 1-hop pipeline

     259 atoms
     272 bonds
     486 angles
     729 dihedrals
      84 impropers

      10 atom types
      20 bond types
      50 angle types
      88 dihedral types
      11 improper types

  -38.563800    29.837300 xlo xhi
  -35.712500    34.045500 ylo yhi
  -33.578100    29.545000 zlo zhi

Masses

       1    12.011000
       2    12.011000
       3    12.011000
       4    12.011000
       5    12.011000
       6    12.011000
       7    12.011000
       8    12.011000
       9     1.008000
      10     1.008000

Pair Coeffs

       1     0.070000     3.550000
       2     0.070000     3.550000
       3     0.070000     3.550000
       4     0.066000     3.500000
       5     0.066000     3.500000
       6     0.066000     3.500000
       7     0.066000     3.500000
       8     0.066000     3.500000
       9     0.030000     2.420000
      10     0.030000     2.500000

Bond Coeffs

       1   469.000000     1.400000
       2   469.000000     1.400000
       3   469.000000     1.400000
       4   317.000000     1.510000
       5   469.000000     1.400000
       6   469.000000     1.400000
       7   367.000000     1.080000
       8   385.000000     1.460000
       9   268.000000     1.529000
      10   268.000000     1.529000
      11   268.000000     1.529000
      12   268.000000     1.529000
      13   340.000000     1.090000
      14   268.000000     1.529000
      15   340.000000     1.090000
      16   268.000000     1.529000
      17   268.000000     1.529000
      18   268.000000     1.529000
      19   340.000000     1.090000
      20   340.000000     1.090000

Angle Coeffs

       1    63.000000   120.000000
       2    70.000000   120.000000
       3    63.000000   120.000000
       4    63.000000   120.000000
       5    63.000000   120.000000
       6    35.000000   120.000000
       7    63.000000   120.000000
       8    63.000000   120.000000
       9    63.000000   114.000000
      10    63.000000   114.000000
      11    63.000000   114.000000
      12    63.000000   114.000000
      13    35.000000   109.500000
      14    63.000000   120.000000
      15    63.000000   120.000000
      16    70.000000   120.000000
      17    63.000000   120.000000
      18    63.000000   120.000000
      19    35.000000   120.000000
      20    63.000000   120.000000
      21    63.000000   120.000000
      22    70.000000   120.000000
      23    35.000000   120.000000
      24    63.000000   120.000000
      25    37.500000   110.700000
      26    58.350000   112.700000
      27    37.500000   110.700000
      28    58.350000   112.700000
      29    58.350000   112.700000
      30    37.500000   110.700000
      31    58.350000   112.700000
      32    58.350000   112.700000
      33    37.500000   110.700000
      34    58.350000   112.700000
      35    37.500000   110.700000
      36    37.500000   110.700000
      37    37.500000   110.700000
      38    58.350000   112.700000
      39    58.350000   112.700000
      40    58.350000   112.700000
      41    37.500000   110.700000
      42    37.500000   110.700000
      43    58.350000   112.700000
      44    37.500000   110.700000
      45    37.500000   110.700000
      46    37.500000   110.700000
      47    37.500000   110.700000
      48    33.000000   107.800000
      49    33.000000   107.800000
      50    33.000000   107.800000

Dihedral Coeffs

       1     0.000000     7.250000     0.000000     0.000000
       2     0.000000     7.250000     0.000000     0.000000
       3     0.000000     7.250000     0.000000     0.000000
       4    -0.250000     0.000000     0.000000     0.000000
       5    -0.250000     0.000000     0.000000     0.000000
       6    -0.250000     0.000000     0.000000     0.000000
       7     0.000000     0.000000     0.000000     0.000000
       8     0.000000     7.250000     0.000000     0.000000
       9     0.000000     7.250000     0.000000     0.000000
      10     0.000000     7.250000     0.000000     0.000000
      11     0.000000     7.250000     0.000000     0.000000
      12     0.000000     7.250000     0.000000     0.000000
      13     0.000000     7.250000     0.000000     0.000000
      14     0.000000     7.250000     0.000000     0.000000
      15     0.000000     7.250000     0.000000     0.000000
      16     0.000000     7.250000     0.000000     0.000000
      17     0.000000     1.650000     0.000000    -0.050000
      18     0.000000     0.000000     0.462000     0.000000
      19     0.000000     0.000000     0.000000     0.000000
      20     0.000000     0.000000     0.462000     0.000000
      21     0.000000     0.000000     0.000000     0.000000
      22     0.000000     0.000000     0.000000     0.000000
      23     0.000000     0.000000     0.462000     0.000000
      24     0.000000     0.000000     0.000000     0.000000
      25     0.000000     0.000000     0.000000     0.000000
      26     0.000000     7.250000     0.000000     0.000000
      27     0.000000     7.250000     0.000000     0.000000
      28     0.000000     7.250000     0.000000     0.000000
      29     0.000000     7.250000     0.000000     0.000000
      30     0.000000     7.250000     0.000000     0.000000
      31     0.000000     7.250000     0.000000     0.000000
      32    -0.250000     0.000000     0.000000     0.000000
      33    -0.250000     0.000000     0.000000     0.000000
      34    -0.250000     0.000000     0.000000     0.000000
      35    -0.250000     0.000000     0.000000     0.000000
      36     0.000000     0.000000     0.000000     0.000000
      37     0.000000     7.250000     0.000000     0.000000
      38     0.000000     7.250000     0.000000     0.000000
      39     0.000000     7.250000     0.000000     0.000000
      40     0.000000     7.250000     0.000000     0.000000
      41     0.000000     7.250000     0.000000     0.000000
      42     0.000000     7.250000     0.000000     0.000000
      43     0.000000     7.250000     0.000000     0.000000
      44     0.000000     7.250000     0.000000     0.000000
      45     0.000000     1.650000     0.000000    -0.050000
      46     0.000000     1.650000     0.000000    -0.050000
      47     0.000000     7.250000     0.000000     0.000000
      48    -0.250000     0.000000     0.000000     0.000000
      49     0.000000     0.000000     0.000000     0.000000
      50     0.000000     7.250000     0.000000     0.000000
      51     0.000000     7.250000     0.000000     0.000000
      52     0.000000     7.250000     0.000000     0.000000
      53     0.000000     7.250000     0.000000     0.000000
      54     0.000000     7.250000     0.000000     0.000000
      55     0.000000     1.650000     0.000000    -0.050000
      56     0.000000     7.250000     0.000000     0.000000
      57     0.000000     7.250000     0.000000     0.000000
      58     0.850000    -0.200000     0.200000     0.000000
      59     0.000000     0.000000     0.300000     0.000000
      60     0.000000     0.000000     0.300000     0.000000
      61     0.850000    -0.200000     0.200000     0.000000
      62     0.000000     0.000000     0.300000     0.000000
      63     0.000000     0.000000     0.300000     0.000000
      64     0.850000    -0.200000     0.200000     0.000000
      65     0.000000     0.000000     0.300000     0.000000
      66     0.850000    -0.200000     0.200000     0.000000
      67     0.850000    -0.200000     0.200000     0.000000
      68     0.000000     0.000000     0.300000     0.000000
      69     0.000000     0.000000     0.300000     0.000000
      70     0.000000     0.000000     0.300000     0.000000
      71     0.850000    -0.200000     0.200000     0.000000
      72     0.850000    -0.200000     0.200000     0.000000
      73     0.000000     0.000000     0.300000     0.000000
      74     0.000000     0.000000     0.300000     0.000000
      75     0.850000    -0.200000     0.200000     0.000000
      76     0.000000     0.000000     0.300000     0.000000
      77     0.000000     0.000000     0.300000     0.000000
      78     0.000000     0.000000     0.300000     0.000000
      79     0.850000    -0.200000     0.200000     0.000000
      80     0.000000     0.000000     0.300000     0.000000
      81     0.000000     0.000000     0.300000     0.000000
      82     0.000000     7.250000     0.000000     0.000000
      83     0.000000     0.000000     0.300000     0.000000
      84     0.000000     0.000000     0.300000     0.000000
      85     0.000000     0.000000     0.300000     0.000000
      86     0.000000     0.000000     0.300000     0.000000
      87     0.000000     0.000000     0.300000     0.000000
      88     0.000000     0.000000     0.300000     0.000000

Improper Coeffs

       1     2.500000   -1    2
       2     2.500000   -1    2
       3     2.500000   -1    2
       4     2.500000   -1    2
       5     2.500000   -1    2
       6     2.500000   -1    2
       7     2.500000   -1    2
       8     2.500000   -1    2
       9     2.500000   -1    2
      10     2.500000   -1    2
      11     2.500000   -1    2

Atoms

       1    1      5  -0.26208804   -11.819400    12.382500     8.802900
       2    1      4  -0.14303925   -12.590200    11.522800     7.783800
       3    1     10   0.09977292   -11.285000    11.701800     9.545000
       4    1     10   0.09977292   -11.052700    13.024400     8.255600
       5    1     10   0.09977292   -12.549600    13.055500     9.362300
       6    1     10   0.09977292   -13.123600    12.202500     7.039900
       7    1     10   0.09977292   -13.358400    10.883100     8.331500
       8    1      5  -0.26208804     4.361900    -4.840900     3.264300
       9    1      4  -0.14303925     2.868700    -4.508100     3.086800
      10    1     10   0.09977292     4.467200    -5.880500     3.720500
      11    1     10   0.09977292     4.878000    -4.819800     2.248000
      12    1     10   0.09977292     4.846000    -4.071600     3.952200
      13    1     10   0.09977292     2.766700    -3.471600     2.624300
      14    1     10   0.09977292     2.345300    -4.530100     4.098900
      15    1      5  -0.26208804     4.240600    -9.400500     1.728700
      16    1      4  -0.14303925     3.413900    -9.051100     0.478500
      17    1     10   0.09977292     4.936700   -10.271700     1.490700
      18    1     10   0.09977292     4.854600    -8.492500     2.043800
      19    1     10   0.09977292     3.536400    -9.696500     2.575200
      20    1     10   0.09977292     2.829200    -9.969600     0.162200
      21    1     10   0.09977292     4.120000    -8.760000    -0.367800
      22    1      5  -0.26208804     1.021700   -13.304500    -1.409800
      23    1      6  -0.19143667     0.511500   -12.226200    -2.380200
      24    1     10   0.09977292     1.314300   -14.233900    -2.001200
      25    1     10   0.09977292     1.938700   -12.915600    -0.857500
      26    1     10   0.09977292     0.196800   -13.572700    -0.670700
      27    1     10   0.09977292    -0.356800   -12.666300    -2.973400
      28    1     10   0.09977292     1.353100   -11.967900    -3.104100
      29    1      5  -0.26208804     4.337400   -10.938900    -2.830000
      30    1      6  -0.19143667     3.137500   -11.218600    -1.906400
      31    1     10   0.09977292     4.969100   -11.882900    -2.927500
      32    1     10   0.09977292     3.960700   -10.626800    -3.859700
      33    1     10   0.09977292     4.971900   -10.102100    -2.386100
      34    1     10   0.09977292     3.528300   -11.532700    -0.886400
      35    1     10   0.09977292     2.517000   -12.062000    -2.352100
      36    1      5  -0.26208804     7.874800     3.967500     3.111600
      37    1      6  -0.19143667     8.437700     4.025700     1.679900
      38    1     10   0.09977292     8.720500     4.119700     3.860700
      39    1     10   0.09977292     7.092500     4.785600     3.246900
      40    1     10   0.09977292     7.392000     2.948400     3.280000
      41    1     10   0.09977292     9.222600     3.209000     1.550700
      42    1     10   0.09977292     8.910100     5.045200     1.486400
      43    1      5  -0.26208804     8.328400     3.718500   -12.537900
      44    1      4  -0.14303925     7.037300     2.883400   -12.457200
      45    1     10   0.09977292     8.785000     3.618900   -13.578100
      46    1     10   0.09977292     8.086500     4.814200   -12.332900
      47    1     10   0.09977292     9.071500     3.341800   -11.758900
      48    1     10   0.09977292     6.289500     3.257700   -13.232200
      49    1     10   0.09977292     7.277700     1.787100   -12.656700
      50    1      1  -0.09056217   -11.605000    10.609300     7.030100
      51    1      2  -0.15054981   -11.123600     9.295200     7.674700
      52    1      2  -0.15054981   -10.155400     8.370200     6.910900
      53    1      3  -0.04228717    -9.678300     8.756400     5.498500
      54    1      2  -0.15054981   -10.187400    10.052200     4.841300
      55    1      2  -0.15054981   -11.155200    10.975400     5.603900
      56    1      9   0.16482537   -11.480300     9.009500     8.719100
      57    1      9   0.16482537    -9.789600     7.403700     7.392200
      58    1      9   0.16482537    -9.849800    10.325900     3.787100
      59    1      9   0.16482537   -11.536800    11.931500     5.114400
      60    1      3  -0.04228717    -8.688600     7.857900     4.733800
      61    1      2  -0.15054981    -8.181200     6.542300     5.354500
      62    1      2  -0.15054981    -7.190000     5.654000     4.573300
      63    1      1  -0.09056217    -6.725500     6.077200     3.165300
      64    1      2  -0.15054981    -7.228500     7.395100     2.554200
      65    1      2  -0.15054981    -8.198100     8.289700     3.342100
      66    1      9   0.16482537    -8.537200     6.225800     6.390500
      67    1      9   0.16482537    -6.809900     4.682200     5.032500
      68    1      9   0.16482537    -6.883100     7.707700     1.513600
      69    1      9   0.16482537    -8.567400     9.268000     2.887500
      70    1      1  -0.09056217    -4.478600     3.354400    -0.175700
      71    1      2  -0.15054981    -3.817300     2.753300     1.086800
      72    1      2  -0.15054981    -2.584700     1.819300     0.938100
      73    1      3  -0.04228717    -1.995900     1.548000    -0.467000
      74    1      2  -0.15054981    -2.804600     1.959600    -1.709000
      75    1      2  -0.15054981    -4.061600     2.831700    -1.560900
      76    1      9   0.16482537    -4.196400     3.041100     2.123100
      77    1      9   0.16482537    -2.060000     1.413400     1.865200
      78    1      9   0.16482537    -2.435000     1.669100    -2.747400
      79    1      9   0.16482537    -4.635700     3.162200    -2.488500
      80    1      3  -0.04228717    -0.251300    -0.896400     1.138300
      81    1      2  -0.15054981    -1.159800    -1.911200     0.414200
      82    1      2  -0.15054981    -0.881200    -3.423900     0.598700
      83    1      3  -0.04228717     0.240300    -3.875200     1.562100
      84    1      2  -0.15054981     0.786200    -2.864200     2.585900
      85    1      2  -0.15054981     0.540800    -1.363200     2.370600
      86    1      9   0.16482537    -1.914900    -1.556600    -0.362700
      87    1      9   0.16482537    -1.434100    -4.191200    -0.038400
      88    1      9   0.16482537     1.439900    -3.215200     3.449600
      89    1      9   0.16482537     1.054100    -0.599700     3.043700
      90    1      1  -0.09056217     5.335400     3.417900    -8.200800
      91    1      2  -0.15054981     6.326300     2.276800    -8.492100
      92    1      2  -0.15054981     6.878100     2.083800    -9.917300
      93    1      1  -0.09056217     6.441200     3.035500   -11.046200
      94    1      2  -0.15054981     5.368500     4.107100   -10.776800
      95    1      2  -0.15054981     4.813600     4.297200    -9.352500
      96    1      9   0.16482537     6.675600     1.595500    -7.647500
      97    1      9   0.16482537     7.626400     1.250800   -10.131300
      98    1      9   0.16482537     5.000900     4.772800   -11.626200
      99    1      9   0.16482537     4.043300     5.111500    -9.144100
     100    1      1  -0.09056217   -11.536600     6.991200     2.738600
     101    1      2  -0.15054981   -13.036600     6.650200     2.656800
     102    1      2  -0.15054981   -14.079700     7.773900     2.506200
     103    1      3  -0.04228717   -13.624700     9.242400     2.446500
     104    1      2  -0.15054981   -12.127400     9.588000     2.528600
     105    1      2  -0.15054981   -11.084400     8.464300     2.673700
     106    1      9   0.16482537   -13.375100     5.563200     2.710100
     107    1      9   0.16482537   -15.188800     7.518700     2.438200
     108    1      9   0.16482537   -11.790500    10.676300     2.483700
     109    1      9   0.16482537    -9.979800     8.726000     2.733600
     110    1      1  -0.09056217   -11.476500     6.218600     0.176400
     111    1      2  -0.15054981   -12.934500     5.743700     0.031500
     112    1      2  -0.15054981   -14.062700     6.766900    -0.188400
     113    1      3  -0.04228717   -13.735200     8.268500    -0.266300
     114    1      2  -0.15054981   -12.272400     8.743100    -0.172400
     115    1      2  -0.15054981   -11.141700     7.717400     0.049100
     116    1      9   0.16482537   -13.181000     4.633300     0.106600
     117    1      9   0.16482537   -15.143000     6.414100    -0.278200
     118    1      9   0.16482537   -12.028500     9.854300    -0.246500
     119    1      9   0.16482537   -10.061700     8.069600     0.142900
     120    1      7  -0.12518329    -6.471300     4.929400     0.993400
     121    1      4  -0.14303925    -5.768600     5.196700     2.339300
     122    1      4  -0.14303925    -5.467700     4.546000    -0.119400
     123    1      6  -0.19143667    -7.621600     3.913700     1.150400
     124    1     10   0.09977292    -6.926500     5.917000     0.650400
     125    1     10   0.09977292    -5.487000     4.222900     2.861200
     126    1     10   0.09977292    -4.832400     5.816900     2.144100
     127    1     10   0.09977292    -6.086500     4.469100    -1.073500
     128    1     10   0.09977292    -4.800300     5.463700    -0.229600
     129    1     10   0.09977292    -7.165700     2.933700     1.513100
     130    1     10   0.09977292    -8.126200     3.740500     0.142900
     131    1      7  -0.12518329     4.995700     0.705300     0.067200
     132    1      4  -0.14303925     4.024900     0.418500    -1.104200
     133    1      4  -0.14303925     4.350000     0.413400     1.435600
     134    1      6  -0.19143667     5.535300     2.141800    -0.015100
     135    1     10   0.09977292     5.901800     0.026900    -0.067800
     136    1     10   0.09977292     3.959200    -0.717700    -1.167900
     137    1     10   0.09977292     4.469600     0.794600    -2.081300
     138    1     10   0.09977292     4.014900    -0.675100     1.478500
     139    1     10   0.09977292     3.445500     1.093000     1.573300
     140    1     10   0.09977292     6.010300     2.221200    -1.042200
     141    1     10   0.09977292     4.697700     2.907600     0.091100
     142    1      7  -0.12518329     3.883300     2.402600    -3.306500
     143    1      4  -0.14303925     2.388500     2.042700    -3.370600
     144    1      4  -0.14303925     4.195500     3.338800    -2.129900
     145    1      6  -0.19143667     4.323800     3.249200    -4.516400
     146    1     10   0.09977292     4.523800     1.464500    -3.220200
     147    1     10   0.09977292     1.830200     3.007500    -3.608600
     148    1     10   0.09977292     2.221800     1.314500    -4.231600
     149    1     10   0.09977292     3.955200     2.823600    -1.142100
     150    1     10   0.09977292     3.610600     4.312400    -2.227800
     151    1     10   0.09977292     5.390000     3.595300    -4.311500
     152    1     10   0.09977292     3.655100     4.171400    -4.564600
     153    1      7  -0.12518329    -9.562900     5.583100     1.772000
     154    1      6  -0.19143667    -8.689500     4.368300     2.172600
     155    1      4  -0.14303925   -10.510000     5.858000     2.961600
     156    1      4  -0.14303925   -10.375700     5.193000     0.519400
     157    1     10   0.09977292    -8.930900     6.510000     1.569300
     158    1     10   0.09977292    -8.168400     4.585200     3.160600
     159    1     10   0.09977292    -9.405400     3.495100     2.330200
     160    1     10   0.09977292    -9.878000     6.115100     3.875100
     161    1     10   0.09977292   -11.093000     4.902200     3.177000
     162    1     10   0.09977292   -10.897500     4.203100     0.735800
     163    1     10   0.09977292    -9.671500     5.055200    -0.366300
     164    1      3  -0.04228717    -0.523500     1.111400    -0.673900
     165    1      3  -0.04228717     0.293200     0.325600     0.375100
     166    1      2  -0.15054981     1.824800     0.446000     0.364800
     167    1      1  -0.09056217     2.554700     0.865200    -0.924200
     168    1      1  -0.09056217     1.732600     1.484600    -2.083400
     169    1      2  -0.15054981     0.203500     1.635300    -1.928700
     170    1      9   0.16482537     2.421700     0.018500     1.235400
     171    1      9   0.16482537    -0.392800     2.168700    -2.740900
     172    1      3  -0.04228717     0.911900    -5.265500     1.419100
     173    1      1  -0.09056217     2.238000    -5.556000     2.153100
     174    1      2  -0.15054981     3.024600    -6.838800     1.846000
     175    1      1  -0.09056217     2.505900    -7.848200     0.809600
     176    1      1  -0.09056217     1.103700    -7.637000     0.168100
     177    1      2  -0.15054981     0.330500    -6.326800     0.460700
     178    1      9   0.16482537     4.022300    -7.026300     2.365300
     179    1      9   0.16482537    -0.673600    -6.139200    -0.045800
     180    1      8  -0.05170951     1.027600   -10.105600    -0.884900
     181    1      4  -0.14303925     0.412700    -8.700400    -0.728800
     182    1      6  -0.19143667     0.014700   -10.922400    -1.719900
     183    1      4  -0.14303925     1.130200   -10.612800     0.577200
     184    1      6  -0.19143667     2.293300    -9.937600    -1.758800
     185    1     10   0.09977292    -0.626200    -8.850000    -0.284400
     186    1     10   0.09977292     0.286000    -8.257900    -1.771600
     187    1     10   0.09977292    -0.904900   -11.128300    -1.078400
     188    1     10   0.09977292    -0.297100   -10.254500    -2.589600
     189    1     10   0.09977292     1.737400    -9.851500     1.167600
     190    1     10   0.09977292     0.077000   -10.617600     1.013400
     191    1     10   0.09977292     2.958800    -9.119200    -1.335000
     192    1     10   0.09977292     1.954300    -9.600100    -2.793600
     193    1      1  -0.09056217     1.758200   -11.989800     0.861900
     194    1      2  -0.15054981     0.855700   -13.182100     1.231900
     195    1      2  -0.15054981     1.482400   -14.541100     1.595800
     196    1      2  -0.15054981     3.013200   -14.703800     1.610500
     197    1      2  -0.15054981     3.916900   -13.500600     1.286300
     198    1      2  -0.15054981     3.289200   -12.142100     0.922700
     199    1      9   0.16482537    -0.277600   -13.059700     1.230300
     200    1      9   0.16482537     0.812700   -15.426300     1.855700
     201    1      9   0.16482537     3.477000   -15.712500     1.869400
     202    1      9   0.16482537     5.050800   -13.615500     1.315700
     203    1      9   0.16482537     3.958700   -11.250400     0.686200
     204    1      1  -0.09056217     5.357200     0.694100     2.565700
     205    1      2  -0.15054981     5.000200     1.692000     3.683000
     206    1      2  -0.15054981     6.035000     2.032700     4.771400
     207    1      2  -0.15054981     7.426100     1.373300     4.743200
     208    1      2  -0.15054981     7.783600     0.376700     3.625100
     209    1      2  -0.15054981     6.749400     0.038100     2.535500
     210    1      9   0.16482537     3.972900     2.186000     3.698700
     211    1      9   0.16482537     5.772300     2.775000     5.595900
     212    1      9   0.16482537     8.192300     1.625100     5.548800
     213    1      9   0.16482537     8.815100    -0.108300     3.602500
     214    1      9   0.16482537     7.017500    -0.691200     1.701500
     215    1      1  -0.09056217     5.707000     3.589100    -2.288000
     216    1      2  -0.15054981     6.337100     4.922000    -1.847800
     217    1      2  -0.15054981     7.846500     5.160100    -2.049000
     218    1      2  -0.15054981     8.720400     4.069600    -2.697800
     219    1      2  -0.15054981     8.084900     2.744700    -3.155900
     220    1      2  -0.15054981     6.577500     2.509400    -2.959100
     221    1      9   0.16482537     5.689700     5.730200    -1.371400
     222    1      9   0.16482537     8.317500     6.143600    -1.716200
     223    1      9   0.16482537     9.837300     4.245500    -2.842400
     224    1      9   0.16482537     8.729800     1.939500    -3.641200
     225    1      9   0.16482537     6.102900     1.532900    -3.307300
     226    1      3  -0.04228717   -14.666000    10.366000     2.304700
     227    1      2  -0.15054981   -14.205200    11.832200     2.229800
     228    1      2  -0.15054981   -15.244700    12.959200     2.086800
     229    1      2  -0.15054981   -16.745100    12.618400     2.024300
     230    1      2  -0.15054981   -17.205600    11.150300     2.097300
     231    1      2  -0.15054981   -16.165100    10.023100     2.231300
     232    1      9   0.16482537   -13.094200    12.082500     2.277700
     233    1      9   0.16482537   -14.903900    14.045500     2.027500
     234    1      9   0.16482537   -17.514900    13.452600     1.920800
     235    1      9   0.16482537   -18.316200    10.898100     2.045800
     236    1      9   0.16482537   -16.503600     8.935400     2.274900
     237    1      3  -0.04228717   -14.876300     9.292100    -0.413900
     238    1      2  -0.15054981   -14.563400    10.798300    -0.485400
     239    1      2  -0.15054981   -15.711800    11.817300    -0.613200
     240    1      2  -0.15054981   -17.171300    11.330000    -0.677200
     241    1      2  -0.15054981   -17.483400     9.824000    -0.602800
     242    1      2  -0.15054981   -16.336100     8.805600    -0.472900
     243    1      9   0.16482537   -13.482900    11.159000    -0.438000
     244    1      9   0.16482537   -15.481700    12.932900    -0.656900
     245    1      9   0.16482537   -18.020800    12.083900    -0.775100
     246    1      9   0.16482537   -18.563800     9.462800    -0.643500
     247    1      9   0.16482537   -16.566800     7.690400    -0.419600
     248    1      6  -0.19143667     6.659500     2.414600     0.999900
     249    1      6  -0.19143667     7.286500     3.784800     0.687400
     250    1     10   0.09977292     6.254800     2.413900     2.064600
     251    1     10   0.09977292     7.461700     1.611400     0.895000
     252    1     10   0.09977292     6.498300     4.601100     0.796800
     253    1     10   0.09977292     7.691900     3.786700    -0.378400
     254    1      6  -0.19143667     4.368800     2.601400    -5.909600
     255    1      4  -0.14303925     4.952000     3.753300    -6.749300
     256    1     10   0.09977292     3.338200     2.281600    -6.277000
     257    1     10   0.09977292     5.084700     1.714400    -5.901100
     258    1     10   0.09977292     4.216300     4.624100    -6.746800
     259    1     10   0.09977292     5.909800     4.090400    -6.231300

Bonds

       1      9        1        2
       2     15        1        3
       3     15        1        4
       4     15        1        5
       5     13        2        6
       6     13        2        7
       7      4        2       50
       8      9        8        9
       9     15        8       10
      10     15        8       11
      11     15        8       12
      12     13        9       13
      13     13        9       14
      14      4        9      173
      15      9       15       16
      16     15       15       17
      17     15       15       18
      18     15       15       19
      19     13       16       20
      20     13       16       21
      21      4       16      175
      22     14       22       23
      23     15       22       24
      24     15       22       25
      25     15       22       26
      26     19       23       27
      27     19       23       28
      28     16       23      182
      29     14       29       30
      30     15       29       31
      31     15       29       32
      32     15       29       33
      33     19       30       34
      34     19       30       35
      35     16       30      184
      36     14       36       37
      37     15       36       38
      38     15       36       39
      39     15       36       40
      40     19       37       41
      41     19       37       42
      42     16       37      249
      43      9       43       44
      44     15       43       45
      45     15       43       46
      46     15       43       47
      47     13       44       48
      48     13       44       49
      49      4       44       93
      50      2       50       51
      51      5       51       52
      52      7       51       56
      53      6       52       53
      54      7       52       57
      55      6       53       54
      56      8       53       60
      57      5       54       55
      58      7       54       58
      59      2       55       50
      60      7       55       59
      61      6       60       61
      62      5       61       62
      63      7       61       66
      64      2       62       63
      65      7       62       67
      66      2       63       64
      67      4       63      121
      68      5       64       65
      69      7       64       68
      70      6       65       60
      71      7       65       69
      72      2       70       71
      73      4       70      122
      74      5       71       72
      75      7       71       76
      76      6       72       73
      77      7       72       77
      78      6       73       74
      79      8       73      164
      80      5       74       75
      81      7       74       78
      82      2       75       70
      83      7       75       79
      84      6       80       81
      85      8       80      165
      86      5       81       82
      87      7       81       86
      88      6       82       83
      89      7       82       87
      90      6       83       84
      91      8       83      172
      92      5       84       85
      93      7       84       88
      94      6       85       80
      95      7       85       89
      96      2       90       91
      97      4       90      255
      98      5       91       92
      99      7       91       96
     100      2       92       93
     101      7       92       97
     102      2       93       94
     103      5       94       95
     104      7       94       98
     105      2       95       90
     106      7       95       99
     107      2      100      101
     108      4      100      155
     109      5      101      102
     110      7      101      106
     111      6      102      103
     112      7      102      107
     113      6      103      104
     114      8      103      226
     115      5      104      105
     116      7      104      108
     117      2      105      100
     118      7      105      109
     119      2      110      111
     120      4      110      156
     121      5      111      112
     122      7      111      116
     123      6      112      113
     124      7      112      117
     125      6      113      114
     126      8      113      237
     127      5      114      115
     128      7      114      118
     129      2      115      110
     130      7      115      119
     131     11      120      121
     132     11      120      122
     133     17      120      123
     134     20      120      124
     135     13      121      125
     136     13      121      126
     137     13      122      127
     138     13      122      128
     139     19      123      129
     140     19      123      130
     141     16      123      154
     142     11      131      132
     143     11      131      133
     144     17      131      134
     145     20      131      135
     146     13      132      136
     147     13      132      137
     148      4      132      167
     149     13      133      138
     150     13      133      139
     151      4      133      204
     152     19      134      140
     153     19      134      141
     154     16      134      248
     155     11      142      143
     156     11      142      144
     157     17      142      145
     158     20      142      146
     159     13      143      147
     160     13      143      148
     161      4      143      168
     162     13      144      149
     163     13      144      150
     164      4      144      215
     165     19      145      151
     166     19      145      152
     167     16      145      254
     168     17      153      154
     169     11      153      155
     170     11      153      156
     171     20      153      157
     172     19      154      158
     173     19      154      159
     174     13      155      160
     175     13      155      161
     176     13      156      162
     177     13      156      163
     178      8      164      165
     179      6      165      166
     180      2      166      167
     181      7      166      170
     182      1      167      168
     183      2      168      169
     184      6      169      164
     185      7      169      171
     186      3      172      173
     187      2      173      174
     188      2      174      175
     189      7      174      178
     190      1      175      176
     191      2      176      177
     192      4      176      181
     193      6      177      172
     194      7      177      179
     195     12      180      181
     196     18      180      182
     197     12      180      183
     198     18      180      184
     199     13      181      185
     200     13      181      186
     201     19      182      187
     202     19      182      188
     203     13      183      189
     204     13      183      190
     205      4      183      193
     206     19      184      191
     207     19      184      192
     208      2      193      194
     209      5      194      195
     210      7      194      199
     211      5      195      196
     212      7      195      200
     213      5      196      197
     214      7      196      201
     215      5      197      198
     216      7      197      202
     217      2      198      193
     218      7      198      203
     219      2      204      205
     220      5      205      206
     221      7      205      210
     222      5      206      207
     223      7      206      211
     224      5      207      208
     225      7      207      212
     226      5      208      209
     227      7      208      213
     228      2      209      204
     229      7      209      214
     230      2      215      216
     231      5      216      217
     232      7      216      221
     233      5      217      218
     234      7      217      222
     235      5      218      219
     236      7      218      223
     237      5      219      220
     238      7      219      224
     239      2      220      215
     240      7      220      225
     241      6      226      227
     242      5      227      228
     243      7      227      232
     244      5      228      229
     245      7      228      233
     246      5      229      230
     247      7      229      234
     248      5      230      231
     249      7      230      235
     250      6      231      226
     251      7      231      236
     252      6      237      238
     253      5      238      239
     254      7      238      243
     255      5      239      240
     256      7      239      244
     257      5      240      241
     258      7      240      245
     259      5      241      242
     260      7      241      246
     261      6      242      237
     262      7      242      247
     263     16      248      249
     264     19      248      250
     265     19      248      251
     266     19      249      252
     267     19      249      253
     268     10      254      255
     269     19      254      256
     270     19      254      257
     271     13      255      258
     272     13      255      259

Angles

       1     33        1        2        6
       2     33        1        2        7
       3      9        1        2       50
       4     25        2        1        3
       5     25        2        1        4
       6     25        2        1        5
       7     16        2       50       51
       8     16        2       50       55
       9     49        3        1        4
      10     49        3        1        5
      11     49        4        1        5
      12     48        6        2        7
      13     13        6        2       50
      14     13        7        2       50
      15     33        8        9       13
      16     33        8        9       14
      17      9        8        9      173
      18     25        9        8       10
      19     25        9        8       11
      20     25        9        8       12
      21     22        9      173      172
      22     16        9      173      174
      23     49       10        8       11
      24     49       10        8       12
      25     49       11        8       12
      26     48       13        9       14
      27     13       13        9      173
      28     13       14        9      173
      29     33       15       16       20
      30     33       15       16       21
      31      9       15       16      175
      32     25       16       15       17
      33     25       16       15       18
      34     25       16       15       19
      35     16       16      175      174
      36      2       16      175      176
      37     49       17       15       18
      38     49       17       15       19
      39     49       18       15       19
      40     48       20       16       21
      41     13       20       16      175
      42     13       21       16      175
      43     35       22       23       27
      44     35       22       23       28
      45     34       22       23      182
      46     37       23       22       24
      47     37       23       22       25
      48     37       23       22       26
      49     40       23      182      180
      50     41       23      182      187
      51     41       23      182      188
      52     49       24       22       25
      53     49       24       22       26
      54     49       25       22       26
      55     50       27       23       28
      56     41       27       23      182
      57     41       28       23      182
      58     35       29       30       34
      59     35       29       30       35
      60     34       29       30      184
      61     37       30       29       31
      62     37       30       29       32
      63     37       30       29       33
      64     40       30      184      180
      65     41       30      184      191
      66     41       30      184      192
      67     49       31       29       32
      68     49       31       29       33
      69     49       32       29       33
      70     50       34       30       35
      71     41       34       30      184
      72     41       35       30      184
      73     35       36       37       41
      74     35       36       37       42
      75     34       36       37      249
      76     37       37       36       38
      77     37       37       36       39
      78     37       37       36       40
      79     38       37      249      248
      80     41       37      249      252
      81     41       37      249      253
      82     49       38       36       39
      83     49       38       36       40
      84     49       39       36       40
      85     50       41       37       42
      86     41       41       37      249
      87     41       42       37      249
      88     33       43       44       48
      89     33       43       44       49
      90      9       43       44       93
      91     25       44       43       45
      92     25       44       43       46
      93     25       44       43       47
      94     16       44       93       92
      95     16       44       93       94
      96     49       45       43       46
      97     49       45       43       47
      98     49       46       43       47
      99     48       48       44       49
     100     13       48       44       93
     101     13       49       44       93
     102      4       50       51       52
     103      6       50       51       56
     104      4       50       55       54
     105      6       50       55       59
     106     14       51       50       55
     107     18       51       52       53
     108     19       51       52       57
     109     19       52       51       56
     110     20       52       53       54
     111     21       52       53       60
     112     23       53       52       57
     113     18       53       54       55
     114     23       53       54       58
     115     21       53       60       61
     116     21       53       60       65
     117     21       54       53       60
     118     19       54       55       59
     119     19       55       54       58
     120     18       60       61       62
     121     23       60       61       66
     122     18       60       65       64
     123     23       60       65       69
     124     20       61       60       65
     125      4       61       62       63
     126     19       61       62       67
     127     19       62       61       66
     128     14       62       63       64
     129     16       62       63      121
     130      6       63       62       67
     131      4       63       64       65
     132      6       63       64       68
     133     11       63      121      120
     134     13       63      121      125
     135     13       63      121      126
     136     16       64       63      121
     137     19       64       65       69
     138     19       65       64       68
     139      4       70       71       72
     140      6       70       71       76
     141      4       70       75       74
     142      6       70       75       79
     143     11       70      122      120
     144     13       70      122      127
     145     13       70      122      128
     146     14       71       70       75
     147     16       71       70      122
     148     18       71       72       73
     149     19       71       72       77
     150     19       72       71       76
     151     20       72       73       74
     152     21       72       73      164
     153     23       73       72       77
     154     18       73       74       75
     155     23       73       74       78
     156     24       73      164      165
     157     21       73      164      169
     158     21       74       73      164
     159     19       74       75       79
     160     16       75       70      122
     161     19       75       74       78
     162     18       80       81       82
     163     23       80       81       86
     164     18       80       85       84
     165     23       80       85       89
     166     24       80      165      164
     167     21       80      165      166
     168     20       81       80       85
     169     21       81       80      165
     170     18       81       82       83
     171     19       81       82       87
     172     19       82       81       86
     173     20       82       83       84
     174     21       82       83      172
     175     23       83       82       87
     176     18       83       84       85
     177     23       83       84       88
     178      8       83      172      173
     179     21       83      172      177
     180     21       84       83      172
     181     19       84       85       89
     182     21       85       80      165
     183     19       85       84       88
     184      4       90       91       92
     185      6       90       91       96
     186      4       90       95       94
     187      6       90       95       99
     188     10       90      255      254
     189     13       90      255      258
     190     13       90      255      259
     191     14       91       90       95
     192     16       91       90      255
     193      4       91       92       93
     194     19       91       92       97
     195     19       92       91       96
     196     14       92       93       94
     197      6       93       92       97
     198      4       93       94       95
     199      6       93       94       98
     200     19       94       95       99
     201     16       95       90      255
     202     19       95       94       98
     203      4      100      101      102
     204      6      100      101      106
     205      4      100      105      104
     206      6      100      105      109
     207     11      100      155      153
     208     13      100      155      160
     209     13      100      155      161
     210     14      101      100      105
     211     16      101      100      155
     212     18      101      102      103
     213     19      101      102      107
     214     19      102      101      106
     215     20      102      103      104
     216     21      102      103      226
     217     23      103      102      107
     218     18      103      104      105
     219     23      103      104      108
     220     21      103      226      227
     221     21      103      226      231
     222     21      104      103      226
     223     19      104      105      109
     224     16      105      100      155
     225     19      105      104      108
     226      4      110      111      112
     227      6      110      111      116
     228      4      110      115      114
     229      6      110      115      119
     230     11      110      156      153
     231     13      110      156      162
     232     13      110      156      163
     233     14      111      110      115
     234     16      111      110      156
     235     18      111      112      113
     236     19      111      112      117
     237     19      112      111      116
     238     20      112      113      114
     239     21      112      113      237
     240     23      113      112      117
     241     18      113      114      115
     242     23      113      114      118
     243     21      113      237      238
     244     21      113      237      242
     245     21      114      113      237
     246     19      114      115      119
     247     16      115      110      156
     248     19      115      114      118
     249     44      120      121      125
     250     44      120      121      126
     251     44      120      122      127
     252     44      120      122      128
     253     45      120      123      129
     254     45      120      123      130
     255     39      120      123      154
     256     28      121      120      122
     257     29      121      120      123
     258     30      121      120      124
     259     29      122      120      123
     260     30      122      120      124
     261     42      123      120      124
     262     39      123      154      153
     263     41      123      154      158
     264     41      123      154      159
     265     48      125      121      126
     266     48      127      122      128
     267     50      129      123      130
     268     41      129      123      154
     269     41      130      123      154
     270     44      131      132      136
     271     44      131      132      137
     272     11      131      132      167
     273     44      131      133      138
     274     44      131      133      139
     275     11      131      133      204
     276     45      131      134      140
     277     45      131      134      141
     278     39      131      134      248
     279     28      132      131      133
     280     29      132      131      134
     281     30      132      131      135
     282     16      132      167      166
     283      2      132      167      168
     284     29      133      131      134
     285     30      133      131      135
     286     16      133      204      205
     287     16      133      204      209
     288     42      134      131      135
     289     38      134      248      249
     290     41      134      248      250
     291     41      134      248      251
     292     48      136      132      137
     293     13      136      132      167
     294     13      137      132      167
     295     48      138      133      139
     296     13      138      133      204
     297     13      139      133      204
     298     50      140      134      141
     299     41      140      134      248
     300     41      141      134      248
     301     44      142      143      147
     302     44      142      143      148
     303     11      142      143      168
     304     44      142      144      149
     305     44      142      144      150
     306     11      142      144      215
     307     45      142      145      151
     308     45      142      145      152
     309     39      142      145      254
     310     28      143      142      144
     311     29      143      142      145
     312     30      143      142      146
     313      2      143      168      167
     314     16      143      168      169
     315     29      144      142      145
     316     30      144      142      146
     317     16      144      215      216
     318     16      144      215      220
     319     42      145      142      146
     320     26      145      254      255
     321     41      145      254      256
     322     41      145      254      257
     323     48      147      143      148
     324     13      147      143      168
     325     13      148      143      168
     326     48      149      144      150
     327     13      149      144      215
     328     13      150      144      215
     329     50      151      145      152
     330     41      151      145      254
     331     41      152      145      254
     332     45      153      154      158
     333     45      153      154      159
     334     44      153      155      160
     335     44      153      155      161
     336     44      153      156      162
     337     44      153      156      163
     338     29      154      153      155
     339     29      154      153      156
     340     42      154      153      157
     341     28      155      153      156
     342     30      155      153      157
     343     30      156      153      157
     344     50      158      154      159
     345     48      160      155      161
     346     48      162      156      163
     347     21      164      165      166
     348      5      164      169      168
     349     23      164      169      171
     350     21      165      164      169
     351      5      165      166      167
     352     23      165      166      170
     353      1      166      167      168
     354      6      167      166      170
     355      1      167      168      169
     356      6      168      169      171
     357     15      172      173      174
     358      5      172      177      176
     359     23      172      177      179
     360      7      173      172      177
     361      3      173      174      175
     362      6      173      174      178
     363      1      174      175      176
     364      6      175      174      178
     365      1      175      176      177
     366      2      175      176      181
     367      6      176      177      179
     368     12      176      181      180
     369     13      176      181      185
     370     13      176      181      186
     371     16      177      176      181
     372     46      180      181      185
     373     46      180      181      186
     374     47      180      182      187
     375     47      180      182      188
     376     46      180      183      189
     377     46      180      183      190
     378     12      180      183      193
     379     47      180      184      191
     380     47      180      184      192
     381     32      181      180      182
     382     31      181      180      183
     383     32      181      180      184
     384     32      182      180      183
     385     43      182      180      184
     386     32      183      180      184
     387     16      183      193      194
     388     16      183      193      198
     389     48      185      181      186
     390     50      187      182      188
     391     48      189      183      190
     392     13      189      183      193
     393     13      190      183      193
     394     50      191      184      192
     395      4      193      194      195
     396      6      193      194      199
     397      4      193      198      197
     398      6      193      198      203
     399     14      194      193      198
     400     17      194      195      196
     401     19      194      195      200
     402     19      195      194      199
     403     17      195      196      197
     404     19      195      196      201
     405     19      196      195      200
     406     17      196      197      198
     407     19      196      197      202
     408     19      197      196      201
     409     19      197      198      203
     410     19      198      197      202
     411      4      204      205      206
     412      6      204      205      210
     413      4      204      209      208
     414      6      204      209      214
     415     14      205      204      209
     416     17      205      206      207
     417     19      205      206      211
     418     19      206      205      210
     419     17      206      207      208
     420     19      206      207      212
     421     19      207      206      211
     422     17      207      208      209
     423     19      207      208      213
     424     19      208      207      212
     425     19      208      209      214
     426     19      209      208      213
     427      4      215      216      217
     428      6      215      216      221
     429      4      215      220      219
     430      6      215      220      225
     431     14      216      215      220
     432     17      216      217      218
     433     19      216      217      222
     434     19      217      216      221
     435     17      217      218      219
     436     19      217      218      223
     437     19      218      217      222
     438     17      218      219      220
     439     19      218      219      224
     440     19      219      218      223
     441     19      219      220      225
     442     19      220      219      224
     443     18      226      227      228
     444     23      226      227      232
     445     18      226      231      230
     446     23      226      231      236
     447     20      227      226      231
     448     17      227      228      229
     449     19      227      228      233
     450     19      228      227      232
     451     17      228      229      230
     452     19      228      229      234
     453     19      229      228      233
     454     17      229      230      231
     455     19      229      230      235
     456     19      230      229      234
     457     19      230      231      236
     458     19      231      230      235
     459     18      237      238      239
     460     23      237      238      243
     461     18      237      242      241
     462     23      237      242      247
     463     20      238      237      242
     464     17      238      239      240
     465     19      238      239      244
     466     19      239      238      243
     467     17      239      240      241
     468     19      239      240      245
     469     19      240      239      244
     470     17      240      241      242
     471     19      240      241      246
     472     19      241      240      245
     473     19      241      242      247
     474     19      242      241      246
     475     41      248      249      252
     476     41      248      249      253
     477     41      249      248      250
     478     41      249      248      251
     479     50      250      248      251
     480     50      252      249      253
     481     36      254      255      258
     482     36      254      255      259
     483     27      255      254      256
     484     27      255      254      257
     485     50      256      254      257
     486     48      258      255      259

Dihedrals

       1     32        1        2       50       51
       2     32        1        2       50       55
       3     37        2       50       51       52
       4     57        2       50       51       56
       5     37        2       50       55       54
       6     57        2       50       55       59
       7     83        3        1        2        6
       8     83        3        1        2        7
       9     18        3        1        2       50
      10     83        4        1        2        6
      11     83        4        1        2        7
      12     18        4        1        2       50
      13     83        5        1        2        6
      14     83        5        1        2        7
      15     18        5        1        2       50
      16     36        6        2       50       51
      17     36        6        2       50       55
      18     36        7        2       50       51
      19     36        7        2       50       55
      20     48        8        9      173      172
      21     32        8        9      173      174
      22     53        9      173      172       83
      23     43        9      173      172      177
      24      9        9      173      174      175
      25     57        9      173      174      178
      26     83       10        8        9       13
      27     83       10        8        9       14
      28     18       10        8        9      173
      29     83       11        8        9       13
      30     83       11        8        9       14
      31     18       11        8        9      173
      32     83       12        8        9       13
      33     83       12        8        9       14
      34     18       12        8        9      173
      35     49       13        9      173      172
      36     36       13        9      173      174
      37     49       14        9      173      172
      38     36       14        9      173      174
      39     32       15       16      175      174
      40      4       15       16      175      176
      41      9       16      175      174      173
      42     57       16      175      174      178
      43     27       16      175      176      177
      44     56       16      175      176      181
      45     83       17       15       16       20
      46     83       17       15       16       21
      47     18       17       15       16      175
      48     83       18       15       16       20
      49     83       18       15       16       21
      50     18       18       15       16      175
      51     83       19       15       16       20
      52     83       19       15       16       21
      53     18       19       15       16      175
      54     36       20       16      175      174
      55      7       20       16      175      176
      56     36       21       16      175      174
      57      7       21       16      175      176
      58     67       22       23      182      180
      59     68       22       23      182      187
      60     68       22       23      182      188
      61     64       23      182      180      181
      62     64       23      182      180      183
      63     75       23      182      180      184
      64     86       24       22       23       27
      65     86       24       22       23       28
      66     70       24       22       23      182
      67     86       25       22       23       27
      68     86       25       22       23       28
      69     70       25       22       23      182
      70     86       26       22       23       27
      71     86       26       22       23       28
      72     70       26       22       23      182
      73     81       27       23      182      180
      74     87       27       23      182      187
      75     87       27       23      182      188
      76     81       28       23      182      180
      77     87       28       23      182      187
      78     87       28       23      182      188
      79     67       29       30      184      180
      80     68       29       30      184      191
      81     68       29       30      184      192
      82     64       30      184      180      181
      83     75       30      184      180      182
      84     64       30      184      180      183
      85     86       31       29       30       34
      86     86       31       29       30       35
      87     70       31       29       30      184
      88     86       32       29       30       34
      89     86       32       29       30       35
      90     70       32       29       30      184
      91     86       33       29       30       34
      92     86       33       29       30       35
      93     70       33       29       30      184
      94     81       34       30      184      180
      95     87       34       30      184      191
      96     87       34       30      184      192
      97     81       35       30      184      180
      98     87       35       30      184      191
      99     87       35       30      184      192
     100     66       36       37      249      248
     101     68       36       37      249      252
     102     68       36       37      249      253
     103     71       37      249      248      134
     104     73       37      249      248      250
     105     73       37      249      248      251
     106     86       38       36       37       41
     107     86       38       36       37       42
     108     70       38       36       37      249
     109     86       39       36       37       41
     110     86       39       36       37       42
     111     70       39       36       37      249
     112     86       40       36       37       41
     113     86       40       36       37       42
     114     70       40       36       37      249
     115     73       41       37      249      248
     116     87       41       37      249      252
     117     87       41       37      249      253
     118     73       42       37      249      248
     119     87       42       37      249      252
     120     87       42       37      249      253
     121     32       43       44       93       92
     122     32       43       44       93       94
     123     37       44       93       92       91
     124     57       44       93       92       97
     125     37       44       93       94       95
     126     57       44       93       94       98
     127     83       45       43       44       48
     128     83       45       43       44       49
     129     18       45       43       44       93
     130     83       46       43       44       48
     131     83       46       43       44       49
     132     18       46       43       44       93
     133     83       47       43       44       48
     134     83       47       43       44       49
     135     18       47       43       44       93
     136     36       48       44       93       92
     137     36       48       44       93       94
     138     36       49       44       93       92
     139     36       49       44       93       94
     140     12       50       51       52       53
     141     13       50       51       52       57
     142     12       50       55       54       53
     143     13       50       55       54       58
     144     28       51       50       55       54
     145     29       51       50       55       59
     146     41       51       52       53       54
     147     42       51       52       53       60
     148     28       52       51       50       55
     149     41       52       53       54       55
     150     44       52       53       54       58
     151     45       52       53       60       61
     152     45       52       53       60       65
     153     52       53       52       51       56
     154     52       53       54       55       59
     155     42       53       60       61       62
     156     54       53       60       61       66
     157     42       53       60       65       64
     158     54       53       60       65       69
     159     44       54       53       52       57
     160     45       54       53       60       61
     161     45       54       53       60       65
     162     29       55       50       51       56
     163     42       55       54       53       60
     164     82       56       51       52       57
     165     54       57       52       53       60
     166     54       58       54       53       60
     167     82       58       54       55       59
     168     12       60       61       62       63
     169     52       60       61       62       67
     170     12       60       65       64       63
     171     52       60       65       64       68
     172     41       61       60       65       64
     173     44       61       60       65       69
     174     28       61       62       63       64
     175     37       61       62       63      121
     176     41       62       61       60       65
     177     28       62       63       64       65
     178     29       62       63       64       68
     179     34       62       63      121      120
     180     36       62       63      121      125
     181     36       62       63      121      126
     182     13       63       62       61       66
     183     13       63       64       65       69
     184     21       63      121      120      122
     185     22       63      121      120      123
     186     23       63      121      120      124
     187     29       64       63       62       67
     188     34       64       63      121      120
     189     36       64       63      121      125
     190     36       64       63      121      126
     191     44       65       60       61       66
     192     37       65       64       63      121
     193     82       66       61       62       67
     194     57       67       62       63      121
     195     57       68       64       63      121
     196     82       68       64       65       69
     197     12       70       71       72       73
     198     13       70       71       72       77
     199     12       70       75       74       73
     200     13       70       75       74       78
     201     21       70      122      120      121
     202     22       70      122      120      123
     203     23       70      122      120      124
     204     28       71       70       75       74
     205     29       71       70       75       79
     206     34       71       70      122      120
     207     36       71       70      122      127
     208     36       71       70      122      128
     209     41       71       72       73       74
     210     42       71       72       73      164
     211     28       72       71       70       75
     212     37       72       71       70      122
     213     41       72       73       74       75
     214     44       72       73       74       78
     215     46       72       73      164      165
     216     45       72       73      164      169
     217     52       73       72       71       76
     218     52       73       74       75       79
     219     55       73      164      165       80
     220     46       73      164      165      166
     221     15       73      164      169      168
     222     54       73      164      169      171
     223     44       74       73       72       77
     224     46       74       73      164      165
     225     45       74       73      164      169
     226     37       74       75       70      122
     227     29       75       70       71       76
     228     34       75       70      122      120
     229     36       75       70      122      127
     230     36       75       70      122      128
     231     42       75       74       73      164
     232     57       76       71       70      122
     233     82       76       71       72       77
     234     54       77       72       73      164
     235     54       78       74       73      164
     236     82       78       74       75       79
     237     57       79       75       70      122
     238     51       80       81       82       83
     239     52       80       81       82       87
     240     51       80       85       84       83
     241     52       80       85       84       88
     242     46       80      165      164      169
     243     15       80      165      166      167
     244     54       80      165      166      170
     245     41       81       80       85       84
     246     44       81       80       85       89
     247     46       81       80      165      164
     248     45       81       80      165      166
     249     41       81       82       83       84
     250     42       81       82       83      172
     251     41       82       81       80       85
     252     42       82       81       80      165
     253     41       82       83       84       85
     254     44       82       83       84       88
     255     17       82       83      172      173
     256     45       82       83      172      177
     257     52       83       82       81       86
     258     52       83       84       85       89
     259     31       83      172      173      174
     260     15       83      172      177      176
     261     54       83      172      177      179
     262     44       84       83       82       87
     263     17       84       83      172      173
     264     45       84       83      172      177
     265     42       84       85       80      165
     266     44       85       80       81       86
     267     46       85       80      165      164
     268     45       85       80      165      166
     269     42       85       84       83      172
     270     54       86       81       80      165
     271     82       86       81       82       87
     272     54       87       82       83      172
     273     54       88       84       83      172
     274     82       88       84       85       89
     275     54       89       85       80      165
     276     10       90       91       92       93
     277     13       90       91       92       97
     278     10       90       95       94       93
     279     13       90       95       94       98
     280     19       90      255      254      145
     281     20       90      255      254      256
     282     20       90      255      254      257
     283     28       91       90       95       94
     284     29       91       90       95       99
     285     33       91       90      255      254
     286     36       91       90      255      258
     287     36       91       90      255      259
     288     28       91       92       93       94
     289     28       92       91       90       95
     290     37       92       91       90      255
     291     28       92       93       94       95
     292     29       92       93       94       98
     293     13       93       92       91       96
     294     13       93       94       95       99
     295     29       94       93       92       97
     296     37       94       95       90      255
     297     29       95       90       91       96
     298     33       95       90      255      254
     299     36       95       90      255      258
     300     36       95       90      255      259
     301     57       96       91       90      255
     302     82       96       91       92       97
     303     82       98       94       95       99
     304     57       99       95       90      255
     305     12      100      101      102      103
     306     13      100      101      102      107
     307     12      100      105      104      103
     308     13      100      105      104      108
     309     22      100      155      153      154
     310     21      100      155      153      156
     311     23      100      155      153      157
     312     28      101      100      105      104
     313     29      101      100      105      109
     314     34      101      100      155      153
     315     36      101      100      155      160
     316     36      101      100      155      161
     317     41      101      102      103      104
     318     42      101      102      103      226
     319     28      102      101      100      105
     320     37      102      101      100      155
     321     41      102      103      104      105
     322     44      102      103      104      108
     323     45      102      103      226      227
     324     45      102      103      226      231
     325     52      103      102      101      106
     326     52      103      104      105      109
     327     42      103      226      227      228
     328     54      103      226      227      232
     329     42      103      226      231      230
     330     54      103      226      231      236
     331     44      104      103      102      107
     332     45      104      103      226      227
     333     45      104      103      226      231
     334     37      104      105      100      155
     335     29      105      100      101      106
     336     34      105      100      155      153
     337     36      105      100      155      160
     338     36      105      100      155      161
     339     42      105      104      103      226
     340     57      106      101      100      155
     341     82      106      101      102      107
     342     54      107      102      103      226
     343     54      108      104      103      226
     344     82      108      104      105      109
     345     57      109      105      100      155
     346     12      110      111      112      113
     347     13      110      111      112      117
     348     12      110      115      114      113
     349     13      110      115      114      118
     350     22      110      156      153      154
     351     21      110      156      153      155
     352     23      110      156      153      157
     353     28      111      110      115      114
     354     29      111      110      115      119
     355     34      111      110      156      153
     356     36      111      110      156      162
     357     36      111      110      156      163
     358     41      111      112      113      114
     359     42      111      112      113      237
     360     28      112      111      110      115
     361     37      112      111      110      156
     362     41      112      113      114      115
     363     44      112      113      114      118
     364     45      112      113      237      238
     365     45      112      113      237      242
     366     52      113      112      111      116
     367     52      113      114      115      119
     368     42      113      237      238      239
     369     54      113      237      238      243
     370     42      113      237      242      241
     371     54      113      237      242      247
     372     44      114      113      112      117
     373     45      114      113      237      238
     374     45      114      113      237      242
     375     37      114      115      110      156
     376     29      115      110      111      116
     377     34      115      110      156      153
     378     36      115      110      156      162
     379     36      115      110      156      163
     380     42      115      114      113      237
     381     57      116      111      110      156
     382     82      116      111      112      117
     383     54      117      112      113      237
     384     54      118      114      113      237
     385     82      118      114      115      119
     386     57      119      115      110      156
     387     79      120      123      154      153
     388     80      120      123      154      158
     389     80      120      123      154      159
     390     60      121      120      122      127
     391     60      121      120      122      128
     392     62      121      120      123      129
     393     62      121      120      123      130
     394     61      121      120      123      154
     395     60      122      120      121      125
     396     60      122      120      121      126
     397     62      122      120      123      129
     398     62      122      120      123      130
     399     61      122      120      123      154
     400     76      123      120      121      125
     401     76      123      120      121      126
     402     76      123      120      122      127
     403     76      123      120      122      128
     404     61      123      154      153      155
     405     61      123      154      153      156
     406     74      123      154      153      157
     407     85      124      120      121      125
     408     85      124      120      121      126
     409     85      124      120      122      127
     410     85      124      120      122      128
     411     88      124      120      123      129
     412     88      124      120      123      130
     413     74      124      120      123      154
     414     80      129      123      154      153
     415     87      129      123      154      158
     416     87      129      123      154      159
     417     80      130      123      154      153
     418     87      130      123      154      158
     419     87      130      123      154      159
     420     34      131      132      167      166
     421      5      131      132      167      168
     422     34      131      133      204      205
     423     34      131      133      204      209
     424     72      131      134      248      249
     425     80      131      134      248      250
     426     80      131      134      248      251
     427     60      132      131      133      138
     428     60      132      131      133      139
     429     21      132      131      133      204
     430     62      132      131      134      140
     431     62      132      131      134      141
     432     61      132      131      134      248
     433     50      132      167      166      165
     434     57      132      167      166      170
     435     56      132      167      168      143
     436     27      132      167      168      169
     437     60      133      131      132      136
     438     60      133      131      132      137
     439     21      133      131      132      167
     440     62      133      131      134      140
     441     62      133      131      134      141
     442     61      133      131      134      248
     443     37      133      204      205      206
     444     57      133      204      205      210
     445     37      133      204      209      208
     446     57      133      204      209      214
     447     76      134      131      132      136
     448     76      134      131      132      137
     449     22      134      131      132      167
     450     76      134      131      133      138
     451     76      134      131      133      139
     452     22      134      131      133      204
     453     73      134      248      249      252
     454     73      134      248      249      253
     455     85      135      131      132      136
     456     85      135      131      132      137
     457     23      135      131      132      167
     458     85      135      131      133      138
     459     85      135      131      133      139
     460     23      135      131      133      204
     461     88      135      131      134      140
     462     88      135      131      134      141
     463     74      135      131      134      248
     464     36      136      132      167      166
     465      7      136      132      167      168
     466     36      137      132      167      166
     467      7      137      132      167      168
     468     36      138      133      204      205
     469     36      138      133      204      209
     470     36      139      133      204      205
     471     36      139      133      204      209
     472     73      140      134      248      249
     473     87      140      134      248      250
     474     87      140      134      248      251
     475     73      141      134      248      249
     476     87      141      134      248      250
     477     87      141      134      248      251
     478      5      142      143      168      167
     479     34      142      143      168      169
     480     34      142      144      215      216
     481     34      142      144      215      220
     482     58      142      145      254      255
     483     80      142      145      254      256
     484     80      142      145      254      257
     485     60      143      142      144      149
     486     60      143      142      144      150
     487     21      143      142      144      215
     488     62      143      142      145      151
     489     62      143      142      145      152
     490     61      143      142      145      254
     491     27      143      168      167      166
     492     50      143      168      169      164
     493     57      143      168      169      171
     494     60      144      142      143      147
     495     60      144      142      143      148
     496     21      144      142      143      168
     497     62      144      142      145      151
     498     62      144      142      145      152
     499     61      144      142      145      254
     500     37      144      215      216      217
     501     57      144      215      216      221
     502     37      144      215      220      219
     503     57      144      215      220      225
     504     76      145      142      143      147
     505     76      145      142      143      148
     506     22      145      142      143      168
     507     76      145      142      144      149
     508     76      145      142      144      150
     509     22      145      142      144      215
     510     69      145      254      255      258
     511     69      145      254      255      259
     512     85      146      142      143      147
     513     85      146      142      143      148
     514     23      146      142      143      168
     515     85      146      142      144      149
     516     85      146      142      144      150
     517     23      146      142      144      215
     518     88      146      142      145      151
     519     88      146      142      145      152
     520     74      146      142      145      254
     521      7      147      143      168      167
     522     36      147      143      168      169
     523      7      148      143      168      167
     524     36      148      143      168      169
     525     36      149      144      215      216
     526     36      149      144      215      220
     527     36      150      144      215      216
     528     36      150      144      215      220
     529     59      151      145      254      255
     530     87      151      145      254      256
     531     87      151      145      254      257
     532     59      152      145      254      255
     533     87      152      145      254      256
     534     87      152      145      254      257
     535     76      154      153      155      160
     536     76      154      153      155      161
     537     76      154      153      156      162
     538     76      154      153      156      163
     539     62      155      153      154      158
     540     62      155      153      154      159
     541     60      155      153      156      162
     542     60      155      153      156      163
     543     62      156      153      154      158
     544     62      156      153      154      159
     545     60      156      153      155      160
     546     60      156      153      155      161
     547     88      157      153      154      158
     548     88      157      153      154      159
     549     85      157      153      155      160
     550     85      157      153      155      161
     551     85      157      153      156      162
     552     85      157      153      156      163
     553     15      164      165      166      167
     554     54      164      165      166      170
     555      2      164      169      168      167
     556     15      165      164      169      168
     557     54      165      164      169      171
     558      2      165      166      167      168
     559     45      166      165      164      169
     560     26      166      167      168      169
     561      3      167      168      169      171
     562      3      168      167      166      170
     563      8      172      173      174      175
     564     47      172      173      174      178
     565      2      172      177      176      175
     566     50      172      177      176      181
     567     14      173      172      177      176
     568     16      173      172      177      179
     569      1      173      174      175      176
     570     30      174      173      172      177
     571     26      174      175      176      177
     572     27      174      175      176      181
     573      3      175      176      177      179
     574      6      175      176      181      180
     575      7      175      176      181      185
     576      7      175      176      181      186
     577      3      176      175      174      178
     578     25      176      181      180      182
     579     24      176      181      180      183
     580     25      176      181      180      184
     581     35      177      176      181      180
     582     36      177      176      181      185
     583     36      177      176      181      186
     584     57      179      177      176      181
     585     35      180      183      193      194
     586     35      180      183      193      198
     587     65      181      180      182      187
     588     65      181      180      182      188
     589     63      181      180      183      189
     590     63      181      180      183      190
     591     24      181      180      183      193
     592     65      181      180      184      191
     593     65      181      180      184      192
     594     77      182      180      181      185
     595     77      182      180      181      186
     596     77      182      180      183      189
     597     77      182      180      183      190
     598     25      182      180      183      193
     599     78      182      180      184      191
     600     78      182      180      184      192
     601     63      183      180      181      185
     602     63      183      180      181      186
     603     65      183      180      182      187
     604     65      183      180      182      188
     605     65      183      180      184      191
     606     65      183      180      184      192
     607     37      183      193      194      195
     608     57      183      193      194      199
     609     37      183      193      198      197
     610     57      183      193      198      203
     611     77      184      180      181      185
     612     77      184      180      181      186
     613     78      184      180      182      187
     614     78      184      180      182      188
     615     77      184      180      183      189
     616     77      184      180      183      190
     617     25      184      180      183      193
     618     36      189      183      193      194
     619     36      189      183      193      198
     620     36      190      183      193      194
     621     36      190      183      193      198
     622     11      193      194      195      196
     623     13      193      194      195      200
     624     11      193      198      197      196
     625     13      193      198      197      202
     626     28      194      193      198      197
     627     29      194      193      198      203
     628     38      194      195      196      197
     629     40      194      195      196      201
     630     28      195      194      193      198
     631     38      195      196      197      198
     632     40      195      196      197      202
     633     40      196      195      194      199
     634     40      196      197      198      203
     635     40      197      196      195      200
     636     29      198      193      194      199
     637     40      198      197      196      201
     638     82      199      194      195      200
     639     82      200      195      196      201
     640     82      201      196      197      202
     641     82      202      197      198      203
     642     11      204      205      206      207
     643     13      204      205      206      211
     644     11      204      209      208      207
     645     13      204      209      208      213
     646     28      205      204      209      208
     647     29      205      204      209      214
     648     38      205      206      207      208
     649     40      205      206      207      212
     650     28      206      205      204      209
     651     38      206      207      208      209
     652     40      206      207      208      213
     653     40      207      206      205      210
     654     40      207      208      209      214
     655     40      208      207      206      211
     656     29      209      204      205      210
     657     40      209      208      207      212
     658     82      210      205      206      211
     659     82      211      206      207      212
     660     82      212      207      208      213
     661     82      213      208      209      214
     662     11      215      216      217      218
     663     13      215      216      217      222
     664     11      215      220      219      218
     665     13      215      220      219      224
     666     28      216      215      220      219
     667     29      216      215      220      225
     668     38      216      217      218      219
     669     40      216      217      218      223
     670     28      217      216      215      220
     671     38      217      218      219      220
     672     40      217      218      219      224
     673     40      218      217      216      221
     674     40      218      219      220      225
     675     40      219      218      217      222
     676     29      220      215      216      221
     677     40      220      219      218      223
     678     82      221      216      217      222
     679     82      222      217      218      223
     680     82      223      218      219      224
     681     82      224      219      220      225
     682     39      226      227      228      229
     683     52      226      227      228      233
     684     39      226      231      230      229
     685     52      226      231      230      235
     686     41      227      226      231      230
     687     44      227      226      231      236
     688     38      227      228      229      230
     689     40      227      228      229      234
     690     41      228      227      226      231
     691     38      228      229      230      231
     692     40      228      229      230      235
     693     40      229      228      227      232
     694     40      229      230      231      236
     695     40      230      229      228      233
     696     44      231      226      227      232
     697     40      231      230      229      234
     698     82      232      227      228      233
     699     82      233      228      229      234
     700     82      234      229      230      235
     701     82      235      230      231      236
     702     39      237      238      239      240
     703     52      237      238      239      244
     704     39      237      242      241      240
     705     52      237      242      241      246
     706     41      238      237      242      241
     707     44      238      237      242      247
     708     38      238      239      240      241
     709     40      238      239      240      245
     710     41      239      238      237      242
     711     38      239      240      241      242
     712     40      239      240      241      246
     713     40      240      239      238      243
     714     40      240      241      242      247
     715     40      241      240      239      244
     716     44      242      237      238      243
     717     40      242      241      240      245
     718     82      243      238      239      244
     719     82      244      239      240      245
     720     82      245      240      241      246
     721     82      246      241      242      247
     722     87      250      248      249      252
     723     87      250      248      249      253
     724     87      251      248      249      252
     725     87      251      248      249      253
     726     84      256      254      255      258
     727     84      256      254      255      259
     728     84      257      254      255      258
     729     84      257      254      255      259

Impropers

       1      2        2       50       51       55
       2      5       50       51       52       56
       3      8       51       52       53       57
       4     10       52       53       54       60
       5      8       53       54       55       58
       6      5       50       55       54       59
       7     10       53       60       61       65
       8      8       60       61       62       66
       9      5       61       62       63       67
      10      2       62       63       64      121
      11      5       63       64       65       68
      12      8       60       65       64       69
      13      2       71       70       75      122
      14      5       70       71       72       76
      15      8       71       72       73       77
      16     10       72       73       74      164
      17      8       73       74       75       78
      18      5       70       75       74       79
      19     10       81       80       85      165
      20      8       80       81       82       86
      21      8       81       82       83       87
      22     10       82       83       84      172
      23      8       83       84       85       88
      24      8       80       85       84       89
      25      2       91       90       95      255
      26      5       90       91       92       96
      27      5       91       92       93       97
      28      2       44       93       92       94
      29      5       93       94       95       98
      30      5       90       95       94       99
      31      2      101      100      105      155
      32      5      100      101      102      106
      33      8      101      102      103      107
      34     10      102      103      104      226
      35      8      103      104      105      108
      36      5      100      105      104      109
      37      2      111      110      115      156
      38      5      110      111      112      116
      39      8      111      112      113      117
      40     10      112      113      114      237
      41      8      113      114      115      118
      42      5      110      115      114      119
      43     11       73      164      165      169
      44     11       80      165      164      166
      45      6      165      166      167      170
      46      1      132      167      166      168
      47      1      143      168      167      169
      48      6      164      169      168      171
      49      9       83      172      173      177
      50      3        9      173      172      174
      51      4      173      174      175      178
      52      1       16      175      174      176
      53      1      175      176      177      181
      54      6      172      177      176      179
      55      2      183      193      194      198
      56      5      193      194      195      199
      57      7      194      195      196      200
      58      7      195      196      197      201
      59      7      196      197      198      202
      60      5      193      198      197      203
      61      2      133      204      205      209
      62      5      204      205      206      210
      63      7      205      206      207      211
      64      7      206      207      208      212
      65      7      207      208      209      213
      66      5      204      209      208      214
      67      2      144      215      216      220
      68      5      215      216      217      221
      69      7      216      217      218      222
      70      7      217      218      219      223
      71      7      218      219      220      224
      72      5      215      220      219      225
      73     10      103      226      227      231
      74      8      226      227      228      232
      75      7      227      228      229      233
      76      7      228      229      230      234
      77      7      229      230      231      235
      78      8      226      231      230      236
      79     10      113      237      238      242
      80      8      237      238      239      243
      81      7      238      239      240      244
      82      7      239      240      241      245
      83      7      240      241      242      246
      84      8      237      242      241      247

