LAMMPS data file generated by clean-room 1-hop pipeline

     298 atoms
     305 bonds
     576 angles
     870 dihedrals
      48 impropers

       9 atom types
      15 bond types
      35 angle types
      52 dihedral types
       4 improper types

  -36.738300    35.555800 xlo xhi
  -25.732500    28.132300 ylo yhi
  -34.380500    34.916500 zlo zhi

Masses

       1    12.011000
       2    12.011000
       3    12.011000
       4    12.011000
       5    12.011000
       6    12.011000
       7    12.011000
       8     1.008000
       9     1.008000

Pair Coeffs

       1     0.070000     3.550000
       2     0.070000     3.550000
       3     0.066000     3.500000
       4     0.066000     3.500000
       5     0.066000     3.500000
       6     0.066000     3.500000
       7     0.066000     3.500000
       8     0.030000     2.420000
       9     0.030000     2.500000

Bond Coeffs

       1   469.000000     1.400000
       2   317.000000     1.510000
       3   469.000000     1.400000
       4   367.000000     1.080000
       5   268.000000     1.529000
       6   268.000000     1.529000
       7   268.000000     1.529000
       8   340.000000     1.090000
       9   268.000000     1.529000
      10   340.000000     1.090000
      11   268.000000     1.529000
      12   268.000000     1.529000
      13   268.000000     1.529000
      14   340.000000     1.090000
      15   340.000000     1.090000

Angle Coeffs

       1    63.000000   120.000000
       2    63.000000   120.000000
       3    35.000000   120.000000
       4    63.000000   114.000000
       5    63.000000   114.000000
       6    63.000000   114.000000
       7    35.000000   109.500000
       8    63.000000   120.000000
       9    70.000000   120.000000
      10    63.000000   120.000000
      11    35.000000   120.000000
      12    37.500000   110.700000
      13    58.350000   112.700000
      14    58.350000   112.700000
      15    37.500000   110.700000
      16    58.350000   112.700000
      17    58.350000   112.700000
      18    37.500000   110.700000
      19    58.350000   112.700000
      20    37.500000   110.700000
      21    37.500000   110.700000
      22    58.350000   112.700000
      23    58.350000   112.700000
      24    58.350000   112.700000
      25    37.500000   110.700000
      26    58.350000   112.700000
      27    37.500000   110.700000
      28    58.350000   112.700000
      29    37.500000   110.700000
      30    37.500000   110.700000
      31    37.500000   110.700000
      32    37.500000   110.700000
      33    33.000000   107.800000
      34    33.000000   107.800000
      35    33.000000   107.800000

Dihedral Coeffs

       1     0.000000     7.250000     0.000000     0.000000
       2     0.000000     7.250000     0.000000     0.000000
       3     0.000000     7.250000     0.000000     0.000000
       4     0.000000     7.250000     0.000000     0.000000
       5     0.000000     7.250000     0.000000     0.000000
       6     0.000000     0.000000     0.462000     0.000000
       7     0.000000     0.000000     0.000000     0.000000
       8     0.000000     0.000000     0.000000     0.000000
       9     0.000000     0.000000     0.462000     0.000000
      10     0.000000     0.000000     0.000000     0.000000
      11     0.000000     0.000000     0.000000     0.000000
      12     0.000000     7.250000     0.000000     0.000000
      13     0.000000     7.250000     0.000000     0.000000
      14    -0.250000     0.000000     0.000000     0.000000
      15    -0.250000     0.000000     0.000000     0.000000
      16    -0.250000     0.000000     0.000000     0.000000
      17     0.000000     0.000000     0.000000     0.000000
      18     0.000000     7.250000     0.000000     0.000000
      19     0.000000     7.250000     0.000000     0.000000
      20     0.000000     7.250000     0.000000     0.000000
      21     0.000000     7.250000     0.000000     0.000000
      22     0.000000     0.000000     0.300000     0.000000
      23     0.850000    -0.200000     0.200000     0.000000
      24     0.000000     0.000000     0.300000     0.000000
      25     0.000000     0.000000     0.300000     0.000000
      26     0.850000    -0.200000     0.200000     0.000000
      27     0.000000     0.000000     0.300000     0.000000
      28     0.850000    -0.200000     0.200000     0.000000
      29     0.850000    -0.200000     0.200000     0.000000
      30     0.850000    -0.200000     0.200000     0.000000
      31     0.000000     0.000000     0.300000     0.000000
      32     0.000000     0.000000     0.300000     0.000000
      33     0.850000    -0.200000     0.200000     0.000000
      34     0.850000    -0.200000     0.200000     0.000000
      35     0.000000     0.000000     0.300000     0.000000
      36     0.850000    -0.200000     0.200000     0.000000
      37     0.000000     0.000000     0.300000     0.000000
      38     0.850000    -0.200000     0.200000     0.000000
      39     0.000000     0.000000     0.300000     0.000000
      40     0.000000     0.000000     0.300000     0.000000
      41     0.000000     0.000000     0.300000     0.000000
      42     0.000000     0.000000     0.300000     0.000000
      43     0.850000    -0.200000     0.200000     0.000000
      44     0.000000     0.000000     0.300000     0.000000
      45     0.850000    -0.200000     0.200000     0.000000
      46     0.000000     0.000000     0.300000     0.000000
      47     0.000000     7.250000     0.000000     0.000000
      48     0.000000     0.000000     0.300000     0.000000
      49     0.000000     0.000000     0.300000     0.000000
      50     0.000000     0.000000     0.300000     0.000000
      51     0.000000     0.000000     0.300000     0.000000
      52     0.000000     0.000000     0.300000     0.000000

Improper Coeffs

       1     2.500000   -1    2
       2     2.500000   -1    2
       3     2.500000   -1    2
       4     2.500000   -1    2

Atoms

       1    1      4  -0.26389419    13.239400    -2.819600    10.285800
       2    1      5  -0.19324282    13.151200    -1.604800     9.345900
       3    1      9   0.09796677    12.709000    -3.705500     9.802000
       4    1      9   0.09796677    14.334100    -3.082500    10.464700
       5    1      9   0.09796677    12.738300    -2.572700    11.279300
       6    1      9   0.09796677    13.679400    -0.706200     9.807400
       7    1      9   0.09796677    13.650800    -1.871900     8.356400
       8    1      4  -0.26389419     9.450700    -3.732800    10.589600
       9    1      5  -0.19324282     9.225900    -4.847100     9.548700
      10    1      9   0.09796677    10.184000    -4.099800    11.381700
      11    1      9   0.09796677     9.861000    -2.791700    10.099500
      12    1      9   0.09796677     8.454700    -3.485400    11.084700
      13    1      9   0.09796677     8.768100    -5.732500    10.102200
      14    1      9   0.09796677    10.207000    -5.168900     9.064600
      15    1      4  -0.26389419    14.750300    -3.652400     5.603500
      16    1      5  -0.19324282    13.359900    -3.060200     5.305100
      17    1      9   0.09796677    15.555800    -2.976400     5.163300
      18    1      9   0.09796677    14.892400    -3.722700     6.732800
      19    1      9   0.09796677    14.831200    -4.693400     5.146400
      20    1      9   0.09796677    13.188800    -2.965600     4.181800
      21    1      9   0.09796677    13.295300    -2.030400     5.790800
      22    1      4  -0.26389419     6.902700    -2.089000    11.648300
      23    1      3  -0.14484540     6.118000    -0.882800    11.099800
      24    1      9   0.09796677     6.303100    -3.043000    11.474600
      25    1      9   0.09796677     7.901400    -2.164200    11.103500
      26    1      9   0.09796677     7.085300    -1.951300    12.765000
      27    1      9   0.09796677     6.718800     0.071300    11.267600
      28    1      9   0.09796677     5.115400    -0.799900    11.633100
      29    1      4  -0.26389419     4.115300    -3.598400     7.518800
      30    1      5  -0.19324282     2.670700    -3.827400     7.045400
      31    1      9   0.09796677     4.461900    -4.507400     8.112900
      32    1      9   0.09796677     4.792700    -3.464600     6.612500
      33    1      9   0.09796677     4.160900    -2.679000     8.189700
      34    1      9   0.09796677     2.012800    -3.990700     7.957400
      35    1      9   0.09796677     2.654000    -4.777000     6.414800
      36    1      4  -0.26389419    -1.005800    -3.400000     9.536400
      37    1      5  -0.19324282    -2.096800    -3.089100     8.494000
      38    1      9   0.09796677    -0.289700    -4.184000     9.121200
      39    1      9   0.09796677    -0.427800    -2.444200     9.768300
      40    1      9   0.09796677    -1.490800    -3.790300    10.491400
      41    1      9   0.09796677    -2.795100    -2.294800     8.918700
      42    1      9   0.09796677    -2.691100    -4.029300     8.243900
      43    1      4  -0.26389419   -10.076600     4.798700    -2.667800
      44    1      5  -0.19324282   -10.381900     3.310200    -2.418500
      45    1      9   0.09796677    -9.706400     4.934800    -3.737100
      46    1      9   0.09796677   -11.029700     5.407500    -2.524500
      47    1      9   0.09796677    -9.281200     5.155600    -1.933400
      48    1      9   0.09796677   -10.801600     3.182400    -1.366300
      49    1      9   0.09796677   -11.165100     2.955300    -3.166200
      50    1      4  -0.26389419    -6.925700     7.222600    -7.511000
      51    1      5  -0.19324282    -7.588500     6.855900    -6.170300
      52    1      9   0.09796677    -7.735000     7.476000    -8.272600
      53    1      9   0.09796677    -6.255800     8.132300    -7.358000
      54    1      9   0.09796677    -6.294500     6.359200    -7.897500
      55    1      9   0.09796677    -6.789500     6.616300    -5.393300
      56    1      9   0.09796677    -8.184600     7.763900    -5.823800
      57    1      4  -0.26389419    -8.723200     5.667800    -9.249900
      58    1      5  -0.19324282    -7.970500     4.330600    -9.128100
      59    1      9   0.09796677    -9.343600     5.660100   -10.206500
      60    1      9   0.09796677    -9.420400     5.798400    -8.361500
      61    1      9   0.09796677    -7.975700     6.527200    -9.288900
      62    1      9   0.09796677    -7.312300     4.205300   -10.050600
      63    1      9   0.09796677    -8.731400     3.481700    -9.095800
      64    1      4  -0.26389419   -11.502900     6.059700    -8.405400
      65    1      5  -0.19324282   -12.555900     5.555400    -7.396400
      66    1      9   0.09796677   -10.888600     5.192800    -8.815200
      67    1      9   0.09796677   -12.027500     6.590200    -9.267200
      68    1      9   0.09796677   -10.801000     6.789700    -7.881700
      69    1      9   0.09796677   -13.114200     6.470700    -7.008900
      70    1      9   0.09796677   -13.290900     4.845200    -7.898000
      71    1      4  -0.26389419   -11.114400    -0.498900   -10.914500
      72    1      5  -0.19324282   -11.619000     0.907300   -10.544000
      73    1      9   0.09796677   -11.973200    -1.244000   -10.830400
      74    1      9   0.09796677   -10.723600    -0.489800   -11.985400
      75    1      9   0.09796677   -10.275400    -0.802600   -10.205100
      76    1      9   0.09796677   -12.018100     0.907700    -9.476600
      77    1      9   0.09796677   -12.455200     1.202200   -11.260900
      78    1      4  -0.26389419   -11.764500     2.102600   -13.245300
      79    1      5  -0.19324282   -12.113600     3.518500   -12.747800
      80    1      9   0.09796677   -12.599900     1.384700   -12.951200
      81    1      9   0.09796677   -10.785500     1.746400   -12.788800
      82    1      9   0.09796677   -11.661700     2.118500   -14.380500
      83    1      9   0.09796677   -13.085500     3.829000   -13.256600
      84    1      9   0.09796677   -11.291400     4.255000   -13.032100
      85    1      5  -0.19324282    11.673600    -1.264100     9.083600
      86    1      5  -0.19324282    10.986700    -2.527700     8.538600
      87    1      9   0.09796677    11.623200    -0.427300     8.310900
      88    1      9   0.09796677    11.153100    -0.933800    10.042700
      89    1      9   0.09796677    11.603800    -2.912100     7.663400
      90    1      9   0.09796677    10.962500    -3.331400     9.344800
      91    1      5  -0.19324282    10.905600    -3.312600     5.894400
      92    1      5  -0.19324282    12.293600    -3.978000     5.927700
      93    1      9   0.09796677    11.025400    -2.300500     6.405400
      94    1      9   0.09796677    10.471800    -3.167100     4.850100
      95    1      9   0.09796677    12.565500    -4.112200     7.027300
      96    1      9   0.09796677    12.279500    -4.997800     5.418000
      97    1      5  -0.19324282    -2.425800    -2.091000     6.163200
      98    1      5  -0.19324282    -1.405200    -2.548800     7.230300
      99    1      9   0.09796677    -3.062700    -3.007500     5.931900
     100    1      9   0.09796677    -3.097300    -1.301700     6.637100
     101    1      9   0.09796677    -0.720800    -3.350500     6.796700
     102    1      9   0.09796677    -0.777800    -1.660600     7.567700
     103    1      7  -0.05351566     8.874200    -3.410400     7.440400
     104    1      5  -0.19324282     9.569800    -2.171600     8.041300
     105    1      5  -0.19324282     8.241500    -4.385100     8.457300
     106    1      5  -0.19324282    10.025600    -4.198300     6.792400
     107    1      3  -0.14484540     7.763800    -2.939500     6.476700
     108    1      9   0.09796677     9.724500    -1.417200     7.200800
     109    1      9   0.09796677     8.932800    -1.697300     8.858000
     110    1      9   0.09796677     7.332300    -3.920500     8.962900
     111    1      9   0.09796677     7.905100    -5.298100     7.863200
     112    1      9   0.09796677     9.677100    -5.137900     6.249000
     113    1      9   0.09796677    10.685300    -4.507800     7.669500
     114    1      9   0.09796677     8.217100    -2.266500     5.676000
     115    1      9   0.09796677     7.273700    -3.843100     5.984000
     116    1      7  -0.05351566     1.858900    -1.323800     6.897600
     117    1      3  -0.14484540     3.069600    -0.369500     6.753800
     118    1      3  -0.14484540     1.285500    -1.429900     8.332800
     119    1      5  -0.19324282     2.028300    -2.698200     6.213500
     120    1      5  -0.19324282     0.595200    -0.705900     6.272500
     121    1      9   0.09796677     3.274900    -0.217300     5.642800
     122    1      9   0.09796677     2.789700     0.635700     7.212900
     123    1      9   0.09796677     0.939400    -0.375700     8.592300
     124    1      9   0.09796677     0.358100    -2.089000     8.274000
     125    1      9   0.09796677     0.972000    -3.073100     6.003300
     126    1      9   0.09796677     2.564100    -2.558800     5.216900
     127    1      9   0.09796677     0.377100     0.166400     6.962700
     128    1      9   0.09796677    -0.171800    -1.517400     6.424000
     129    1      7  -0.05351566    -1.276700    -0.147000     4.626900
     130    1      5  -0.19324282     0.267700    -0.250900     4.839000
     131    1      5  -0.19324282    -1.964700    -1.530900     4.787800
     132    1      5  -0.19324282    -1.437400     0.199800     3.120700
     133    1      5  -0.19324282    -2.046800     0.795700     5.587200
     134    1      9   0.09796677     0.638700    -1.050100     4.115800
     135    1      9   0.09796677     0.795300     0.734000     4.613000
     136    1      9   0.09796677    -2.949000    -1.403400     4.226400
     137    1      9   0.09796677    -1.350400    -2.314700     4.233300
     138    1      9   0.09796677    -0.855300    -0.625000     2.590900
     139    1      9   0.09796677    -0.929200     1.193900     2.889900
     140    1      9   0.09796677    -1.880100     1.900400     5.361800
     141    1      9   0.09796677    -3.153300     0.534600     5.508400
     142    1      7  -0.05351566    -8.332600     2.541400    -3.876200
     143    1      3  -0.14484540    -7.229800     1.462000    -3.763900
     144    1      5  -0.19324282    -9.119600     2.435600    -2.549700
     145    1      5  -0.19324282    -7.651300     3.923300    -4.037900
     146    1      5  -0.19324282    -9.248000     2.263300    -5.093400
     147    1      9   0.09796677    -7.740600     0.445100    -3.833000
     148    1      9   0.09796677    -6.502200     1.566300    -4.635700
     149    1      9   0.09796677    -8.411100     2.708300    -1.700900
     150    1      9   0.09796677    -9.446800     1.351700    -2.415400
     151    1      9   0.09796677    -6.891200     4.028800    -3.198900
     152    1      9   0.09796677    -8.403800     4.774400    -3.967700
     153    1      9   0.09796677    -9.810200     1.280800    -4.959900
     154    1      9   0.09796677    -8.604000     2.209900    -6.032300
     155    1      7  -0.05351566   -11.203400     3.483200    -6.426700
     156    1      5  -0.19324282   -10.224600     3.446800    -5.234800
     157    1      5  -0.19324282   -11.848800     4.872100    -6.209500
     158    1      3  -0.14484540   -12.210700     2.330100    -6.214300
     159    1      5  -0.19324282   -10.515000     3.364700    -7.806900
     160    1      9   0.09796677    -9.580800     4.376900    -5.294000
     161    1      9   0.09796677   -10.862000     3.529100    -4.299100
     162    1      9   0.09796677   -11.019900     5.594200    -5.906500
     163    1      9   0.09796677   -12.571600     4.767500    -5.334100
     164    1      9   0.09796677   -12.616300     2.416800    -5.152500
     165    1      9   0.09796677   -11.656900     1.338300    -6.311200
     166    1      9   0.09796677    -9.916400     2.396000    -7.862100
     167    1      9   0.09796677    -9.816900     4.254400    -7.954000
     168    1      7  -0.05351566    -2.133000     0.727100     8.366600
     169    1      5  -0.19324282    -1.495300     0.493800     6.987100
     170    1      3  -0.14484540    -0.929900     0.219800     9.196500
     171    1      3  -0.14484540    -2.445200     2.224300     8.590300
     172    1      3  -0.14484540    -3.379900    -0.184500     8.414500
     173    1      9   0.09796677    -0.501800     1.048200     7.017500
     174    1      9   0.09796677    -1.297300    -0.621400     6.975800
     175    1      9   0.09796677    -0.764100    -0.878400     8.935700
     176    1      9   0.09796677    -0.025600     0.801400     8.817300
     177    1      9   0.09796677    -3.177700     2.544300     7.777300
     178    1      9   0.09796677    -1.476200     2.807000     8.445400
     179    1      9   0.09796677    -4.162800     0.219000     7.691000
     180    1      9   0.09796677    -3.058300    -1.217200     8.057700
     181    1      1  -0.09236832     6.709200    -2.147900     7.280000
     182    1      2  -0.15235596     6.905400    -1.937400     8.791800
     183    1      1  -0.09236832     5.898400    -1.096600     9.591700
     184    1      2  -0.15235596     4.636400    -0.548400     8.902800
     185    1      1  -0.09236832     4.371600    -0.860400     7.419300
     186    1      2  -0.15235596     5.451600    -1.583400     6.585500
     187    1      8   0.16301922     7.805900    -2.397400     9.318900
     188    1      8   0.16301922     3.896000     0.086100     9.491000
     189    1      8   0.16301922     5.301100    -1.735700     5.465800
     190    1      1  -0.09236832     2.079400    -1.896100     9.569900
     191    1      2  -0.15235596     2.559100    -0.845800    10.589900
     192    1      2  -0.15235596     3.184800    -1.288200    11.924600
     193    1      2  -0.15235596     3.332300    -2.785200    12.246000
     194    1      2  -0.15235596     2.823500    -3.837800    11.245200
     195    1      2  -0.15235596     2.172600    -3.393600     9.921500
     196    1      8   0.16301922     2.443300     0.264400    10.357900
     197    1      8   0.16301922     3.544900    -0.506500    12.672100
     198    1      8   0.16301922     3.809200    -3.113900    13.227900
     199    1      8   0.16301922     2.914400    -4.947300    11.490500
     200    1      8   0.16301922     1.735400    -4.174500     9.217300
     201    1      1  -0.09236832    -4.984700     2.957300     4.143700
     202    1      2  -0.15235596    -6.099500     3.032600     5.202600
     203    1      2  -0.15235596    -7.088700     4.212900     5.194700
     204    1      2  -0.15235596    -6.969500     5.310500     4.120900
     205    1      2  -0.15235596    -5.868400     5.222000     3.047800
     206    1      2  -0.15235596    -4.882400     4.040000     3.054000
     207    1      8   0.16301922    -6.192500     2.215300     5.991900
     208    1      8   0.16301922    -7.909800     4.273400     5.983100
     209    1      8   0.16301922    -7.698900     6.186500     4.118100
     210    1      8   0.16301922    -5.784900     6.030100     2.248100
     211    1      8   0.16301922    -4.076800     3.964400     2.250900
     212    1      1  -0.09236832   -13.420500     2.325000    -7.169700
     213    1      2  -0.15235596   -14.453800     3.464200    -7.112900
     214    1      2  -0.15235596   -15.661500     3.458800    -8.068300
     215    1      2  -0.15235596   -15.846800     2.302800    -9.068800
     216    1      2  -0.15235596   -14.830300     1.146900    -9.105600
     217    1      2  -0.15235596   -13.623400     1.152700    -8.149500
     218    1      8   0.16301922   -14.315700     4.321000    -6.373600
     219    1      8   0.16301922   -16.418200     4.310900    -8.035600
     220    1      8   0.16301922   -16.738300     2.300900    -9.779200
     221    1      8   0.16301922   -14.970800     0.287200    -9.841100
     222    1      8   0.16301922   -12.869900     0.297700    -8.178400
     223    1      1  -0.09236832    -0.886500     0.365500    10.727200
     224    1      2  -0.15235596    -0.578500     1.737200    11.357000
     225    1      2  -0.15235596    -0.460300     1.873900    12.886200
     226    1      2  -0.15235596    -0.622000     0.633400    13.784200
     227    1      2  -0.15235596    -0.893000    -0.744300    13.152100
     228    1      2  -0.15235596    -1.014100    -0.879600    11.623400
     229    1      8   0.16301922    -0.447600     2.653100    10.690900
     230    1      8   0.16301922    -0.250500     2.892600    13.353200
     231    1      8   0.16301922    -0.536200     0.734100    14.916500
     232    1      8   0.16301922    -1.001900    -1.664500    13.815900
     233    1      8   0.16301922    -1.201200    -1.901800    11.154300
     234    1      1  -0.09236832    -3.056600     2.650500     9.946600
     235    1      2  -0.15235596    -3.607100     4.081000    10.105300
     236    1      2  -0.15235596    -4.228200     4.529600    11.441800
     237    1      2  -0.15235596    -4.306900     3.546800    12.623700
     238    1      2  -0.15235596    -3.772400     2.113000    12.464800
     239    1      2  -0.15235596    -3.155900     1.665400    11.127900
     240    1      8   0.16301922    -3.552300     4.811000     9.231300
     241    1      8   0.16301922    -4.629500     5.590500    11.555800
     242    1      8   0.16301922    -4.763200     3.879800    13.614000
     243    1      8   0.16301922    -3.837000     1.380300    13.335700
     244    1      8   0.16301922    -2.777700     0.599300    11.013700
     245    1      1  -0.09236832    -4.012500    -0.371200     9.804100
     246    1      2  -0.15235596    -3.425600    -1.412300    10.773900
     247    1      2  -0.15235596    -4.040900    -1.596700    12.172500
     248    1      2  -0.15235596    -5.271500    -0.768900    12.585700
     249    1      2  -0.15235596    -5.896000     0.230100    11.593300
     250    1      2  -0.15235596    -5.273200     0.421100    10.197500
     251    1      8   0.16301922    -2.522000    -2.033900    10.462000
     252    1      8   0.16301922    -3.586600    -2.346600    12.901100
     253    1      8   0.16301922    -5.724900    -0.900700    13.623400
     254    1      8   0.16301922    -6.817800     0.829900    11.893100
     255    1      8   0.16301922    -5.735100     1.160000     9.462700
     256    1      6  -0.12698944    -3.751100     1.431800     2.636700
     257    1      5  -0.19324282    -2.843900     0.188700     2.461200
     258    1      3  -0.14484540    -4.026100     1.754800     4.113200
     259    1      3  -0.14484540    -5.156200     1.245500     2.016000
     260    1      9   0.09796677    -3.259200     2.353000     2.179100
     261    1      9   0.09796677    -3.390100    -0.745200     2.820400
     262    1      9   0.09796677    -2.682400     0.100000     1.336400
     263    1      9   0.09796677    -3.054800     2.060700     4.617600
     264    1      9   0.09796677    -4.495100     0.859800     4.640700
     265    1      9   0.09796677    -5.596000     0.265300     2.396500
     266    1      9   0.09796677    -5.793500     2.093500     2.432300
     267    1      6  -0.12698944    -7.862200     4.310500    -6.553600
     268    1      5  -0.19324282    -6.895200     4.064800    -5.376800
     269    1      5  -0.19324282    -8.560500     5.663200    -6.281000
     270    1      5  -0.19324282    -7.070900     4.248300    -7.876200
     271    1      9   0.09796677    -8.639300     3.479900    -6.587500
     272    1      9   0.09796677    -6.207100     4.972300    -5.323500
     273    1      9   0.09796677    -6.270300     3.126400    -5.545200
     274    1      9   0.09796677    -9.080700     5.580200    -5.269700
     275    1      9   0.09796677    -9.348500     5.878800    -7.072900
     276    1      9   0.09796677    -6.544100     3.237600    -7.908700
     277    1      9   0.09796677    -6.279600     5.065500    -7.898600
     278    1      6  -0.12698944   -11.088300     3.311300   -10.356300
     279    1      5  -0.19324282   -11.602100     3.346900    -8.906800
     280    1      5  -0.19324282   -10.476900     1.934100   -10.659500
     281    1      5  -0.19324282   -12.343400     3.550200   -11.223500
     282    1      9   0.09796677   -10.327900     4.144300   -10.524600
     283    1      9   0.09796677   -12.274600     2.442100    -8.767600
     284    1      9   0.09796677   -12.235500     4.284200    -8.810200
     285    1      9   0.09796677   -10.059000     1.929600   -11.718200
     286    1      9   0.09796677    -9.639600     1.698600    -9.922800
     287    1      9   0.09796677   -12.749200     4.579000   -10.946800
     288    1      9   0.09796677   -13.128100     2.764400   -10.964600
     289    1      1  -0.09236832    -5.363200     1.349900     0.486100
     290    1      2  -0.15235596    -5.349000     0.090700    -0.402400
     291    1      2  -0.15235596    -5.896500     0.154900    -1.846600
     292    1      1  -0.09236832    -6.471900     1.473300    -2.408800
     293    1      2  -0.15235596    -6.412400     2.747800    -1.542300
     294    1      2  -0.15235596    -5.843200     2.688300    -0.109700
     295    1      8   0.16301922    -4.974000    -0.899300     0.020200
     296    1      8   0.16301922    -5.909200    -0.786900    -2.488700
     297    1      8   0.16301922    -6.834400     3.727500    -1.938700
     298    1      8   0.16301922    -5.831800     3.629600     0.533700

Bonds

       1      9        1        2
       2     10        1        3
       3     10        1        4
       4     10        1        5
       5     14        2        6
       6     14        2        7
       7     11        2       85
       8      9        8        9
       9     10        8       10
      10     10        8       11
      11     10        8       12
      12     14        9       13
      13     14        9       14
      14     11        9      105
      15      9       15       16
      16     10       15       17
      17     10       15       18
      18     10       15       19
      19     14       16       20
      20     14       16       21
      21     11       16       92
      22      5       22       23
      23     10       22       24
      24     10       22       25
      25     10       22       26
      26      8       23       27
      27      8       23       28
      28      2       23      183
      29      9       29       30
      30     10       29       31
      31     10       29       32
      32     10       29       33
      33     14       30       34
      34     14       30       35
      35     11       30      119
      36      9       36       37
      37     10       36       38
      38     10       36       39
      39     10       36       40
      40     14       37       41
      41     14       37       42
      42     11       37       98
      43      9       43       44
      44     10       43       45
      45     10       43       46
      46     10       43       47
      47     14       44       48
      48     14       44       49
      49     11       44      144
      50      9       50       51
      51     10       50       52
      52     10       50       53
      53     10       50       54
      54     14       51       55
      55     14       51       56
      56     11       51      269
      57      9       57       58
      58     10       57       59
      59     10       57       60
      60     10       57       61
      61     14       58       62
      62     14       58       63
      63     11       58      270
      64      9       64       65
      65     10       64       66
      66     10       64       67
      67     10       64       68
      68     14       65       69
      69     14       65       70
      70     11       65      157
      71      9       71       72
      72     10       71       73
      73     10       71       74
      74     10       71       75
      75     14       72       76
      76     14       72       77
      77     11       72      280
      78      9       78       79
      79     10       78       80
      80     10       78       81
      81     10       78       82
      82     14       79       83
      83     14       79       84
      84     11       79      281
      85     11       85       86
      86     14       85       87
      87     14       85       88
      88     14       86       89
      89     14       86       90
      90     11       86      104
      91     11       91       92
      92     14       91       93
      93     14       91       94
      94     11       91      106
      95     14       92       95
      96     14       92       96
      97     11       97       98
      98     14       97       99
      99     14       97      100
     100     11       97      131
     101     14       98      101
     102     14       98      102
     103     13      103      104
     104     13      103      105
     105     13      103      106
     106      7      103      107
     107     14      104      108
     108     14      104      109
     109     14      105      110
     110     14      105      111
     111     14      106      112
     112     14      106      113
     113      8      107      114
     114      8      107      115
     115      2      107      181
     116      7      116      117
     117      7      116      118
     118     13      116      119
     119     13      116      120
     120      8      117      121
     121      8      117      122
     122      2      117      185
     123      8      118      123
     124      8      118      124
     125      2      118      190
     126     14      119      125
     127     14      119      126
     128     14      120      127
     129     14      120      128
     130     11      120      130
     131     13      129      130
     132     13      129      131
     133     13      129      132
     134     13      129      133
     135     14      130      134
     136     14      130      135
     137     14      131      136
     138     14      131      137
     139     14      132      138
     140     14      132      139
     141     11      132      257
     142     14      133      140
     143     14      133      141
     144     11      133      169
     145      7      142      143
     146     13      142      144
     147     13      142      145
     148     13      142      146
     149      8      143      147
     150      8      143      148
     151      2      143      292
     152     14      144      149
     153     14      144      150
     154     14      145      151
     155     14      145      152
     156     11      145      268
     157     14      146      153
     158     14      146      154
     159     11      146      156
     160     13      155      156
     161     13      155      157
     162      7      155      158
     163     13      155      159
     164     14      156      160
     165     14      156      161
     166     14      157      162
     167     14      157      163
     168      8      158      164
     169      8      158      165
     170      2      158      212
     171     14      159      166
     172     14      159      167
     173     11      159      279
     174     13      168      169
     175      7      168      170
     176      7      168      171
     177      7      168      172
     178     14      169      173
     179     14      169      174
     180      8      170      175
     181      8      170      176
     182      2      170      223
     183      8      171      177
     184      8      171      178
     185      2      171      234
     186      8      172      179
     187      8      172      180
     188      2      172      245
     189      1      181      182
     190      1      182      183
     191      4      182      187
     192      1      183      184
     193      1      184      185
     194      4      184      188
     195      1      185      186
     196      1      186      181
     197      4      186      189
     198      1      190      191
     199      3      191      192
     200      4      191      196
     201      3      192      193
     202      4      192      197
     203      3      193      194
     204      4      193      198
     205      3      194      195
     206      4      194      199
     207      1      195      190
     208      4      195      200
     209      1      201      202
     210      2      201      258
     211      3      202      203
     212      4      202      207
     213      3      203      204
     214      4      203      208
     215      3      204      205
     216      4      204      209
     217      3      205      206
     218      4      205      210
     219      1      206      201
     220      4      206      211
     221      1      212      213
     222      3      213      214
     223      4      213      218
     224      3      214      215
     225      4      214      219
     226      3      215      216
     227      4      215      220
     228      3      216      217
     229      4      216      221
     230      1      217      212
     231      4      217      222
     232      1      223      224
     233      3      224      225
     234      4      224      229
     235      3      225      226
     236      4      225      230
     237      3      226      227
     238      4      226      231
     239      3      227      228
     240      4      227      232
     241      1      228      223
     242      4      228      233
     243      1      234      235
     244      3      235      236
     245      4      235      240
     246      3      236      237
     247      4      236      241
     248      3      237      238
     249      4      237      242
     250      3      238      239
     251      4      238      243
     252      1      239      234
     253      4      239      244
     254      1      245      246
     255      3      246      247
     256      4      246      251
     257      3      247      248
     258      4      247      252
     259      3      248      249
     260      4      248      253
     261      3      249      250
     262      4      249      254
     263      1      250      245
     264      4      250      255
     265     12      256      257
     266      6      256      258
     267      6      256      259
     268     15      256      260
     269     14      257      261
     270     14      257      262
     271      8      258      263
     272      8      258      264
     273      8      259      265
     274      8      259      266
     275      2      259      289
     276     12      267      268
     277     12      267      269
     278     12      267      270
     279     15      267      271
     280     14      268      272
     281     14      268      273
     282     14      269      274
     283     14      269      275
     284     14      270      276
     285     14      270      277
     286     12      278      279
     287     12      278      280
     288     12      278      281
     289     15      278      282
     290     14      279      283
     291     14      279      284
     292     14      280      285
     293     14      280      286
     294     14      281      287
     295     14      281      288
     296      1      289      290
     297      3      290      291
     298      4      290      295
     299      1      291      292
     300      4      291      296
     301      1      292      293
     302      3      293      294
     303      4      293      297
     304      1      294      289
     305      4      294      298

Angles

       1     20        1        2        6
       2     20        1        2        7
       3     19        1        2       85
       4     21        2        1        3
       5     21        2        1        4
       6     21        2        1        5
       7     22        2       85       86
       8     25        2       85       87
       9     25        2       85       88
      10     34        3        1        4
      11     34        3        1        5
      12     34        4        1        5
      13     35        6        2        7
      14     25        6        2       85
      15     25        7        2       85
      16     20        8        9       13
      17     20        8        9       14
      18     19        8        9      105
      19     21        9        8       10
      20     21        9        8       11
      21     21        9        8       12
      22     24        9      105      103
      23     25        9      105      110
      24     25        9      105      111
      25     34       10        8       11
      26     34       10        8       12
      27     34       11        8       12
      28     35       13        9       14
      29     25       13        9      105
      30     25       14        9      105
      31     20       15       16       20
      32     20       15       16       21
      33     19       15       16       92
      34     21       16       15       17
      35     21       16       15       18
      36     21       16       15       19
      37     22       16       92       91
      38     25       16       92       95
      39     25       16       92       96
      40     34       17       15       18
      41     34       17       15       19
      42     34       18       15       19
      43     35       20       16       21
      44     25       20       16       92
      45     25       21       16       92
      46     18       22       23       27
      47     18       22       23       28
      48      4       22       23      183
      49     12       23       22       24
      50     12       23       22       25
      51     12       23       22       26
      52      9       23      183      182
      53      9       23      183      184
      54     34       24       22       25
      55     34       24       22       26
      56     34       25       22       26
      57     33       27       23       28
      58      7       27       23      183
      59      7       28       23      183
      60     20       29       30       34
      61     20       29       30       35
      62     19       29       30      119
      63     21       30       29       31
      64     21       30       29       32
      65     21       30       29       33
      66     24       30      119      116
      67     25       30      119      125
      68     25       30      119      126
      69     34       31       29       32
      70     34       31       29       33
      71     34       32       29       33
      72     35       34       30       35
      73     25       34       30      119
      74     25       35       30      119
      75     20       36       37       41
      76     20       36       37       42
      77     19       36       37       98
      78     21       37       36       38
      79     21       37       36       39
      80     21       37       36       40
      81     22       37       98       97
      82     25       37       98      101
      83     25       37       98      102
      84     34       38       36       39
      85     34       38       36       40
      86     34       39       36       40
      87     35       41       37       42
      88     25       41       37       98
      89     25       42       37       98
      90     20       43       44       48
      91     20       43       44       49
      92     19       43       44      144
      93     21       44       43       45
      94     21       44       43       46
      95     21       44       43       47
      96     24       44      144      142
      97     25       44      144      149
      98     25       44      144      150
      99     34       45       43       46
     100     34       45       43       47
     101     34       46       43       47
     102     35       48       44       49
     103     25       48       44      144
     104     25       49       44      144
     105     20       50       51       55
     106     20       50       51       56
     107     19       50       51      269
     108     21       51       50       52
     109     21       51       50       53
     110     21       51       50       54
     111     23       51      269      267
     112     25       51      269      274
     113     25       51      269      275
     114     34       52       50       53
     115     34       52       50       54
     116     34       53       50       54
     117     35       55       51       56
     118     25       55       51      269
     119     25       56       51      269
     120     20       57       58       62
     121     20       57       58       63
     122     19       57       58      270
     123     21       58       57       59
     124     21       58       57       60
     125     21       58       57       61
     126     23       58      270      267
     127     25       58      270      276
     128     25       58      270      277
     129     34       59       57       60
     130     34       59       57       61
     131     34       60       57       61
     132     35       62       58       63
     133     25       62       58      270
     134     25       63       58      270
     135     20       64       65       69
     136     20       64       65       70
     137     19       64       65      157
     138     21       65       64       66
     139     21       65       64       67
     140     21       65       64       68
     141     24       65      157      155
     142     25       65      157      162
     143     25       65      157      163
     144     34       66       64       67
     145     34       66       64       68
     146     34       67       64       68
     147     35       69       65       70
     148     25       69       65      157
     149     25       70       65      157
     150     20       71       72       76
     151     20       71       72       77
     152     19       71       72      280
     153     21       72       71       73
     154     21       72       71       74
     155     21       72       71       75
     156     23       72      280      278
     157     25       72      280      285
     158     25       72      280      286
     159     34       73       71       74
     160     34       73       71       75
     161     34       74       71       75
     162     35       76       72       77
     163     25       76       72      280
     164     25       77       72      280
     165     20       78       79       83
     166     20       78       79       84
     167     19       78       79      281
     168     21       79       78       80
     169     21       79       78       81
     170     21       79       78       82
     171     23       79      281      278
     172     25       79      281      287
     173     25       79      281      288
     174     34       80       78       81
     175     34       80       78       82
     176     34       81       78       82
     177     35       83       79       84
     178     25       83       79      281
     179     25       84       79      281
     180     25       85       86       89
     181     25       85       86       90
     182     22       85       86      104
     183     25       86       85       87
     184     25       86       85       88
     185     24       86      104      103
     186     25       86      104      108
     187     25       86      104      109
     188     35       87       85       88
     189     35       89       86       90
     190     25       89       86      104
     191     25       90       86      104
     192     25       91       92       95
     193     25       91       92       96
     194     24       91      106      103
     195     25       91      106      112
     196     25       91      106      113
     197     25       92       91       93
     198     25       92       91       94
     199     22       92       91      106
     200     35       93       91       94
     201     25       93       91      106
     202     25       94       91      106
     203     35       95       92       96
     204     25       97       98      101
     205     25       97       98      102
     206     24       97      131      129
     207     25       97      131      136
     208     25       97      131      137
     209     25       98       97       99
     210     25       98       97      100
     211     22       98       97      131
     212     35       99       97      100
     213     25       99       97      131
     214     25      100       97      131
     215     35      101       98      102
     216     32      103      104      108
     217     32      103      104      109
     218     32      103      105      110
     219     32      103      105      111
     220     32      103      106      112
     221     32      103      106      113
     222     31      103      107      114
     223     31      103      107      115
     224      6      103      107      181
     225     28      104      103      105
     226     28      104      103      106
     227     17      104      103      107
     228     28      105      103      106
     229     17      105      103      107
     230     17      106      103      107
     231      9      107      181      182
     232      9      107      181      186
     233     35      108      104      109
     234     35      110      105      111
     235     35      112      106      113
     236     33      114      107      115
     237      7      114      107      181
     238      7      115      107      181
     239     31      116      117      121
     240     31      116      117      122
     241      6      116      117      185
     242     31      116      118      123
     243     31      116      118      124
     244      6      116      118      190
     245     32      116      119      125
     246     32      116      119      126
     247     32      116      120      127
     248     32      116      120      128
     249     24      116      120      130
     250     16      117      116      118
     251     17      117      116      119
     252     17      117      116      120
     253      9      117      185      184
     254      9      117      185      186
     255     17      118      116      119
     256     17      118      116      120
     257      9      118      190      191
     258      9      118      190      195
     259     28      119      116      120
     260     24      120      130      129
     261     25      120      130      134
     262     25      120      130      135
     263     33      121      117      122
     264      7      121      117      185
     265      7      122      117      185
     266     33      123      118      124
     267      7      123      118      190
     268      7      124      118      190
     269     35      125      119      126
     270     35      127      120      128
     271     25      127      120      130
     272     25      128      120      130
     273     32      129      130      134
     274     32      129      130      135
     275     32      129      131      136
     276     32      129      131      137
     277     32      129      132      138
     278     32      129      132      139
     279     24      129      132      257
     280     32      129      133      140
     281     32      129      133      141
     282     24      129      133      169
     283     28      130      129      131
     284     28      130      129      132
     285     28      130      129      133
     286     28      131      129      132
     287     28      131      129      133
     288     28      132      129      133
     289     23      132      257      256
     290     25      132      257      261
     291     25      132      257      262
     292     24      133      169      168
     293     25      133      169      173
     294     25      133      169      174
     295     35      134      130      135
     296     35      136      131      137
     297     35      138      132      139
     298     25      138      132      257
     299     25      139      132      257
     300     35      140      133      141
     301     25      140      133      169
     302     25      141      133      169
     303     31      142      143      147
     304     31      142      143      148
     305      6      142      143      292
     306     32      142      144      149
     307     32      142      144      150
     308     32      142      145      151
     309     32      142      145      152
     310     24      142      145      268
     311     32      142      146      153
     312     32      142      146      154
     313     24      142      146      156
     314     17      143      142      144
     315     17      143      142      145
     316     17      143      142      146
     317      9      143      292      291
     318      9      143      292      293
     319     28      144      142      145
     320     28      144      142      146
     321     28      145      142      146
     322     23      145      268      267
     323     25      145      268      272
     324     25      145      268      273
     325     24      146      156      155
     326     25      146      156      160
     327     25      146      156      161
     328     33      147      143      148
     329      7      147      143      292
     330      7      148      143      292
     331     35      149      144      150
     332     35      151      145      152
     333     25      151      145      268
     334     25      152      145      268
     335     35      153      146      154
     336     25      153      146      156
     337     25      154      146      156
     338     32      155      156      160
     339     32      155      156      161
     340     32      155      157      162
     341     32      155      157      163
     342     31      155      158      164
     343     31      155      158      165
     344      6      155      158      212
     345     32      155      159      166
     346     32      155      159      167
     347     24      155      159      279
     348     28      156      155      157
     349     17      156      155      158
     350     28      156      155      159
     351     17      157      155      158
     352     28      157      155      159
     353     17      158      155      159
     354      9      158      212      213
     355      9      158      212      217
     356     23      159      279      278
     357     25      159      279      283
     358     25      159      279      284
     359     35      160      156      161
     360     35      162      157      163
     361     33      164      158      165
     362      7      164      158      212
     363      7      165      158      212
     364     35      166      159      167
     365     25      166      159      279
     366     25      167      159      279
     367     32      168      169      173
     368     32      168      169      174
     369     31      168      170      175
     370     31      168      170      176
     371      6      168      170      223
     372     31      168      171      177
     373     31      168      171      178
     374      6      168      171      234
     375     31      168      172      179
     376     31      168      172      180
     377      6      168      172      245
     378     17      169      168      170
     379     17      169      168      171
     380     17      169      168      172
     381     16      170      168      171
     382     16      170      168      172
     383      9      170      223      224
     384      9      170      223      228
     385     16      171      168      172
     386      9      171      234      235
     387      9      171      234      239
     388      9      172      245      246
     389      9      172      245      250
     390     35      173      169      174
     391     33      175      170      176
     392      7      175      170      223
     393      7      176      170      223
     394     33      177      171      178
     395      7      177      171      234
     396      7      178      171      234
     397     33      179      172      180
     398      7      179      172      245
     399      7      180      172      245
     400      1      181      182      183
     401      3      181      182      187
     402      1      181      186      185
     403      3      181      186      189
     404      8      182      181      186
     405      8      182      183      184
     406      3      183      182      187
     407      1      183      184      185
     408      3      183      184      188
     409      8      184      185      186
     410      3      185      184      188
     411      3      185      186      189
     412      2      190      191      192
     413      3      190      191      196
     414      2      190      195      194
     415      3      190      195      200
     416      8      191      190      195
     417     10      191      192      193
     418     11      191      192      197
     419     11      192      191      196
     420     10      192      193      194
     421     11      192      193      198
     422     11      193      192      197
     423     10      193      194      195
     424     11      193      194      199
     425     11      194      193      198
     426     11      194      195      200
     427     11      195      194      199
     428      2      201      202      203
     429      3      201      202      207
     430      2      201      206      205
     431      3      201      206      211
     432      5      201      258      256
     433      7      201      258      263
     434      7      201      258      264
     435      8      202      201      206
     436      9      202      201      258
     437     10      202      203      204
     438     11      202      203      208
     439     11      203      202      207
     440     10      203      204      205
     441     11      203      204      209
     442     11      204      203      208
     443     10      204      205      206
     444     11      204      205      210
     445     11      205      204      209
     446     11      205      206      211
     447      9      206      201      258
     448     11      206      205      210
     449      2      212      213      214
     450      3      212      213      218
     451      2      212      217      216
     452      3      212      217      222
     453      8      213      212      217
     454     10      213      214      215
     455     11      213      214      219
     456     11      214      213      218
     457     10      214      215      216
     458     11      214      215      220
     459     11      215      214      219
     460     10      215      216      217
     461     11      215      216      221
     462     11      216      215      220
     463     11      216      217      222
     464     11      217      216      221
     465      2      223      224      225
     466      3      223      224      229
     467      2      223      228      227
     468      3      223      228      233
     469      8      224      223      228
     470     10      224      225      226
     471     11      224      225      230
     472     11      225      224      229
     473     10      225      226      227
     474     11      225      226      231
     475     11      226      225      230
     476     10      226      227      228
     477     11      226      227      232
     478     11      227      226      231
     479     11      227      228      233
     480     11      228      227      232
     481      2      234      235      236
     482      3      234      235      240
     483      2      234      239      238
     484      3      234      239      244
     485      8      235      234      239
     486     10      235      236      237
     487     11      235      236      241
     488     11      236      235      240
     489     10      236      237      238
     490     11      236      237      242
     491     11      237      236      241
     492     10      237      238      239
     493     11      237      238      243
     494     11      238      237      242
     495     11      238      239      244
     496     11      239      238      243
     497      2      245      246      247
     498      3      245      246      251
     499      2      245      250      249
     500      3      245      250      255
     501      8      246      245      250
     502     10      246      247      248
     503     11      246      247      252
     504     11      247      246      251
     505     10      247      248      249
     506     11      247      248      253
     507     11      248      247      252
     508     10      248      249      250
     509     11      248      249      254
     510     11      249      248      253
     511     11      249      250      255
     512     11      250      249      254
     513     30      256      257      261
     514     30      256      257      262
     515     29      256      258      263
     516     29      256      258      264
     517     29      256      259      265
     518     29      256      259      266
     519      5      256      259      289
     520     14      257      256      258
     521     14      257      256      259
     522     27      257      256      260
     523     13      258      256      259
     524     15      258      256      260
     525     15      259      256      260
     526      9      259      289      290
     527      9      259      289      294
     528     35      261      257      262
     529     33      263      258      264
     530     33      265      259      266
     531      7      265      259      289
     532      7      266      259      289
     533     30      267      268      272
     534     30      267      268      273
     535     30      267      269      274
     536     30      267      269      275
     537     30      267      270      276
     538     30      267      270      277
     539     26      268      267      269
     540     26      268      267      270
     541     27      268      267      271
     542     26      269      267      270
     543     27      269      267      271
     544     27      270      267      271
     545     35      272      268      273
     546     35      274      269      275
     547     35      276      270      277
     548     30      278      279      283
     549     30      278      279      284
     550     30      278      280      285
     551     30      278      280      286
     552     30      278      281      287
     553     30      278      281      288
     554     26      279      278      280
     555     26      279      278      281
     556     27      279      278      282
     557     26      280      278      281
     558     27      280      278      282
     559     27      281      278      282
     560     35      283      279      284
     561     35      285      280      286
     562     35      287      281      288
     563      2      289      290      291
     564      3      289      290      295
     565      2      289      294      293
     566      3      289      294      298
     567      8      290      289      294
     568      2      290      291      292
     569     11      290      291      296
     570     11      291      290      295
     571      8      291      292      293
     572      3      292      291      296
     573      2      292      293      294
     574      3      292      293      297
     575     11      293      294      298
     576     11      294      293      297

Dihedrals

       1     28        1        2       85       86
       2     31        1        2       85       87
       3     31        1        2       85       88
       4     35        2       85       86       89
       5     35        2       85       86       90
       6     33        2       85       86      104
       7     50        3        1        2        6
       8     50        3        1        2        7
       9     32        3        1        2       85
      10     50        4        1        2        6
      11     50        4        1        2        7
      12     32        4        1        2       85
      13     50        5        1        2        6
      14     50        5        1        2        7
      15     32        5        1        2       85
      16     35        6        2       85       86
      17     51        6        2       85       87
      18     51        6        2       85       88
      19     35        7        2       85       86
      20     51        7        2       85       87
      21     51        7        2       85       88
      22     30        8        9      105      103
      23     31        8        9      105      110
      24     31        8        9      105      111
      25     38        9      105      103      104
      26     38        9      105      103      106
      27     26        9      105      103      107
      28     50       10        8        9       13
      29     50       10        8        9       14
      30     32       10        8        9      105
      31     50       11        8        9       13
      32     50       11        8        9       14
      33     32       11        8        9      105
      34     50       12        8        9       13
      35     50       12        8        9       14
      36     32       12        8        9      105
      37     46       13        9      105      103
      38     51       13        9      105      110
      39     51       13        9      105      111
      40     46       14        9      105      103
      41     51       14        9      105      110
      42     51       14        9      105      111
      43     28       15       16       92       91
      44     31       15       16       92       95
      45     31       15       16       92       96
      46     35       16       92       91       93
      47     35       16       92       91       94
      48     33       16       92       91      106
      49     50       17       15       16       20
      50     50       17       15       16       21
      51     32       17       15       16       92
      52     50       18       15       16       20
      53     50       18       15       16       21
      54     32       18       15       16       92
      55     50       19       15       16       20
      56     50       19       15       16       21
      57     32       19       15       16       92
      58     35       20       16       92       91
      59     51       20       16       92       95
      60     51       20       16       92       96
      61     35       21       16       92       91
      62     51       21       16       92       95
      63     51       21       16       92       96
      64     14       22       23      183      182
      65     14       22       23      183      184
      66      2       23      183      182      181
      67     21       23      183      182      187
      68      2       23      183      184      185
      69     21       23      183      184      188
      70     48       24       22       23       27
      71     48       24       22       23       28
      72      6       24       22       23      183
      73     48       25       22       23       27
      74     48       25       22       23       28
      75      6       25       22       23      183
      76     48       26       22       23       27
      77     48       26       22       23       28
      78      6       26       22       23      183
      79     17       27       23      183      182
      80     17       27       23      183      184
      81     17       28       23      183      182
      82     17       28       23      183      184
      83     30       29       30      119      116
      84     31       29       30      119      125
      85     31       29       30      119      126
      86     26       30      119      116      117
      87     26       30      119      116      118
      88     38       30      119      116      120
      89     50       31       29       30       34
      90     50       31       29       30       35
      91     32       31       29       30      119
      92     50       32       29       30       34
      93     50       32       29       30       35
      94     32       32       29       30      119
      95     50       33       29       30       34
      96     50       33       29       30       35
      97     32       33       29       30      119
      98     46       34       30      119      116
      99     51       34       30      119      125
     100     51       34       30      119      126
     101     46       35       30      119      116
     102     51       35       30      119      125
     103     51       35       30      119      126
     104     28       36       37       98       97
     105     31       36       37       98      101
     106     31       36       37       98      102
     107     35       37       98       97       99
     108     35       37       98       97      100
     109     33       37       98       97      131
     110     50       38       36       37       41
     111     50       38       36       37       42
     112     32       38       36       37       98
     113     50       39       36       37       41
     114     50       39       36       37       42
     115     32       39       36       37       98
     116     50       40       36       37       41
     117     50       40       36       37       42
     118     32       40       36       37       98
     119     35       41       37       98       97
     120     51       41       37       98      101
     121     51       41       37       98      102
     122     35       42       37       98       97
     123     51       42       37       98      101
     124     51       42       37       98      102
     125     30       43       44      144      142
     126     31       43       44      144      149
     127     31       43       44      144      150
     128     26       44      144      142      143
     129     38       44      144      142      145
     130     38       44      144      142      146
     131     50       45       43       44       48
     132     50       45       43       44       49
     133     32       45       43       44      144
     134     50       46       43       44       48
     135     50       46       43       44       49
     136     32       46       43       44      144
     137     50       47       43       44       48
     138     50       47       43       44       49
     139     32       47       43       44      144
     140     46       48       44      144      142
     141     51       48       44      144      149
     142     51       48       44      144      150
     143     46       49       44      144      142
     144     51       49       44      144      149
     145     51       49       44      144      150
     146     29       50       51      269      267
     147     31       50       51      269      274
     148     31       50       51      269      275
     149     36       51      269      267      268
     150     36       51      269      267      270
     151     37       51      269      267      271
     152     50       52       50       51       55
     153     50       52       50       51       56
     154     32       52       50       51      269
     155     50       53       50       51       55
     156     50       53       50       51       56
     157     32       53       50       51      269
     158     50       54       50       51       55
     159     50       54       50       51       56
     160     32       54       50       51      269
     161     44       55       51      269      267
     162     51       55       51      269      274
     163     51       55       51      269      275
     164     44       56       51      269      267
     165     51       56       51      269      274
     166     51       56       51      269      275
     167     29       57       58      270      267
     168     31       57       58      270      276
     169     31       57       58      270      277
     170     36       58      270      267      268
     171     36       58      270      267      269
     172     37       58      270      267      271
     173     50       59       57       58       62
     174     50       59       57       58       63
     175     32       59       57       58      270
     176     50       60       57       58       62
     177     50       60       57       58       63
     178     32       60       57       58      270
     179     50       61       57       58       62
     180     50       61       57       58       63
     181     32       61       57       58      270
     182     44       62       58      270      267
     183     51       62       58      270      276
     184     51       62       58      270      277
     185     44       63       58      270      267
     186     51       63       58      270      276
     187     51       63       58      270      277
     188     30       64       65      157      155
     189     31       64       65      157      162
     190     31       64       65      157      163
     191     38       65      157      155      156
     192     26       65      157      155      158
     193     38       65      157      155      159
     194     50       66       64       65       69
     195     50       66       64       65       70
     196     32       66       64       65      157
     197     50       67       64       65       69
     198     50       67       64       65       70
     199     32       67       64       65      157
     200     50       68       64       65       69
     201     50       68       64       65       70
     202     32       68       64       65      157
     203     46       69       65      157      155
     204     51       69       65      157      162
     205     51       69       65      157      163
     206     46       70       65      157      155
     207     51       70       65      157      162
     208     51       70       65      157      163
     209     29       71       72      280      278
     210     31       71       72      280      285
     211     31       71       72      280      286
     212     36       72      280      278      279
     213     36       72      280      278      281
     214     37       72      280      278      282
     215     50       73       71       72       76
     216     50       73       71       72       77
     217     32       73       71       72      280
     218     50       74       71       72       76
     219     50       74       71       72       77
     220     32       74       71       72      280
     221     50       75       71       72       76
     222     50       75       71       72       77
     223     32       75       71       72      280
     224     44       76       72      280      278
     225     51       76       72      280      285
     226     51       76       72      280      286
     227     44       77       72      280      278
     228     51       77       72      280      285
     229     51       77       72      280      286
     230     29       78       79      281      278
     231     31       78       79      281      287
     232     31       78       79      281      288
     233     36       79      281      278      279
     234     36       79      281      278      280
     235     37       79      281      278      282
     236     50       80       78       79       83
     237     50       80       78       79       84
     238     32       80       78       79      281
     239     50       81       78       79       83
     240     50       81       78       79       84
     241     32       81       78       79      281
     242     50       82       78       79       83
     243     50       82       78       79       84
     244     32       82       78       79      281
     245     44       83       79      281      278
     246     51       83       79      281      287
     247     51       83       79      281      288
     248     44       84       79      281      278
     249     51       84       79      281      287
     250     51       84       79      281      288
     251     34       85       86      104      103
     252     35       85       86      104      108
     253     35       85       86      104      109
     254     38       86      104      103      105
     255     38       86      104      103      106
     256     26       86      104      103      107
     257     51       87       85       86       89
     258     51       87       85       86       90
     259     35       87       85       86      104
     260     51       88       85       86       89
     261     51       88       85       86       90
     262     35       88       85       86      104
     263     46       89       86      104      103
     264     51       89       86      104      108
     265     51       89       86      104      109
     266     46       90       86      104      103
     267     51       90       86      104      108
     268     51       90       86      104      109
     269     38       91      106      103      104
     270     38       91      106      103      105
     271     26       91      106      103      107
     272     34       92       91      106      103
     273     35       92       91      106      112
     274     35       92       91      106      113
     275     51       93       91       92       95
     276     51       93       91       92       96
     277     46       93       91      106      103
     278     51       93       91      106      112
     279     51       93       91      106      113
     280     51       94       91       92       95
     281     51       94       91       92       96
     282     46       94       91      106      103
     283     51       94       91      106      112
     284     51       94       91      106      113
     285     35       95       92       91      106
     286     35       96       92       91      106
     287     38       97      131      129      130
     288     38       97      131      129      132
     289     38       97      131      129      133
     290     34       98       97      131      129
     291     35       98       97      131      136
     292     35       98       97      131      137
     293     51       99       97       98      101
     294     51       99       97       98      102
     295     46       99       97      131      129
     296     51       99       97      131      136
     297     51       99       97      131      137
     298     51      100       97       98      101
     299     51      100       97       98      102
     300     46      100       97      131      129
     301     51      100       97      131      136
     302     51      100       97      131      137
     303     35      101       98       97      131
     304     35      102       98       97      131
     305     16      103      107      181      182
     306     16      103      107      181      186
     307     42      104      103      105      110
     308     42      104      103      105      111
     309     42      104      103      106      112
     310     42      104      103      106      113
     311     41      104      103      107      114
     312     41      104      103      107      115
     313     11      104      103      107      181
     314     42      105      103      104      108
     315     42      105      103      104      109
     316     42      105      103      106      112
     317     42      105      103      106      113
     318     41      105      103      107      114
     319     41      105      103      107      115
     320     11      105      103      107      181
     321     42      106      103      104      108
     322     42      106      103      104      109
     323     42      106      103      105      110
     324     42      106      103      105      111
     325     41      106      103      107      114
     326     41      106      103      107      115
     327     11      106      103      107      181
     328     27      107      103      104      108
     329     27      107      103      104      109
     330     27      107      103      105      110
     331     27      107      103      105      111
     332     27      107      103      106      112
     333     27      107      103      106      113
     334      2      107      181      182      183
     335     21      107      181      182      187
     336      2      107      181      186      185
     337     21      107      181      186      189
     338     17      114      107      181      182
     339     17      114      107      181      186
     340     17      115      107      181      182
     341     17      115      107      181      186
     342     16      116      117      185      184
     343     16      116      117      185      186
     344     16      116      118      190      191
     345     16      116      118      190      195
     346     45      116      120      130      129
     347     46      116      120      130      134
     348     46      116      120      130      135
     349     25      117      116      118      123
     350     25      117      116      118      124
     351     10      117      116      118      190
     352     27      117      116      119      125
     353     27      117      116      119      126
     354     27      117      116      120      127
     355     27      117      116      120      128
     356     26      117      116      120      130
     357      2      117      185      184      183
     358     21      117      185      184      188
     359      2      117      185      186      181
     360     21      117      185      186      189
     361     25      118      116      117      121
     362     25      118      116      117      122
     363     10      118      116      117      185
     364     27      118      116      119      125
     365     27      118      116      119      126
     366     27      118      116      120      127
     367     27      118      116      120      128
     368     26      118      116      120      130
     369     18      118      190      191      192
     370     21      118      190      191      196
     371     18      118      190      195      194
     372     21      118      190      195      200
     373     41      119      116      117      121
     374     41      119      116      117      122
     375     11      119      116      117      185
     376     41      119      116      118      123
     377     41      119      116      118      124
     378     11      119      116      118      190
     379     42      119      116      120      127
     380     42      119      116      120      128
     381     38      119      116      120      130
     382     41      120      116      117      121
     383     41      120      116      117      122
     384     11      120      116      117      185
     385     41      120      116      118      123
     386     41      120      116      118      124
     387     11      120      116      118      190
     388     42      120      116      119      125
     389     42      120      116      119      126
     390     38      120      130      129      131
     391     38      120      130      129      132
     392     38      120      130      129      133
     393     17      121      117      185      184
     394     17      121      117      185      186
     395     17      122      117      185      184
     396     17      122      117      185      186
     397     17      123      118      190      191
     398     17      123      118      190      195
     399     17      124      118      190      191
     400     17      124      118      190      195
     401     46      127      120      130      129
     402     51      127      120      130      134
     403     51      127      120      130      135
     404     46      128      120      130      129
     405     51      128      120      130      134
     406     51      128      120      130      135
     407     43      129      132      257      256
     408     46      129      132      257      261
     409     46      129      132      257      262
     410     45      129      133      169      168
     411     46      129      133      169      173
     412     46      129      133      169      174
     413     42      130      129      131      136
     414     42      130      129      131      137
     415     42      130      129      132      138
     416     42      130      129      132      139
     417     38      130      129      132      257
     418     42      130      129      133      140
     419     42      130      129      133      141
     420     38      130      129      133      169
     421     42      131      129      130      134
     422     42      131      129      130      135
     423     42      131      129      132      138
     424     42      131      129      132      139
     425     38      131      129      132      257
     426     42      131      129      133      140
     427     42      131      129      133      141
     428     38      131      129      133      169
     429     42      132      129      130      134
     430     42      132      129      130      135
     431     42      132      129      131      136
     432     42      132      129      131      137
     433     42      132      129      133      140
     434     42      132      129      133      141
     435     38      132      129      133      169
     436     23      132      257      256      258
     437     23      132      257      256      259
     438     37      132      257      256      260
     439     42      133      129      130      134
     440     42      133      129      130      135
     441     42      133      129      131      136
     442     42      133      129      131      137
     443     42      133      129      132      138
     444     42      133      129      132      139
     445     38      133      129      132      257
     446     26      133      169      168      170
     447     26      133      169      168      171
     448     26      133      169      168      172
     449     44      138      132      257      256
     450     51      138      132      257      261
     451     51      138      132      257      262
     452     44      139      132      257      256
     453     51      139      132      257      261
     454     51      139      132      257      262
     455     46      140      133      169      168
     456     51      140      133      169      173
     457     51      140      133      169      174
     458     46      141      133      169      168
     459     51      141      133      169      173
     460     51      141      133      169      174
     461     16      142      143      292      291
     462     16      142      143      292      293
     463     43      142      145      268      267
     464     46      142      145      268      272
     465     46      142      145      268      273
     466     45      142      146      156      155
     467     46      142      146      156      160
     468     46      142      146      156      161
     469     27      143      142      144      149
     470     27      143      142      144      150
     471     27      143      142      145      151
     472     27      143      142      145      152
     473     26      143      142      145      268
     474     27      143      142      146      153
     475     27      143      142      146      154
     476     26      143      142      146      156
     477     18      143      292      291      290
     478     21      143      292      291      296
     479     18      143      292      293      294
     480     21      143      292      293      297
     481     41      144      142      143      147
     482     41      144      142      143      148
     483     11      144      142      143      292
     484     42      144      142      145      151
     485     42      144      142      145      152
     486     38      144      142      145      268
     487     42      144      142      146      153
     488     42      144      142      146      154
     489     38      144      142      146      156
     490     41      145      142      143      147
     491     41      145      142      143      148
     492     11      145      142      143      292
     493     42      145      142      144      149
     494     42      145      142      144      150
     495     42      145      142      146      153
     496     42      145      142      146      154
     497     38      145      142      146      156
     498     36      145      268      267      269
     499     36      145      268      267      270
     500     37      145      268      267      271
     501     41      146      142      143      147
     502     41      146      142      143      148
     503     11      146      142      143      292
     504     42      146      142      144      149
     505     42      146      142      144      150
     506     42      146      142      145      151
     507     42      146      142      145      152
     508     38      146      142      145      268
     509     38      146      156      155      157
     510     26      146      156      155      158
     511     38      146      156      155      159
     512     17      147      143      292      291
     513     17      147      143      292      293
     514     17      148      143      292      291
     515     17      148      143      292      293
     516     44      151      145      268      267
     517     51      151      145      268      272
     518     51      151      145      268      273
     519     44      152      145      268      267
     520     51      152      145      268      272
     521     51      152      145      268      273
     522     46      153      146      156      155
     523     51      153      146      156      160
     524     51      153      146      156      161
     525     46      154      146      156      155
     526     51      154      146      156      160
     527     51      154      146      156      161
     528     16      155      158      212      213
     529     16      155      158      212      217
     530     43      155      159      279      278
     531     46      155      159      279      283
     532     46      155      159      279      284
     533     42      156      155      157      162
     534     42      156      155      157      163
     535     41      156      155      158      164
     536     41      156      155      158      165
     537     11      156      155      158      212
     538     42      156      155      159      166
     539     42      156      155      159      167
     540     38      156      155      159      279
     541     42      157      155      156      160
     542     42      157      155      156      161
     543     41      157      155      158      164
     544     41      157      155      158      165
     545     11      157      155      158      212
     546     42      157      155      159      166
     547     42      157      155      159      167
     548     38      157      155      159      279
     549     27      158      155      156      160
     550     27      158      155      156      161
     551     27      158      155      157      162
     552     27      158      155      157      163
     553     27      158      155      159      166
     554     27      158      155      159      167
     555     26      158      155      159      279
     556     18      158      212      213      214
     557     21      158      212      213      218
     558     18      158      212      217      216
     559     21      158      212      217      222
     560     42      159      155      156      160
     561     42      159      155      156      161
     562     42      159      155      157      162
     563     42      159      155      157      163
     564     41      159      155      158      164
     565     41      159      155      158      165
     566     11      159      155      158      212
     567     36      159      279      278      280
     568     36      159      279      278      281
     569     37      159      279      278      282
     570     17      164      158      212      213
     571     17      164      158      212      217
     572     17      165      158      212      213
     573     17      165      158      212      217
     574     44      166      159      279      278
     575     51      166      159      279      283
     576     51      166      159      279      284
     577     44      167      159      279      278
     578     51      167      159      279      283
     579     51      167      159      279      284
     580     16      168      170      223      224
     581     16      168      170      223      228
     582     16      168      171      234      235
     583     16      168      171      234      239
     584     16      168      172      245      246
     585     16      168      172      245      250
     586     41      169      168      170      175
     587     41      169      168      170      176
     588     11      169      168      170      223
     589     41      169      168      171      177
     590     41      169      168      171      178
     591     11      169      168      171      234
     592     41      169      168      172      179
     593     41      169      168      172      180
     594     11      169      168      172      245
     595     27      170      168      169      173
     596     27      170      168      169      174
     597     25      170      168      171      177
     598     25      170      168      171      178
     599     10      170      168      171      234
     600     25      170      168      172      179
     601     25      170      168      172      180
     602     10      170      168      172      245
     603     18      170      223      224      225
     604     21      170      223      224      229
     605     18      170      223      228      227
     606     21      170      223      228      233
     607     27      171      168      169      173
     608     27      171      168      169      174
     609     25      171      168      170      175
     610     25      171      168      170      176
     611     10      171      168      170      223
     612     25      171      168      172      179
     613     25      171      168      172      180
     614     10      171      168      172      245
     615     18      171      234      235      236
     616     21      171      234      235      240
     617     18      171      234      239      238
     618     21      171      234      239      244
     619     27      172      168      169      173
     620     27      172      168      169      174
     621     25      172      168      170      175
     622     25      172      168      170      176
     623     10      172      168      170      223
     624     25      172      168      171      177
     625     25      172      168      171      178
     626     10      172      168      171      234
     627     18      172      245      246      247
     628     21      172      245      246      251
     629     18      172      245      250      249
     630     21      172      245      250      255
     631     17      175      170      223      224
     632     17      175      170      223      228
     633     17      176      170      223      224
     634     17      176      170      223      228
     635     17      177      171      234      235
     636     17      177      171      234      239
     637     17      178      171      234      235
     638     17      178      171      234      239
     639     17      179      172      245      246
     640     17      179      172      245      250
     641     17      180      172      245      246
     642     17      180      172      245      250
     643      1      181      182      183      184
     644      1      181      186      185      184
     645      1      182      181      186      185
     646     13      182      181      186      189
     647      1      182      183      184      185
     648     13      182      183      184      188
     649      1      183      182      181      186
     650      1      183      184      185      186
     651     13      184      183      182      187
     652     13      184      185      186      189
     653     13      186      181      182      187
     654     13      186      185      184      188
     655      4      190      191      192      193
     656      5      190      191      192      197
     657      4      190      195      194      193
     658      5      190      195      194      199
     659     12      191      190      195      194
     660     13      191      190      195      200
     661     19      191      192      193      194
     662     20      191      192      193      198
     663     12      192      191      190      195
     664     19      192      193      194      195
     665     20      192      193      194      199
     666     20      193      192      191      196
     667     20      193      194      195      200
     668     20      194      193      192      197
     669     13      195      190      191      196
     670     20      195      194      193      198
     671     47      196      191      192      197
     672     47      197      192      193      198
     673     47      198      193      194      199
     674     47      199      194      195      200
     675      4      201      202      203      204
     676      5      201      202      203      208
     677      4      201      206      205      204
     678      5      201      206      205      210
     679      8      201      258      256      257
     680      7      201      258      256      259
     681      9      201      258      256      260
     682     12      202      201      206      205
     683     13      202      201      206      211
     684     15      202      201      258      256
     685     17      202      201      258      263
     686     17      202      201      258      264
     687     19      202      203      204      205
     688     20      202      203      204      209
     689     12      203      202      201      206
     690     18      203      202      201      258
     691     19      203      204      205      206
     692     20      203      204      205      210
     693     20      204      203      202      207
     694     20      204      205      206      211
     695     20      205      204      203      208
     696     18      205      206      201      258
     697     13      206      201      202      207
     698     15      206      201      258      256
     699     17      206      201      258      263
     700     17      206      201      258      264
     701     20      206      205      204      209
     702     21      207      202      201      258
     703     47      207      202      203      208
     704     47      208      203      204      209
     705     47      209      204      205      210
     706     47      210      205      206      211
     707     21      211      206      201      258
     708      4      212      213      214      215
     709      5      212      213      214      219
     710      4      212      217      216      215
     711      5      212      217      216      221
     712     12      213      212      217      216
     713     13      213      212      217      222
     714     19      213      214      215      216
     715     20      213      214      215      220
     716     12      214      213      212      217
     717     19      214      215      216      217
     718     20      214      215      216      221
     719     20      215      214      213      218
     720     20      215      216      217      222
     721     20      216      215      214      219
     722     13      217      212      213      218
     723     20      217      216      215      220
     724     47      218      213      214      219
     725     47      219      214      215      220
     726     47      220      215      216      221
     727     47      221      216      217      222
     728      4      223      224      225      226
     729      5      223      224      225      230
     730      4      223      228      227      226
     731      5      223      228      227      232
     732     12      224      223      228      227
     733     13      224      223      228      233
     734     19      224      225      226      227
     735     20      224      225      226      231
     736     12      225      224      223      228
     737     19      225      226      227      228
     738     20      225      226      227      232
     739     20      226      225      224      229
     740     20      226      227      228      233
     741     20      227      226      225      230
     742     13      228      223      224      229
     743     20      228      227      226      231
     744     47      229      224      225      230
     745     47      230      225      226      231
     746     47      231      226      227      232
     747     47      232      227      228      233
     748      4      234      235      236      237
     749      5      234      235      236      241
     750      4      234      239      238      237
     751      5      234      239      238      243
     752     12      235      234      239      238
     753     13      235      234      239      244
     754     19      235      236      237      238
     755     20      235      236      237      242
     756     12      236      235      234      239
     757     19      236      237      238      239
     758     20      236      237      238      243
     759     20      237      236      235      240
     760     20      237      238      239      244
     761     20      238      237      236      241
     762     13      239      234      235      240
     763     20      239      238      237      242
     764     47      240      235      236      241
     765     47      241      236      237      242
     766     47      242      237      238      243
     767     47      243      238      239      244
     768      4      245      246      247      248
     769      5      245      246      247      252
     770      4      245      250      249      248
     771      5      245      250      249      254
     772     12      246      245      250      249
     773     13      246      245      250      255
     774     19      246      247      248      249
     775     20      246      247      248      253
     776     12      247      246      245      250
     777     19      247      248      249      250
     778     20      247      248      249      254
     779     20      248      247      246      251
     780     20      248      249      250      255
     781     20      249      248      247      252
     782     13      250      245      246      251
     783     20      250      249      248      253
     784     47      251      246      247      252
     785     47      252      247      248      253
     786     47      253      248      249      254
     787     47      254      249      250      255
     788     15      256      259      289      290
     789     15      256      259      289      294
     790     39      257      256      258      263
     791     39      257      256      258      264
     792     39      257      256      259      265
     793     39      257      256      259      266
     794      8      257      256      259      289
     795     24      258      256      257      261
     796     24      258      256      257      262
     797     22      258      256      259      265
     798     22      258      256      259      266
     799      7      258      256      259      289
     800     24      259      256      257      261
     801     24      259      256      257      262
     802     22      259      256      258      263
     803     22      259      256      258      264
     804     18      259      289      290      291
     805     21      259      289      290      295
     806     18      259      289      294      293
     807     21      259      289      294      298
     808     52      260      256      257      261
     809     52      260      256      257      262
     810     49      260      256      258      263
     811     49      260      256      258      264
     812     49      260      256      259      265
     813     49      260      256      259      266
     814      9      260      256      259      289
     815     17      265      259      289      290
     816     17      265      259      289      294
     817     17      266      259      289      290
     818     17      266      259      289      294
     819     40      268      267      269      274
     820     40      268      267      269      275
     821     40      268      267      270      276
     822     40      268      267      270      277
     823     40      269      267      268      272
     824     40      269      267      268      273
     825     40      269      267      270      276
     826     40      269      267      270      277
     827     40      270      267      268      272
     828     40      270      267      268      273
     829     40      270      267      269      274
     830     40      270      267      269      275
     831     52      271      267      268      272
     832     52      271      267      268      273
     833     52      271      267      269      274
     834     52      271      267      269      275
     835     52      271      267      270      276
     836     52      271      267      270      277
     837     40      279      278      280      285
     838     40      279      278      280      286
     839     40      279      278      281      287
     840     40      279      278      281      288
     841     40      280      278      279      283
     842     40      280      278      279      284
     843     40      280      278      281      287
     844     40      280      278      281      288
     845     40      281      278      279      283
     846     40      281      278      279      284
     847     40      281      278      280      285
     848     40      281      278      280      286
     849     52      282      278      279      283
     850     52      282      278      279      284
     851     52      282      278      280      285
     852     52      282      278      280      286
     853     52      282      278      281      287
     854     52      282      278      281      288
     855      3      289      290      291      292
     856      5      289      290      291      296
     857      3      289      294      293      292
     858      5      289      294      293      297
     859     12      290      289      294      293
     860     13      290      289      294      298
     861     12      290      291      292      293
     862     12      291      290      289      294
     863     12      291      292      293      294
     864     13      291      292      293      297
     865      5      292      291      290      295
     866      5      292      293      294      298
     867     13      293      292      291      296
     868     13      294      289      290      295
     869     47      295      290      291      296
     870     47      297      293      294      298

Impropers

       1      1      107      181      182      186
       2      2      181      182      183      187
       3      1       23      183      182      184
       4      2      183      184      185      188
       5      1      117      185      184      186
       6      2      181      186      185      189
       7      1      118      190      191      195
       8      3      190      191      192      196
       9      4      191      192      193      197
      10      4      192      193      194      198
      11      4      193      194      195      199
      12      3      190      195      194      200
      13      1      202      201      206      258
      14      3      201      202      203      207
      15      4      202      203      204      208
      16      4      203      204      205      209
      17      4      204      205      206      210
      18      3      201      206      205      211
      19      1      158      212      213      217
      20      3      212      213      214      218
      21      4      213      214      215      219
      22      4      214      215      216      220
      23      4      215      216      217      221
      24      3      212      217      216      222
      25      1      170      223      224      228
      26      3      223      224      225      229
      27      4      224      225      226      230
      28      4      225      226      227      231
      29      4      226      227      228      232
      30      3      223      228      227      233
      31      1      171      234      235      239
      32      3      234      235      236      240
      33      4      235      236      237      241
      34      4      236      237      238      242
      35      4      237      238      239      243
      36      3      234      239      238      244
      37      1      172      245      246      250
      38      3      245      246      247      251
      39      4      246      247      248      252
      40      4      247      248      249      253
      41      4      248      249      250      254
      42      3      245      250      249      255
      43      1      259      289      290      294
      44      3      289      290      291      295
      45      3      290      291      292      296
      46      1      143      292      291      293
      47      3      292      293      294      297
      48      3      289      294      293      298

