LAMMPS data file generated by clean-room 1-hop pipeline

     176 atoms
     175 bonds
     348 angles
     513 dihedrals
       0 impropers

       4 atom types
       6 bond types
      11 angle types
      13 dihedral types
       0 improper types

  -36.367300    36.428400 xlo xhi
  -31.409100    38.484000 ylo yhi
  -28.488300    30.231200 zlo zhi

Masses

       1    12.011000
       2    12.011000
       3    12.011000
       4     1.008000

Pair Coeffs

       1     0.066000     3.500000
       2     0.066000     3.500000
       3     0.066000     3.500000
       4     0.030000     2.500000

Bond Coeffs

       1   268.000000     1.529000
       2   340.000000     1.090000
       3   268.000000     1.529000
       4   268.000000     1.529000
       5   340.000000     1.090000
       6   340.000000     1.090000

Angle Coeffs

       1    58.350000   112.700000
       2    37.500000   110.700000
       3    37.500000   110.700000
       4    58.350000   112.700000
       5    58.350000   112.700000
       6    37.500000   110.700000
       7    58.350000   112.700000
       8    37.500000   110.700000
       9    37.500000   110.700000
      10    33.000000   107.800000
      11    33.000000   107.800000

Dihedral Coeffs

       1     0.850000    -0.200000     0.200000     0.000000
       2     0.000000     0.000000     0.300000     0.000000
       3     0.000000     0.000000     0.300000     0.000000
       4     0.850000    -0.200000     0.200000     0.000000
       5     0.850000    -0.200000     0.200000     0.000000
       6     0.000000     0.000000     0.300000     0.000000
       7     0.850000    -0.200000     0.200000     0.000000
       8     0.000000     0.000000     0.300000     0.000000
       9     0.000000     0.000000     0.300000     0.000000
      10     0.000000     0.000000     0.300000     0.000000
      11     0.000000     0.000000     0.300000     0.000000
      12     0.000000     0.000000     0.300000     0.000000
      13     0.000000     0.000000     0.300000     0.000000

Improper Coeffs


Atoms

       1    1      1  -0.26504133    15.490100   -10.831700     9.585700
       2    1      2  -0.19438996    14.983900    -9.424700     9.217700
       3    1      4   0.09681963    14.679300   -11.387900    10.167400
       4    1      4   0.09681963    15.737700   -11.409100     8.631500
       5    1      4   0.09681963    16.428400   -10.743100    10.231200
       6    1      4   0.09681963    15.790800    -8.868500     8.635600
       7    1      4   0.09681963    14.736600    -8.848700    10.169200
       8    1      1  -0.26504133     8.817100     3.265400    -2.738800
       9    1      2  -0.19438996     7.600700     2.596700    -2.070800
      10    1      4   0.09681963     8.838300     3.000000    -3.846800
      11    1      4   0.09681963     8.740800     4.397400    -2.619600
      12    1      4   0.09681963     9.774500     2.895400    -2.240800
      13    1      4   0.09681963     7.680800     1.464600    -2.185400
      14    1      4   0.09681963     6.640900     2.963400    -2.562600
      15    1      1  -0.26504133    -3.066100    17.958600    -7.502400
      16    1      2  -0.19438996    -2.703400    16.460500    -7.489400
      17    1      4   0.09681963    -2.736400    18.419900    -8.488300
      18    1      4   0.09681963    -4.190500    18.077200    -7.385200
      19    1      4   0.09681963    -2.538000    18.484000    -6.642500
      20    1      4   0.09681963    -1.573800    16.342900    -7.607200
      21    1      4   0.09681963    -3.233000    15.931100    -8.348400
      22    1      1  -0.26504133   -15.469900   -10.136700    -2.061000
      23    1      2  -0.19438996   -15.072000    -8.748000    -2.593600
      24    1      4   0.09681963   -16.367300   -10.528500    -2.650100
      25    1      4   0.09681963   -14.591100   -10.856900    -2.183700
      26    1      4   0.09681963   -15.745200   -10.057800    -0.956500
      27    1      4   0.09681963   -15.947500    -8.028700    -2.475000
      28    1      4   0.09681963   -14.795700    -8.831200    -3.696200
      29    1      2  -0.19438996    13.717800    -9.542100     8.348400
      30    1      2  -0.19438996    13.229300    -8.127400     7.984800
      31    1      4   0.09681963    12.905500   -10.092200     8.927600
      32    1      4   0.09681963    13.963200   -10.117500     7.394000
      33    1      4   0.09681963    12.991700    -7.551000     8.938900
      34    1      4   0.09681963    12.293600    -8.195400     7.336800
      35    1      2  -0.19438996    14.341100    -7.398900     7.208200
      36    1      2  -0.19438996    13.876800    -5.972900     6.857600
      37    1      4   0.09681963    14.573300    -7.972500     6.251100
      38    1      4   0.09681963    15.278700    -7.345400     7.855400
      39    1      4   0.09681963    14.702700    -5.436800     6.282500
      40    1      4   0.09681963    13.654600    -5.402700     7.819000
      41    1      2  -0.19438996    12.602800    -6.027200     5.993100
      42    1      2  -0.19438996    12.162600    -4.588300     5.661100
      43    1      4   0.09681963    12.816900    -6.595300     5.028600
      44    1      4   0.09681963    11.775700    -6.557600     6.571800
      45    1      4   0.09681963    12.993000    -4.063700     5.083800
      46    1      4   0.09681963    11.968200    -4.026800     6.634600
      47    1      2  -0.19438996    10.872500    -4.587000     4.817100
      48    1      2  -0.19438996    10.465400    -3.126800     4.537000
      49    1      4   0.09681963    11.049300    -5.135500     3.833300
      50    1      4   0.09681963    10.042000    -5.106500     5.400100
      51    1      4   0.09681963    11.290400    -2.608800     3.946600
      52    1      4   0.09681963    10.324800    -2.591600     5.534500
      53    1      2  -0.19438996     9.141000    -3.052800     3.750500
      54    1      2  -0.19438996     8.767600    -1.568500     3.566100
      55    1      4   0.09681963     9.251100    -3.561300     2.736700
      56    1      4   0.09681963     8.323500    -3.572800     4.352200
      57    1      4   0.09681963     9.571400    -1.044800     2.950500
      58    1      4   0.09681963     8.713500    -1.085500     4.597300
      59    1      2  -0.19438996     7.394700    -1.396000     2.884500
      60    1      2  -0.19438996     7.075800     0.112200     2.847000
      61    1      4   0.09681963     7.406100    -1.832300     1.831900
      62    1      4   0.09681963     6.604200    -1.927200     3.511700
      63    1      4   0.09681963     7.144100     0.505900     3.915100
      64    1      4   0.09681963     7.843500     0.655300     2.202800
      65    1      2  -0.19438996     6.409500     2.286700     0.148900
      66    1      2  -0.19438996     7.590500     2.961600    -0.575100
      67    1      4   0.09681963     5.413800     2.645300    -0.275100
      68    1      4   0.09681963     6.492400     1.155100     0.035700
      69    1      4   0.09681963     7.511200     4.092000    -0.458500
      70    1      4   0.09681963     8.565000     2.601700    -0.102900
      71    1      2  -0.19438996     3.327900     2.265700     0.883900
      72    1      2  -0.19438996     1.896400     2.766000     1.184700
      73    1      4   0.09681963     3.845100     2.898300     0.090300
      74    1      4   0.09681963     3.305600     1.169200     0.567400
      75    1      4   0.09681963     1.966200     3.836300     1.569100
      76    1      4   0.09681963     1.511900     2.107700     2.032400
      77    1      2  -0.19438996     0.810900     2.728500     0.085400
      78    1      2  -0.19438996    -0.474600     3.089700     0.862600
      79    1      4   0.09681963     0.718100     1.668700    -0.325200
      80    1      4   0.09681963     1.029600     3.462400    -0.758900
      81    1      4   0.09681963    -0.362900     4.131700     1.312300
      82    1      4   0.09681963    -0.513800     2.337900     1.718100
      83    1      2  -0.19438996    -1.853400     2.992000     0.169800
      84    1      2  -0.19438996    -2.259900     4.088800    -0.838500
      85    1      4   0.09681963    -2.618300     3.073700     1.010800
      86    1      4   0.09681963    -1.962800     1.964200    -0.311800
      87    1      4   0.09681963    -1.626300     4.053800    -1.785300
      88    1      4   0.09681963    -2.162800     5.110500    -0.341500
      89    1      2  -0.19438996    -3.350100     7.197800    -1.289200
      90    1      2  -0.19438996    -3.792900     8.276400    -0.279200
      91    1      4   0.09681963    -2.404800     6.684600    -0.910000
      92    1      4   0.09681963    -3.187800     7.616300    -2.337000
      93    1      4   0.09681963    -3.840100     7.727600     0.718400
      94    1      4   0.09681963    -4.840100     8.652300    -0.529100
      95    1      2  -0.19438996    -2.884200     9.504600    -0.073800
      96    1      2  -0.19438996    -3.160700    10.693900    -1.019700
      97    1      4   0.09681963    -3.158200     9.911200     0.956100
      98    1      4   0.09681963    -1.786000     9.201600    -0.059100
      99    1      4   0.09681963    -2.549700    11.569300    -0.617900
     100    1      4   0.09681963    -4.264700    10.958500    -0.924900
     101    1      2  -0.19438996    -2.828100    10.602400    -2.521000
     102    1      2  -0.19438996    -3.185200    12.016500    -3.027600
     103    1      4   0.09681963    -3.444000     9.799900    -3.046400
     104    1      4   0.09681963    -1.714000    10.403300    -2.659200
     105    1      4   0.09681963    -2.612600    12.759900    -2.380000
     106    1      4   0.09681963    -4.302100    12.187800    -2.877600
     107    1      2  -0.19438996    -2.822400    12.329900    -4.492100
     108    1      2  -0.19438996    -3.191300    13.813300    -4.704100
     109    1      4   0.09681963    -3.398200    11.659600    -5.212700
     110    1      4   0.09681963    -1.700700    12.190800    -4.641900
     111    1      4   0.09681963    -2.644500    14.430700    -3.916300
     112    1      4   0.09681963    -4.314300    13.944300    -4.564700
     113    1      2  -0.19438996    -2.780700    14.345700    -6.090400
     114    1      2  -0.19438996    -3.144500    15.842800    -6.149500
     115    1      4   0.09681963    -3.326900    13.774800    -6.912000
     116    1      4   0.09681963    -1.654600    14.225300    -6.222700
     117    1      4   0.09681963    -2.612800    16.388000    -5.300900
     118    1      4   0.09681963    -4.270800    15.964500    -6.027600
     119    1      2  -0.19438996    -6.546200     3.262700    -2.645100
     120    1      2  -0.19438996    -6.357500     2.015400    -1.760500
     121    1      4   0.09681963    -6.131400     3.092400    -3.693900
     122    1      4   0.09681963    -7.674100     3.407500    -2.720500
     123    1      4   0.09681963    -5.273000     1.668400    -1.730500
     124    1      4   0.09681963    -6.718400     2.258200    -0.705500
     125    1      2  -0.19438996    -7.315900     0.966500    -2.361300
     126    1      2  -0.19438996    -7.469400    -0.317400    -1.522300
     127    1      4   0.09681963    -6.988500     0.700100    -3.419700
     128    1      4   0.09681963    -8.345500     1.454500    -2.407900
     129    1      4   0.09681963    -6.498400    -0.915300    -1.513200
     130    1      4   0.09681963    -7.765500    -0.042900    -0.456700
     131    1      2  -0.19438996    -8.618700    -1.118000    -2.168300
     132    1      2  -0.19438996    -8.955500    -2.416500    -1.409900
     133    1      4   0.09681963    -8.342200    -1.374300    -3.244600
     134    1      4   0.09681963    -9.548000    -0.458200    -2.171300
     135    1      4   0.09681963    -8.062800    -3.124700    -1.435800
     136    1      4   0.09681963    -9.223300    -2.174900    -0.328400
     137    1      2  -0.19438996   -10.171000    -3.059700    -2.107300
     138    1      2  -0.19438996   -10.583200    -4.383000    -1.434600
     139    1      4   0.09681963    -9.909100    -3.266700    -3.197400
     140    1      4   0.09681963   -11.047700    -2.332200    -2.065100
     141    1      4   0.09681963    -9.719800    -5.125100    -1.498200
     142    1      4   0.09681963   -10.849000    -4.198400    -0.342000
     143    1      2  -0.19438996   -11.809500    -4.948700    -2.178200
     144    1      2  -0.19438996   -12.233300    -6.303000    -1.577800
     145    1      4   0.09681963   -11.543200    -5.099300    -3.275900
     146    1      4   0.09681963   -12.674100    -4.209100    -2.097600
     147    1      4   0.09681963   -11.369900    -7.040900    -1.670700
     148    1      4   0.09681963   -12.506600    -6.171700    -0.478400
     149    1      2  -0.19438996   -13.451800    -6.840000    -2.353900
     150    1      2  -0.19438996   -13.861700    -8.218200    -1.801400
     151    1      4   0.09681963   -13.177400    -6.947200    -3.456000
     152    1      4   0.09681963   -14.321100    -6.111100    -2.249200
     153    1      4   0.09681963   -12.989300    -8.943400    -1.913800
     154    1      4   0.09681963   -14.138700    -8.124400    -0.699500
     155    1      3  -0.12813658     5.464800     1.939700     2.494100
     156    1      2  -0.19438996     5.655100     0.419600     2.331200
     157    1      2  -0.19438996     6.524100     2.656600     1.637700
     158    1      2  -0.19438996     4.014100     2.416400     2.258200
     159    1      4   0.09681963     5.690000     2.186700     3.584100
     160    1      4   0.09681963     4.896900    -0.125700     2.981600
     161    1      4   0.09681963     5.531400     0.105000     1.239800
     162    1      4   0.09681963     6.433000     3.785100     1.769000
     163    1      4   0.09681963     7.551100     2.318300     2.000300
     164    1      4   0.09681963     3.368100     1.849800     3.006500
     165    1      4   0.09681963     3.976400     3.524800     2.524400
     166    1      3  -0.12813658    -4.498100     4.872200    -1.975300
     167    1      2  -0.19438996    -3.753200     3.814600    -1.130800
     168    1      2  -0.19438996    -4.559400     6.245100    -1.275900
     169    1      2  -0.19438996    -6.010500     4.572900    -2.035300
     170    1      4   0.09681963    -4.077100     4.952200    -3.031800
     171    1      4   0.09681963    -4.286800     3.767600    -0.124200
     172    1      4   0.09681963    -3.849000     2.798500    -1.638700
     173    1      4   0.09681963    -5.404600     6.833900    -1.763600
     174    1      4   0.09681963    -4.850800     6.041200    -0.192400
     175    1      4   0.09681963    -6.456100     5.419600    -2.654500
     176    1      4   0.09681963    -6.431200     4.648500    -0.978300

Bonds

       1      1        1        2
       2      2        1        3
       3      2        1        4
       4      2        1        5
       5      5        2        6
       6      5        2        7
       7      3        2       29
       8      1        8        9
       9      2        8       10
      10      2        8       11
      11      2        8       12
      12      5        9       13
      13      5        9       14
      14      3        9       66
      15      1       15       16
      16      2       15       17
      17      2       15       18
      18      2       15       19
      19      5       16       20
      20      5       16       21
      21      3       16      114
      22      1       22       23
      23      2       22       24
      24      2       22       25
      25      2       22       26
      26      5       23       27
      27      5       23       28
      28      3       23      150
      29      3       29       30
      30      5       29       31
      31      5       29       32
      32      5       30       33
      33      5       30       34
      34      3       30       35
      35      3       35       36
      36      5       35       37
      37      5       35       38
      38      5       36       39
      39      5       36       40
      40      3       36       41
      41      3       41       42
      42      5       41       43
      43      5       41       44
      44      5       42       45
      45      5       42       46
      46      3       42       47
      47      3       47       48
      48      5       47       49
      49      5       47       50
      50      5       48       51
      51      5       48       52
      52      3       48       53
      53      3       53       54
      54      5       53       55
      55      5       53       56
      56      5       54       57
      57      5       54       58
      58      3       54       59
      59      3       59       60
      60      5       59       61
      61      5       59       62
      62      5       60       63
      63      5       60       64
      64      3       60      156
      65      3       65       66
      66      5       65       67
      67      5       65       68
      68      3       65      157
      69      5       66       69
      70      5       66       70
      71      3       71       72
      72      5       71       73
      73      5       71       74
      74      3       71      158
      75      5       72       75
      76      5       72       76
      77      3       72       77
      78      3       77       78
      79      5       77       79
      80      5       77       80
      81      5       78       81
      82      5       78       82
      83      3       78       83
      84      3       83       84
      85      5       83       85
      86      5       83       86
      87      5       84       87
      88      5       84       88
      89      3       84      167
      90      3       89       90
      91      5       89       91
      92      5       89       92
      93      3       89      168
      94      5       90       93
      95      5       90       94
      96      3       90       95
      97      3       95       96
      98      5       95       97
      99      5       95       98
     100      5       96       99
     101      5       96      100
     102      3       96      101
     103      3      101      102
     104      5      101      103
     105      5      101      104
     106      5      102      105
     107      5      102      106
     108      3      102      107
     109      3      107      108
     110      5      107      109
     111      5      107      110
     112      5      108      111
     113      5      108      112
     114      3      108      113
     115      3      113      114
     116      5      113      115
     117      5      113      116
     118      5      114      117
     119      5      114      118
     120      3      119      120
     121      5      119      121
     122      5      119      122
     123      3      119      169
     124      5      120      123
     125      5      120      124
     126      3      120      125
     127      3      125      126
     128      5      125      127
     129      5      125      128
     130      5      126      129
     131      5      126      130
     132      3      126      131
     133      3      131      132
     134      5      131      133
     135      5      131      134
     136      5      132      135
     137      5      132      136
     138      3      132      137
     139      3      137      138
     140      5      137      139
     141      5      137      140
     142      5      138      141
     143      5      138      142
     144      3      138      143
     145      3      143      144
     146      5      143      145
     147      5      143      146
     148      5      144      147
     149      5      144      148
     150      3      144      149
     151      3      149      150
     152      5      149      151
     153      5      149      152
     154      5      150      153
     155      5      150      154
     156      4      155      156
     157      4      155      157
     158      4      155      158
     159      6      155      159
     160      5      156      160
     161      5      156      161
     162      5      157      162
     163      5      157      163
     164      5      158      164
     165      5      158      165
     166      4      166      167
     167      4      166      168
     168      4      166      169
     169      6      166      170
     170      5      167      171
     171      5      167      172
     172      5      168      173
     173      5      168      174
     174      5      169      175
     175      5      169      176

Angles

       1      2        1        2        6
       2      2        1        2        7
       3      1        1        2       29
       4      3        2        1        3
       5      3        2        1        4
       6      3        2        1        5
       7      4        2       29       30
       8      6        2       29       31
       9      6        2       29       32
      10     10        3        1        4
      11     10        3        1        5
      12     10        4        1        5
      13     11        6        2        7
      14      6        6        2       29
      15      6        7        2       29
      16      2        8        9       13
      17      2        8        9       14
      18      1        8        9       66
      19      3        9        8       10
      20      3        9        8       11
      21      3        9        8       12
      22      4        9       66       65
      23      6        9       66       69
      24      6        9       66       70
      25     10       10        8       11
      26     10       10        8       12
      27     10       11        8       12
      28     11       13        9       14
      29      6       13        9       66
      30      6       14        9       66
      31      2       15       16       20
      32      2       15       16       21
      33      1       15       16      114
      34      3       16       15       17
      35      3       16       15       18
      36      3       16       15       19
      37      4       16      114      113
      38      6       16      114      117
      39      6       16      114      118
      40     10       17       15       18
      41     10       17       15       19
      42     10       18       15       19
      43     11       20       16       21
      44      6       20       16      114
      45      6       21       16      114
      46      2       22       23       27
      47      2       22       23       28
      48      1       22       23      150
      49      3       23       22       24
      50      3       23       22       25
      51      3       23       22       26
      52      4       23      150      149
      53      6       23      150      153
      54      6       23      150      154
      55     10       24       22       25
      56     10       24       22       26
      57     10       25       22       26
      58     11       27       23       28
      59      6       27       23      150
      60      6       28       23      150
      61      6       29       30       33
      62      6       29       30       34
      63      4       29       30       35
      64      6       30       29       31
      65      6       30       29       32
      66      4       30       35       36
      67      6       30       35       37
      68      6       30       35       38
      69     11       31       29       32
      70     11       33       30       34
      71      6       33       30       35
      72      6       34       30       35
      73      6       35       36       39
      74      6       35       36       40
      75      4       35       36       41
      76      6       36       35       37
      77      6       36       35       38
      78      4       36       41       42
      79      6       36       41       43
      80      6       36       41       44
      81     11       37       35       38
      82     11       39       36       40
      83      6       39       36       41
      84      6       40       36       41
      85      6       41       42       45
      86      6       41       42       46
      87      4       41       42       47
      88      6       42       41       43
      89      6       42       41       44
      90      4       42       47       48
      91      6       42       47       49
      92      6       42       47       50
      93     11       43       41       44
      94     11       45       42       46
      95      6       45       42       47
      96      6       46       42       47
      97      6       47       48       51
      98      6       47       48       52
      99      4       47       48       53
     100      6       48       47       49
     101      6       48       47       50
     102      4       48       53       54
     103      6       48       53       55
     104      6       48       53       56
     105     11       49       47       50
     106     11       51       48       52
     107      6       51       48       53
     108      6       52       48       53
     109      6       53       54       57
     110      6       53       54       58
     111      4       53       54       59
     112      6       54       53       55
     113      6       54       53       56
     114      4       54       59       60
     115      6       54       59       61
     116      6       54       59       62
     117     11       55       53       56
     118     11       57       54       58
     119      6       57       54       59
     120      6       58       54       59
     121      6       59       60       63
     122      6       59       60       64
     123      4       59       60      156
     124      6       60       59       61
     125      6       60       59       62
     126      5       60      156      155
     127      6       60      156      160
     128      6       60      156      161
     129     11       61       59       62
     130     11       63       60       64
     131      6       63       60      156
     132      6       64       60      156
     133      6       65       66       69
     134      6       65       66       70
     135      5       65      157      155
     136      6       65      157      162
     137      6       65      157      163
     138      6       66       65       67
     139      6       66       65       68
     140      4       66       65      157
     141     11       67       65       68
     142      6       67       65      157
     143      6       68       65      157
     144     11       69       66       70
     145      6       71       72       75
     146      6       71       72       76
     147      4       71       72       77
     148      5       71      158      155
     149      6       71      158      164
     150      6       71      158      165
     151      6       72       71       73
     152      6       72       71       74
     153      4       72       71      158
     154      4       72       77       78
     155      6       72       77       79
     156      6       72       77       80
     157     11       73       71       74
     158      6       73       71      158
     159      6       74       71      158
     160     11       75       72       76
     161      6       75       72       77
     162      6       76       72       77
     163      6       77       78       81
     164      6       77       78       82
     165      4       77       78       83
     166      6       78       77       79
     167      6       78       77       80
     168      4       78       83       84
     169      6       78       83       85
     170      6       78       83       86
     171     11       79       77       80
     172     11       81       78       82
     173      6       81       78       83
     174      6       82       78       83
     175      6       83       84       87
     176      6       83       84       88
     177      4       83       84      167
     178      6       84       83       85
     179      6       84       83       86
     180      5       84      167      166
     181      6       84      167      171
     182      6       84      167      172
     183     11       85       83       86
     184     11       87       84       88
     185      6       87       84      167
     186      6       88       84      167
     187      6       89       90       93
     188      6       89       90       94
     189      4       89       90       95
     190      5       89      168      166
     191      6       89      168      173
     192      6       89      168      174
     193      6       90       89       91
     194      6       90       89       92
     195      4       90       89      168
     196      4       90       95       96
     197      6       90       95       97
     198      6       90       95       98
     199     11       91       89       92
     200      6       91       89      168
     201      6       92       89      168
     202     11       93       90       94
     203      6       93       90       95
     204      6       94       90       95
     205      6       95       96       99
     206      6       95       96      100
     207      4       95       96      101
     208      6       96       95       97
     209      6       96       95       98
     210      4       96      101      102
     211      6       96      101      103
     212      6       96      101      104
     213     11       97       95       98
     214     11       99       96      100
     215      6       99       96      101
     216      6      100       96      101
     217      6      101      102      105
     218      6      101      102      106
     219      4      101      102      107
     220      6      102      101      103
     221      6      102      101      104
     222      4      102      107      108
     223      6      102      107      109
     224      6      102      107      110
     225     11      103      101      104
     226     11      105      102      106
     227      6      105      102      107
     228      6      106      102      107
     229      6      107      108      111
     230      6      107      108      112
     231      4      107      108      113
     232      6      108      107      109
     233      6      108      107      110
     234      4      108      113      114
     235      6      108      113      115
     236      6      108      113      116
     237     11      109      107      110
     238     11      111      108      112
     239      6      111      108      113
     240      6      112      108      113
     241      6      113      114      117
     242      6      113      114      118
     243      6      114      113      115
     244      6      114      113      116
     245     11      115      113      116
     246     11      117      114      118
     247      6      119      120      123
     248      6      119      120      124
     249      4      119      120      125
     250      5      119      169      166
     251      6      119      169      175
     252      6      119      169      176
     253      6      120      119      121
     254      6      120      119      122
     255      4      120      119      169
     256      4      120      125      126
     257      6      120      125      127
     258      6      120      125      128
     259     11      121      119      122
     260      6      121      119      169
     261      6      122      119      169
     262     11      123      120      124
     263      6      123      120      125
     264      6      124      120      125
     265      6      125      126      129
     266      6      125      126      130
     267      4      125      126      131
     268      6      126      125      127
     269      6      126      125      128
     270      4      126      131      132
     271      6      126      131      133
     272      6      126      131      134
     273     11      127      125      128
     274     11      129      126      130
     275      6      129      126      131
     276      6      130      126      131
     277      6      131      132      135
     278      6      131      132      136
     279      4      131      132      137
     280      6      132      131      133
     281      6      132      131      134
     282      4      132      137      138
     283      6      132      137      139
     284      6      132      137      140
     285     11      133      131      134
     286     11      135      132      136
     287      6      135      132      137
     288      6      136      132      137
     289      6      137      138      141
     290      6      137      138      142
     291      4      137      138      143
     292      6      138      137      139
     293      6      138      137      140
     294      4      138      143      144
     295      6      138      143      145
     296      6      138      143      146
     297     11      139      137      140
     298     11      141      138      142
     299      6      141      138      143
     300      6      142      138      143
     301      6      143      144      147
     302      6      143      144      148
     303      4      143      144      149
     304      6      144      143      145
     305      6      144      143      146
     306      4      144      149      150
     307      6      144      149      151
     308      6      144      149      152
     309     11      145      143      146
     310     11      147      144      148
     311      6      147      144      149
     312      6      148      144      149
     313      6      149      150      153
     314      6      149      150      154
     315      6      150      149      151
     316      6      150      149      152
     317     11      151      149      152
     318     11      153      150      154
     319      9      155      156      160
     320      9      155      156      161
     321      9      155      157      162
     322      9      155      157      163
     323      9      155      158      164
     324      9      155      158      165
     325      7      156      155      157
     326      7      156      155      158
     327      8      156      155      159
     328      7      157      155      158
     329      8      157      155      159
     330      8      158      155      159
     331     11      160      156      161
     332     11      162      157      163
     333     11      164      158      165
     334      9      166      167      171
     335      9      166      167      172
     336      9      166      168      173
     337      9      166      168      174
     338      9      166      169      175
     339      9      166      169      176
     340      7      167      166      168
     341      7      167      166      169
     342      8      167      166      170
     343      7      168      166      169
     344      8      168      166      170
     345      8      169      166      170
     346     11      171      167      172
     347     11      173      168      174
     348     11      175      169      176

Dihedrals

       1      1        1        2       29       30
       2      2        1        2       29       31
       3      2        1        2       29       32
       4      6        2       29       30       33
       5      6        2       29       30       34
       6      4        2       29       30       35
       7     11        3        1        2        6
       8     11        3        1        2        7
       9      3        3        1        2       29
      10     11        4        1        2        6
      11     11        4        1        2        7
      12      3        4        1        2       29
      13     11        5        1        2        6
      14     11        5        1        2        7
      15      3        5        1        2       29
      16      6        6        2       29       30
      17     12        6        2       29       31
      18     12        6        2       29       32
      19      6        7        2       29       30
      20     12        7        2       29       31
      21     12        7        2       29       32
      22      1        8        9       66       65
      23      2        8        9       66       69
      24      2        8        9       66       70
      25      6        9       66       65       67
      26      6        9       66       65       68
      27      4        9       66       65      157
      28     11       10        8        9       13
      29     11       10        8        9       14
      30      3       10        8        9       66
      31     11       11        8        9       13
      32     11       11        8        9       14
      33      3       11        8        9       66
      34     11       12        8        9       13
      35     11       12        8        9       14
      36      3       12        8        9       66
      37      6       13        9       66       65
      38     12       13        9       66       69
      39     12       13        9       66       70
      40      6       14        9       66       65
      41     12       14        9       66       69
      42     12       14        9       66       70
      43      1       15       16      114      113
      44      2       15       16      114      117
      45      2       15       16      114      118
      46      4       16      114      113      108
      47      6       16      114      113      115
      48      6       16      114      113      116
      49     11       17       15       16       20
      50     11       17       15       16       21
      51      3       17       15       16      114
      52     11       18       15       16       20
      53     11       18       15       16       21
      54      3       18       15       16      114
      55     11       19       15       16       20
      56     11       19       15       16       21
      57      3       19       15       16      114
      58      6       20       16      114      113
      59     12       20       16      114      117
      60     12       20       16      114      118
      61      6       21       16      114      113
      62     12       21       16      114      117
      63     12       21       16      114      118
      64      1       22       23      150      149
      65      2       22       23      150      153
      66      2       22       23      150      154
      67      4       23      150      149      144
      68      6       23      150      149      151
      69      6       23      150      149      152
      70     11       24       22       23       27
      71     11       24       22       23       28
      72      3       24       22       23      150
      73     11       25       22       23       27
      74     11       25       22       23       28
      75      3       25       22       23      150
      76     11       26       22       23       27
      77     11       26       22       23       28
      78      3       26       22       23      150
      79      6       27       23      150      149
      80     12       27       23      150      153
      81     12       27       23      150      154
      82      6       28       23      150      149
      83     12       28       23      150      153
      84     12       28       23      150      154
      85      4       29       30       35       36
      86      6       29       30       35       37
      87      6       29       30       35       38
      88      6       30       35       36       39
      89      6       30       35       36       40
      90      4       30       35       36       41
      91     12       31       29       30       33
      92     12       31       29       30       34
      93      6       31       29       30       35
      94     12       32       29       30       33
      95     12       32       29       30       34
      96      6       32       29       30       35
      97      6       33       30       35       36
      98     12       33       30       35       37
      99     12       33       30       35       38
     100      6       34       30       35       36
     101     12       34       30       35       37
     102     12       34       30       35       38
     103      4       35       36       41       42
     104      6       35       36       41       43
     105      6       35       36       41       44
     106      6       36       41       42       45
     107      6       36       41       42       46
     108      4       36       41       42       47
     109     12       37       35       36       39
     110     12       37       35       36       40
     111      6       37       35       36       41
     112     12       38       35       36       39
     113     12       38       35       36       40
     114      6       38       35       36       41
     115      6       39       36       41       42
     116     12       39       36       41       43
     117     12       39       36       41       44
     118      6       40       36       41       42
     119     12       40       36       41       43
     120     12       40       36       41       44
     121      4       41       42       47       48
     122      6       41       42       47       49
     123      6       41       42       47       50
     124      6       42       47       48       51
     125      6       42       47       48       52
     126      4       42       47       48       53
     127     12       43       41       42       45
     128     12       43       41       42       46
     129      6       43       41       42       47
     130     12       44       41       42       45
     131     12       44       41       42       46
     132      6       44       41       42       47
     133      6       45       42       47       48
     134     12       45       42       47       49
     135     12       45       42       47       50
     136      6       46       42       47       48
     137     12       46       42       47       49
     138     12       46       42       47       50
     139      4       47       48       53       54
     140      6       47       48       53       55
     141      6       47       48       53       56
     142      6       48       53       54       57
     143      6       48       53       54       58
     144      4       48       53       54       59
     145     12       49       47       48       51
     146     12       49       47       48       52
     147      6       49       47       48       53
     148     12       50       47       48       51
     149     12       50       47       48       52
     150      6       50       47       48       53
     151      6       51       48       53       54
     152     12       51       48       53       55
     153     12       51       48       53       56
     154      6       52       48       53       54
     155     12       52       48       53       55
     156     12       52       48       53       56
     157      4       53       54       59       60
     158      6       53       54       59       61
     159      6       53       54       59       62
     160      6       54       59       60       63
     161      6       54       59       60       64
     162      4       54       59       60      156
     163     12       55       53       54       57
     164     12       55       53       54       58
     165      6       55       53       54       59
     166     12       56       53       54       57
     167     12       56       53       54       58
     168      6       56       53       54       59
     169      6       57       54       59       60
     170     12       57       54       59       61
     171     12       57       54       59       62
     172      6       58       54       59       60
     173     12       58       54       59       61
     174     12       58       54       59       62
     175      5       59       60      156      155
     176      6       59       60      156      160
     177      6       59       60      156      161
     178      7       60      156      155      157
     179      7       60      156      155      158
     180      8       60      156      155      159
     181     12       61       59       60       63
     182     12       61       59       60       64
     183      6       61       59       60      156
     184     12       62       59       60       63
     185     12       62       59       60       64
     186      6       62       59       60      156
     187     10       63       60      156      155
     188     12       63       60      156      160
     189     12       63       60      156      161
     190     10       64       60      156      155
     191     12       64       60      156      160
     192     12       64       60      156      161
     193      7       65      157      155      156
     194      7       65      157      155      158
     195      8       65      157      155      159
     196      5       66       65      157      155
     197      6       66       65      157      162
     198      6       66       65      157      163
     199     12       67       65       66       69
     200     12       67       65       66       70
     201     10       67       65      157      155
     202     12       67       65      157      162
     203     12       67       65      157      163
     204     12       68       65       66       69
     205     12       68       65       66       70
     206     10       68       65      157      155
     207     12       68       65      157      162
     208     12       68       65      157      163
     209      6       69       66       65      157
     210      6       70       66       65      157
     211      4       71       72       77       78
     212      6       71       72       77       79
     213      6       71       72       77       80
     214      7       71      158      155      156
     215      7       71      158      155      157
     216      8       71      158      155      159
     217      5       72       71      158      155
     218      6       72       71      158      164
     219      6       72       71      158      165
     220      6       72       77       78       81
     221      6       72       77       78       82
     222      4       72       77       78       83
     223     12       73       71       72       75
     224     12       73       71       72       76
     225      6       73       71       72       77
     226     10       73       71      158      155
     227     12       73       71      158      164
     228     12       73       71      158      165
     229     12       74       71       72       75
     230     12       74       71       72       76
     231      6       74       71       72       77
     232     10       74       71      158      155
     233     12       74       71      158      164
     234     12       74       71      158      165
     235      6       75       72       71      158
     236      6       75       72       77       78
     237     12       75       72       77       79
     238     12       75       72       77       80
     239      6       76       72       71      158
     240      6       76       72       77       78
     241     12       76       72       77       79
     242     12       76       72       77       80
     243      4       77       72       71      158
     244      4       77       78       83       84
     245      6       77       78       83       85
     246      6       77       78       83       86
     247      6       78       83       84       87
     248      6       78       83       84       88
     249      4       78       83       84      167
     250     12       79       77       78       81
     251     12       79       77       78       82
     252      6       79       77       78       83
     253     12       80       77       78       81
     254     12       80       77       78       82
     255      6       80       77       78       83
     256      6       81       78       83       84
     257     12       81       78       83       85
     258     12       81       78       83       86
     259      6       82       78       83       84
     260     12       82       78       83       85
     261     12       82       78       83       86
     262      5       83       84      167      166
     263      6       83       84      167      171
     264      6       83       84      167      172
     265      7       84      167      166      168
     266      7       84      167      166      169
     267      8       84      167      166      170
     268     12       85       83       84       87
     269     12       85       83       84       88
     270      6       85       83       84      167
     271     12       86       83       84       87
     272     12       86       83       84       88
     273      6       86       83       84      167
     274     10       87       84      167      166
     275     12       87       84      167      171
     276     12       87       84      167      172
     277     10       88       84      167      166
     278     12       88       84      167      171
     279     12       88       84      167      172
     280      4       89       90       95       96
     281      6       89       90       95       97
     282      6       89       90       95       98
     283      7       89      168      166      167
     284      7       89      168      166      169
     285      8       89      168      166      170
     286      5       90       89      168      166
     287      6       90       89      168      173
     288      6       90       89      168      174
     289      6       90       95       96       99
     290      6       90       95       96      100
     291      4       90       95       96      101
     292     12       91       89       90       93
     293     12       91       89       90       94
     294      6       91       89       90       95
     295     10       91       89      168      166
     296     12       91       89      168      173
     297     12       91       89      168      174
     298     12       92       89       90       93
     299     12       92       89       90       94
     300      6       92       89       90       95
     301     10       92       89      168      166
     302     12       92       89      168      173
     303     12       92       89      168      174
     304      6       93       90       89      168
     305      6       93       90       95       96
     306     12       93       90       95       97
     307     12       93       90       95       98
     308      6       94       90       89      168
     309      6       94       90       95       96
     310     12       94       90       95       97
     311     12       94       90       95       98
     312      4       95       90       89      168
     313      4       95       96      101      102
     314      6       95       96      101      103
     315      6       95       96      101      104
     316      6       96      101      102      105
     317      6       96      101      102      106
     318      4       96      101      102      107
     319     12       97       95       96       99
     320     12       97       95       96      100
     321      6       97       95       96      101
     322     12       98       95       96       99
     323     12       98       95       96      100
     324      6       98       95       96      101
     325      6       99       96      101      102
     326     12       99       96      101      103
     327     12       99       96      101      104
     328      6      100       96      101      102
     329     12      100       96      101      103
     330     12      100       96      101      104
     331      4      101      102      107      108
     332      6      101      102      107      109
     333      6      101      102      107      110
     334      6      102      107      108      111
     335      6      102      107      108      112
     336      4      102      107      108      113
     337     12      103      101      102      105
     338     12      103      101      102      106
     339      6      103      101      102      107
     340     12      104      101      102      105
     341     12      104      101      102      106
     342      6      104      101      102      107
     343      6      105      102      107      108
     344     12      105      102      107      109
     345     12      105      102      107      110
     346      6      106      102      107      108
     347     12      106      102      107      109
     348     12      106      102      107      110
     349      4      107      108      113      114
     350      6      107      108      113      115
     351      6      107      108      113      116
     352      6      108      113      114      117
     353      6      108      113      114      118
     354     12      109      107      108      111
     355     12      109      107      108      112
     356      6      109      107      108      113
     357     12      110      107      108      111
     358     12      110      107      108      112
     359      6      110      107      108      113
     360      6      111      108      113      114
     361     12      111      108      113      115
     362     12      111      108      113      116
     363      6      112      108      113      114
     364     12      112      108      113      115
     365     12      112      108      113      116
     366     12      115      113      114      117
     367     12      115      113      114      118
     368     12      116      113      114      117
     369     12      116      113      114      118
     370      4      119      120      125      126
     371      6      119      120      125      127
     372      6      119      120      125      128
     373      7      119      169      166      167
     374      7      119      169      166      168
     375      8      119      169      166      170
     376      5      120      119      169      166
     377      6      120      119      169      175
     378      6      120      119      169      176
     379      6      120      125      126      129
     380      6      120      125      126      130
     381      4      120      125      126      131
     382     12      121      119      120      123
     383     12      121      119      120      124
     384      6      121      119      120      125
     385     10      121      119      169      166
     386     12      121      119      169      175
     387     12      121      119      169      176
     388     12      122      119      120      123
     389     12      122      119      120      124
     390      6      122      119      120      125
     391     10      122      119      169      166
     392     12      122      119      169      175
     393     12      122      119      169      176
     394      6      123      120      119      169
     395      6      123      120      125      126
     396     12      123      120      125      127
     397     12      123      120      125      128
     398      6      124      120      119      169
     399      6      124      120      125      126
     400     12      124      120      125      127
     401     12      124      120      125      128
     402      4      125      120      119      169
     403      4      125      126      131      132
     404      6      125      126      131      133
     405      6      125      126      131      134
     406      6      126      131      132      135
     407      6      126      131      132      136
     408      4      126      131      132      137
     409     12      127      125      126      129
     410     12      127      125      126      130
     411      6      127      125      126      131
     412     12      128      125      126      129
     413     12      128      125      126      130
     414      6      128      125      126      131
     415      6      129      126      131      132
     416     12      129      126      131      133
     417     12      129      126      131      134
     418      6      130      126      131      132
     419     12      130      126      131      133
     420     12      130      126      131      134
     421      4      131      132      137      138
     422      6      131      132      137      139
     423      6      131      132      137      140
     424      6      132      137      138      141
     425      6      132      137      138      142
     426      4      132      137      138      143
     427     12      133      131      132      135
     428     12      133      131      132      136
     429      6      133      131      132      137
     430     12      134      131      132      135
     431     12      134      131      132      136
     432      6      134      131      132      137
     433      6      135      132      137      138
     434     12      135      132      137      139
     435     12      135      132      137      140
     436      6      136      132      137      138
     437     12      136      132      137      139
     438     12      136      132      137      140
     439      4      137      138      143      144
     440      6      137      138      143      145
     441      6      137      138      143      146
     442      6      138      143      144      147
     443      6      138      143      144      148
     444      4      138      143      144      149
     445     12      139      137      138      141
     446     12      139      137      138      142
     447      6      139      137      138      143
     448     12      140      137      138      141
     449     12      140      137      138      142
     450      6      140      137      138      143
     451      6      141      138      143      144
     452     12      141      138      143      145
     453     12      141      138      143      146
     454      6      142      138      143      144
     455     12      142      138      143      145
     456     12      142      138      143      146
     457      4      143      144      149      150
     458      6      143      144      149      151
     459      6      143      144      149      152
     460      6      144      149      150      153
     461      6      144      149      150      154
     462     12      145      143      144      147
     463     12      145      143      144      148
     464      6      145      143      144      149
     465     12      146      143      144      147
     466     12      146      143      144      148
     467      6      146      143      144      149
     468      6      147      144      149      150
     469     12      147      144      149      151
     470     12      147      144      149      152
     471      6      148      144      149      150
     472     12      148      144      149      151
     473     12      148      144      149      152
     474     12      151      149      150      153
     475     12      151      149      150      154
     476     12      152      149      150      153
     477     12      152      149      150      154
     478      9      156      155      157      162
     479      9      156      155      157      163
     480      9      156      155      158      164
     481      9      156      155      158      165
     482      9      157      155      156      160
     483      9      157      155      156      161
     484      9      157      155      158      164
     485      9      157      155      158      165
     486      9      158      155      156      160
     487      9      158      155      156      161
     488      9      158      155      157      162
     489      9      158      155      157      163
     490     13      159      155      156      160
     491     13      159      155      156      161
     492     13      159      155      157      162
     493     13      159      155      157      163
     494     13      159      155      158      164
     495     13      159      155      158      165
     496      9      167      166      168      173
     497      9      167      166      168      174
     498      9      167      166      169      175
     499      9      167      166      169      176
     500      9      168      166      167      171
     501      9      168      166      167      172
     502      9      168      166      169      175
     503      9      168      166      169      176
     504      9      169      166      167      171
     505      9      169      166      167      172
     506      9      169      166      168      173
     507      9      169      166      168      174
     508     13      170      166      167      171
     509     13      170      166      167      172
     510     13      170      166      168      173
     511     13      170      166      168      174
     512     13      170      166      169      175
     513     13      170      166      169      176

Impropers


