LAMMPS data file generated by clean-room 1-hop pipeline

     193 atoms
     203 bonds
     360 angles
     527 dihedrals
      66 impropers

      10 atom types
      18 bond types
      43 angle types
      70 dihedral types
      11 improper types

  -28.658200    29.393000 xlo xhi
  -29.609500    30.352600 ylo yhi
  -32.685400    36.080100 zlo zhi

Masses

       1    12.011000
       2    12.011000
       3    12.011000
       4    12.011000
       5    12.011000
       6    12.011000
       7    12.011000
       8    12.011000
       9     1.008000
      10     1.008000

Pair Coeffs

       1     0.070000     3.550000
       2     0.070000     3.550000
       3     0.070000     3.550000
       4     0.066000     3.500000
       5     0.066000     3.500000
       6     0.066000     3.500000
       7     0.066000     3.500000
       8     0.066000     3.500000
       9     0.030000     2.420000
      10     0.030000     2.500000

Bond Coeffs

       1   469.000000     1.400000
       2   469.000000     1.400000
       3   317.000000     1.510000
       4   469.000000     1.400000
       5   469.000000     1.400000
       6   367.000000     1.080000
       7   385.000000     1.460000
       8   268.000000     1.529000
       9   268.000000     1.529000
      10   268.000000     1.529000
      11   340.000000     1.090000
      12   268.000000     1.529000
      13   340.000000     1.090000
      14   268.000000     1.529000
      15   268.000000     1.529000
      16   268.000000     1.529000
      17   340.000000     1.090000
      18   340.000000     1.090000

Angle Coeffs

       1    63.000000   120.000000
       2    63.000000   120.000000
       3    63.000000   120.000000
       4    35.000000   120.000000
       5    63.000000   120.000000
       6    63.000000   120.000000
       7    63.000000   114.000000
       8    63.000000   114.000000
       9    63.000000   114.000000
      10    35.000000   109.500000
      11    63.000000   120.000000
      12    63.000000   120.000000
      13    70.000000   120.000000
      14    63.000000   120.000000
      15    63.000000   120.000000
      16    35.000000   120.000000
      17    63.000000   120.000000
      18    63.000000   120.000000
      19    70.000000   120.000000
      20    63.000000   120.000000
      21    35.000000   120.000000
      22    63.000000   120.000000
      23    37.500000   110.700000
      24    58.350000   112.700000
      25    37.500000   110.700000
      26    58.350000   112.700000
      27    58.350000   112.700000
      28    37.500000   110.700000
      29    58.350000   112.700000
      30    37.500000   110.700000
      31    37.500000   110.700000
      32    58.350000   112.700000
      33    58.350000   112.700000
      34    37.500000   110.700000
      35    58.350000   112.700000
      36    37.500000   110.700000
      37    37.500000   110.700000
      38    37.500000   110.700000
      39    37.500000   110.700000
      40    37.500000   110.700000
      41    33.000000   107.800000
      42    33.000000   107.800000
      43    33.000000   107.800000

Dihedral Coeffs

       1     0.000000     7.250000     0.000000     0.000000
       2     0.000000     7.250000     0.000000     0.000000
       3     0.000000     7.250000     0.000000     0.000000
       4     0.000000     7.250000     0.000000     0.000000
       5     0.000000     7.250000     0.000000     0.000000
       6     0.000000     7.250000     0.000000     0.000000
       7     0.000000     7.250000     0.000000     0.000000
       8     0.000000     7.250000     0.000000     0.000000
       9     0.000000     7.250000     0.000000     0.000000
      10     0.000000     7.250000     0.000000     0.000000
      11     0.000000     1.650000     0.000000    -0.050000
      12     0.000000     0.000000     0.462000     0.000000
      13     0.000000     0.000000     0.000000     0.000000
      14     0.000000     0.000000     0.462000     0.000000
      15     0.000000     0.000000     0.000000     0.000000
      16     0.000000     0.000000     0.000000     0.000000
      17     0.000000     7.250000     0.000000     0.000000
      18     0.000000     7.250000     0.000000     0.000000
      19     0.000000     7.250000     0.000000     0.000000
      20     0.000000     7.250000     0.000000     0.000000
      21     0.000000     7.250000     0.000000     0.000000
      22    -0.250000     0.000000     0.000000     0.000000
      23    -0.250000     0.000000     0.000000     0.000000
      24    -0.250000     0.000000     0.000000     0.000000
      25     0.000000     0.000000     0.000000     0.000000
      26     0.000000     7.250000     0.000000     0.000000
      27     0.000000     7.250000     0.000000     0.000000
      28     0.000000     7.250000     0.000000     0.000000
      29     0.000000     7.250000     0.000000     0.000000
      30     0.000000     7.250000     0.000000     0.000000
      31     0.000000     7.250000     0.000000     0.000000
      32     0.000000     7.250000     0.000000     0.000000
      33     0.000000     7.250000     0.000000     0.000000
      34     0.000000     7.250000     0.000000     0.000000
      35     0.000000     1.650000     0.000000    -0.050000
      36     0.000000     1.650000     0.000000    -0.050000
      37     0.000000     7.250000     0.000000     0.000000
      38     0.000000     7.250000     0.000000     0.000000
      39    -0.250000     0.000000     0.000000     0.000000
      40    -0.250000     0.000000     0.000000     0.000000
      41     0.000000     0.000000     0.000000     0.000000
      42     0.000000     7.250000     0.000000     0.000000
      43     0.000000     7.250000     0.000000     0.000000
      44     0.000000     7.250000     0.000000     0.000000
      45     0.000000     7.250000     0.000000     0.000000
      46     0.000000     7.250000     0.000000     0.000000
      47     0.000000     1.650000     0.000000    -0.050000
      48     0.000000     7.250000     0.000000     0.000000
      49     0.850000    -0.200000     0.200000     0.000000
      50     0.000000     0.000000     0.300000     0.000000
      51     0.000000     0.000000     0.300000     0.000000
      52     0.850000    -0.200000     0.200000     0.000000
      53     0.000000     0.000000     0.300000     0.000000
      54     0.850000    -0.200000     0.200000     0.000000
      55     0.850000    -0.200000     0.200000     0.000000
      56     0.000000     0.000000     0.300000     0.000000
      57     0.000000     0.000000     0.300000     0.000000
      58     0.850000    -0.200000     0.200000     0.000000
      59     0.000000     0.000000     0.300000     0.000000
      60     0.000000     0.000000     0.300000     0.000000
      61     0.000000     0.000000     0.300000     0.000000
      62     0.000000     0.000000     0.300000     0.000000
      63     0.000000     0.000000     0.300000     0.000000
      64     0.000000     0.000000     0.300000     0.000000
      65     0.000000     7.250000     0.000000     0.000000
      66     0.000000     0.000000     0.300000     0.000000
      67     0.000000     0.000000     0.300000     0.000000
      68     0.000000     0.000000     0.300000     0.000000
      69     0.000000     0.000000     0.300000     0.000000
      70     0.000000     0.000000     0.300000     0.000000

Improper Coeffs

       1     2.500000   -1    2
       2     2.500000   -1    2
       3     2.500000   -1    2
       4     2.500000   -1    2
       5     2.500000   -1    2
       6     2.500000   -1    2
       7     2.500000   -1    2
       8     2.500000   -1    2
       9     2.500000   -1    2
      10     2.500000   -1    2
      11     2.500000   -1    2

Atoms

       1    1      5  -0.26136516     8.500600    -7.820200    -1.967100
       2    1      4  -0.14231637     7.498900    -7.431500    -3.070300
       3    1     10   0.10049580     9.393000    -8.355600    -2.432300
       4    1     10   0.10049580     8.857600    -6.880400    -1.429700
       5    1     10   0.10049580     7.987700    -8.511200    -1.219200
       6    1     10   0.10049580     7.135500    -8.371700    -3.602600
       7    1     10   0.10049580     8.000500    -6.735900    -3.821100
       8    1      5  -0.26136516    -7.561700    -2.046800    -3.341900
       9    1      4  -0.14231637    -7.212100    -2.283800    -1.859300
      10    1     10   0.10049580    -6.905100    -1.212500    -3.757600
      11    1     10   0.10049580    -8.658200    -1.749600    -3.436000
      12    1     10   0.10049580    -7.373500    -3.003800    -3.932300
      13    1     10   0.10049580    -7.861300    -3.120400    -1.437400
      14    1     10   0.10049580    -7.385000    -1.324300    -1.268400
      15    1      5  -0.26136516    -1.250000     1.634500    -9.882400
      16    1      4  -0.14231637    -0.232500     1.590100    -8.727100
      17    1     10   0.10049580    -2.292300     1.411000    -9.478300
      18    1     10   0.10049580    -1.240400     2.668600   -10.362300
      19    1     10   0.10049580    -0.969800     0.849600   -10.660400
      20    1     10   0.10049580     0.813600     1.801700    -9.128100
      21    1     10   0.10049580    -0.506100     2.371200    -7.943100
      22    1      5  -0.26136516     3.616400     3.157000    -7.887800
      23    1      4  -0.14231637     3.298700     1.735400    -7.389400
      24    1     10   0.10049580     4.324800     3.664400    -7.152700
      25    1     10   0.10049580     4.107800     3.101800    -8.915000
      26    1     10   0.10049580     2.650600     3.758300    -7.959400
      27    1     10   0.10049580     2.589200     1.221500    -8.119200
      28    1     10   0.10049580     4.264300     1.135200    -7.306900
      29    1      5  -0.26136516    -0.718800     7.325900    -4.757400
      30    1      6  -0.19071379    -0.461300     5.844300    -5.094900
      31    1     10   0.10049580    -0.107000     7.649700    -3.855600
      32    1     10   0.10049580    -0.435100     7.970200    -5.654200
      33    1     10   0.10049580    -1.825300     7.469200    -4.523900
      34    1     10   0.10049580    -0.737500     5.179800    -4.210700
      35    1     10   0.10049580    -1.123600     5.577600    -5.983600
      36    1      5  -0.26136516     2.102700     9.607700    -4.341100
      37    1      6  -0.19071379     2.153600     8.174100    -4.900200
      38    1     10   0.10049580     2.942900     9.750000    -3.583700
      39    1     10   0.10049580     2.229800    10.352600    -5.194700
      40    1     10   0.10049580     1.097400     9.780000    -3.832100
      41    1     10   0.10049580     1.311200     8.031600    -5.655700
      42    1     10   0.10049580     3.156600     7.998900    -5.412900
      43    1      5  -0.26136516     5.272500    -4.092500     4.292500
      44    1      4  -0.14231637     4.140500    -4.334900     3.278100
      45    1     10   0.10049580     6.263200    -3.975800     3.740600
      46    1     10   0.10049580     5.052200    -3.143700     4.884600
      47    1     10   0.10049580     5.334000    -4.979300     5.006300
      48    1     10   0.10049580     4.360400    -5.282400     2.683500
      49    1     10   0.10049580     4.061800    -3.447900     2.566400
      50    1      5  -0.26136516    -1.201200    -7.586800     8.821600
      51    1      6  -0.19071379    -1.775900    -7.064700     7.494000
      52    1     10   0.10049580    -0.344800    -6.915600     9.159500
      53    1     10   0.10049580    -2.020100    -7.585300     9.614900
      54    1     10   0.10049580    -0.819300    -8.650300     8.676300
      55    1     10   0.10049580    -2.607300    -7.773800     7.169400
      56    1     10   0.10049580    -0.985400    -7.000300     6.675000
      57    1      5  -0.26136516    -4.889500    -3.618900    14.997400
      58    1      4  -0.14231637    -4.061800    -4.779400    14.413800
      59    1     10   0.10049580    -5.843100    -3.487100    14.386900
      60    1     10   0.10049580    -5.160400    -3.852200    16.080100
      61    1     10   0.10049580    -4.277300    -2.658100    14.956300
      62    1     10   0.10049580    -3.115300    -4.918800    15.033800
      63    1     10   0.10049580    -4.678200    -5.738100    14.439100
      64    1      1  -0.08983929     6.305000    -6.716700    -2.413300
      65    1      2  -0.14982693     6.079000    -6.850200    -0.897300
      66    1      2  -0.14982693     4.913000    -6.103900    -0.226300
      67    1      3  -0.04156429     3.974700    -5.222100    -1.070500
      68    1      2  -0.14982693     4.206900    -5.075800    -2.585000
      69    1      2  -0.14982693     5.378400    -5.818600    -3.255800
      70    1      9   0.16554825     6.775000    -7.502000    -0.272400
      71    1      9   0.16554825     4.742500    -6.203500     0.896900
      72    1      9   0.16554825     3.515100    -4.417800    -3.208100
      73    1      9   0.16554825     5.558100    -5.705500    -4.375900
      74    1      3  -0.04156429    -2.678500    -2.995700    -1.947900
      75    1      2  -0.14982693    -3.576800    -3.643700    -3.016200
      76    1      2  -0.14982693    -5.101200    -3.472700    -2.944400
      77    1      1  -0.08983929    -5.727000    -2.682200    -1.784400
      78    1      2  -0.14982693    -4.839500    -2.186400    -0.623400
      79    1      2  -0.14982693    -3.308700    -2.369700    -0.690800
      80    1      9   0.16554825    -3.105800    -4.177100    -3.907000
      81    1      9   0.16554825    -5.762900    -3.889300    -3.774200
      82    1      9   0.16554825    -5.310600    -1.647300     0.263800
      83    1      9   0.16554825    -2.645100    -1.960400     0.140900
      84    1      1  -0.08983929    -2.877200    -3.793100    10.051100
      85    1      2  -0.14982693    -2.918400    -5.259900    10.533400
      86    1      2  -0.14982693    -3.321200    -5.588800    11.982300
      87    1      1  -0.08983929    -3.674700    -4.454100    12.959100
      88    1      2  -0.14982693    -3.715600    -2.998800    12.460200
      89    1      2  -0.14982693    -3.306400    -2.667600    11.011900
      90    1      9   0.16554825    -2.594300    -6.100700     9.836600
      91    1      9   0.16554825    -3.339000    -6.672200    12.336500
      92    1      9   0.16554825    -4.039700    -2.164500    13.166300
      93    1      9   0.16554825    -3.306700    -1.585000    10.655100
      94    1      3  -0.04156429     2.810200    -4.491400    -0.381700
      95    1      2  -0.14982693     1.839600    -3.615900    -1.179800
      96    1      3  -0.04156429     0.664600    -2.909000    -0.475400
      97    1      2  -0.14982693     0.456700    -3.085700     1.058800
      98    1      3  -0.04156429     1.487300    -3.927900     1.864000
      99    1      2  -0.14982693     2.630400    -4.642200     1.126800
     100    1      9   0.16554825     1.987900    -3.485100    -2.302700
     101    1      9   0.16554825    -0.415300    -2.576300     1.587900
     102    1      9   0.16554825     3.349500    -5.305200     1.710300
     103    1      3  -0.04156429    -0.175800    -1.378700    -5.937800
     104    1      2  -0.14982693    -0.100500     0.021500    -6.575000
     105    1      1  -0.08983929    -0.269000     0.186600    -8.096500
     106    1      2  -0.14982693    -0.572600    -1.040800    -8.975900
     107    1      3  -0.04156429    -0.677100    -2.436500    -8.335600
     108    1      2  -0.14982693    -0.476000    -2.604000    -6.820000
     109    1      9   0.16554825     0.053200     0.939800    -5.917200
     110    1      9   0.16554825    -0.726400    -0.914800   -10.098600
     111    1      9   0.16554825    -0.567200    -3.636800    -6.345400
     112    1      3  -0.04156429     1.224400     0.726000    -4.029700
     113    1      2  -0.14982693     1.964200     0.605100    -5.375600
     114    1      1  -0.08983929     2.632700     1.838500    -6.005200
     115    1      2  -0.14982693     2.581000     3.192400    -5.279200
     116    1      1  -0.08983929     1.882800     3.309300    -3.912500
     117    1      2  -0.14982693     1.234000     2.066600    -3.268000
     118    1      9   0.16554825     1.994100    -0.396800    -5.918900
     119    1      9   0.16554825     3.048200     4.114400    -5.759900
     120    1      9   0.16554825     0.723800     2.149500    -2.251900
     121    1      3  -0.04156429    -0.225400    -2.018700    -1.375200
     122    1      3  -0.04156429    -1.214800    -2.719300    -2.321700
     123    1      2  -0.14982693    -0.873900    -2.757500    -3.811300
     124    1      3  -0.04156429    -0.119900    -1.564400    -4.408400
     125    1      3  -0.04156429     0.476500    -0.496500    -3.456700
     126    1      2  -0.14982693     0.413100    -0.721800    -1.923400
     127    1      9   0.16554825    -1.364500    -3.526000    -4.495700
     128    1      9   0.16554825     0.960700    -0.011400    -1.219800
     129    1      3  -0.04156429     1.480300    -4.103000     3.402100
     130    1      1  -0.08983929     2.819000    -4.499700     4.051400
     131    1      2  -0.14982693     2.853400    -5.019800     5.488200
     132    1      3  -0.04156429     1.549900    -5.157700     6.279100
     133    1      1  -0.08983929     0.269800    -4.436000     5.775900
     134    1      2  -0.14982693     0.213200    -3.985500     4.286100
     135    1      9   0.16554825     3.837400    -5.372900     5.942700
     136    1      9   0.16554825    -0.751300    -3.560300     3.852000
     137    1      3  -0.04156429    -1.004900    -3.666100    -9.201000
     138    1      2  -0.14982693    -1.263500    -3.502200   -10.709300
     139    1      2  -0.14982693    -1.608400    -4.732800   -11.568700
     140    1      2  -0.14982693    -1.689800    -6.127500   -10.920100
     141    1      2  -0.14982693    -1.425600    -6.291900    -9.411900
     142    1      2  -0.14982693    -1.086000    -5.060600    -8.551800
     143    1      9   0.16554825    -1.203700    -2.469700   -11.188500
     144    1      9   0.16554825    -1.803400    -4.611300   -12.685400
     145    1      9   0.16554825    -1.945100    -7.038000   -11.556700
     146    1      9   0.16554825    -1.482900    -7.324500    -8.932300
     147    1      9   0.16554825    -0.895400    -5.180900    -7.434200
     148    1      3  -0.04156429     1.572300    -6.108900     7.483700
     149    1      2  -0.14982693     2.401800    -5.752800     8.731700
     150    1      2  -0.14982693     2.571800    -6.782700     9.864200
     151    1      2  -0.14982693     1.970700    -8.192400     9.719200
     152    1      2  -0.14982693     1.177100    -8.562000     8.454200
     153    1      2  -0.14982693     0.949100    -7.509800     7.353000
     154    1      9   0.16554825     2.892900    -4.727700     8.815700
     155    1      9   0.16554825     3.158200    -6.506900    10.802100
     156    1      9   0.16554825     2.117500    -8.963300    10.546100
     157    1      9   0.16554825     0.741800    -9.609500     8.339900
     158    1      9   0.16554825     0.346200    -7.779800     6.424000
     159    1      1  -0.08983929    -0.462100    -4.962600    10.561300
     160    1      2  -0.14982693    -0.694900    -3.720100    11.442000
     161    1      2  -0.14982693    -0.869800    -3.875100    12.963400
     162    1      2  -0.14982693    -0.772300    -5.268500    13.610500
     163    1      2  -0.14982693    -0.490300    -6.504800    12.736900
     164    1      2  -0.14982693    -0.321500    -6.349900    11.214500
     165    1      9   0.16554825    -0.748600    -2.686300    10.964700
     166    1      9   0.16554825    -1.069500    -2.958500    13.610700
     167    1      9   0.16554825    -0.900400    -5.383700    14.737400
     168    1      9   0.16554825    -0.399700    -7.534200    13.218300
     169    1      9   0.16554825    -0.079600    -7.260400    10.572900
     170    1      7  -0.12446041     2.020700     5.744200    -4.350100
     171    1      4  -0.14231637     1.748900     4.694800    -3.254400
     172    1      6  -0.19071379     1.004000     5.588200    -5.501000
     173    1      6  -0.19071379     1.978700     7.161100    -3.753900
     174    1     10   0.10049580     3.060900     5.561900    -4.779300
     175    1     10   0.10049580     0.697900     4.833300    -2.835100
     176    1     10   0.10049580     2.517900     4.801600    -2.419700
     177    1     10   0.10049580     1.084100     4.519300    -5.888000
     178    1     10   0.10049580     1.274500     6.307200    -6.343600
     179    1     10   0.10049580     0.980000     7.329500    -3.235100
     180    1     10   0.10049580     2.816200     7.280800    -2.989900
     181    1      8  -0.05098663    -1.400600    -4.540800     8.076600
     182    1      4  -0.14231637    -0.844300    -3.951500     6.750500
     183    1      6  -0.19071379    -2.392700    -5.688200     7.783400
     184    1      4  -0.14231637    -0.224700    -4.797100     9.049200
     185    1      4  -0.14231637    -2.290200    -3.425900     8.667400
     186    1     10   0.10049580    -1.757800    -3.740500     6.102000
     187    1     10   0.10049580    -0.441700    -2.937300     7.080100
     188    1     10   0.10049580    -3.098700    -5.832200     8.662600
     189    1     10   0.10049580    -3.020000    -5.358400     6.890600
     190    1     10   0.10049580     0.288000    -5.749600     8.714900
     191    1     10   0.10049580     0.493400    -3.918200     8.945300
     192    1     10   0.10049580    -1.661300    -2.482800     8.787300
     193    1     10   0.10049580    -3.143900    -3.211300     7.943100

Bonds

       1      8        1        2
       2     13        1        3
       3     13        1        4
       4     13        1        5
       5     11        2        6
       6     11        2        7
       7      3        2       64
       8      8        8        9
       9     13        8       10
      10     13        8       11
      11     13        8       12
      12     11        9       13
      13     11        9       14
      14      3        9       77
      15      8       15       16
      16     13       15       17
      17     13       15       18
      18     13       15       19
      19     11       16       20
      20     11       16       21
      21      3       16      105
      22      8       22       23
      23     13       22       24
      24     13       22       25
      25     13       22       26
      26     11       23       27
      27     11       23       28
      28      3       23      114
      29     12       29       30
      30     13       29       31
      31     13       29       32
      32     13       29       33
      33     17       30       34
      34     17       30       35
      35     14       30      172
      36     12       36       37
      37     13       36       38
      38     13       36       39
      39     13       36       40
      40     17       37       41
      41     17       37       42
      42     14       37      173
      43      8       43       44
      44     13       43       45
      45     13       43       46
      46     13       43       47
      47     11       44       48
      48     11       44       49
      49      3       44      130
      50     12       50       51
      51     13       50       52
      52     13       50       53
      53     13       50       54
      54     17       51       55
      55     17       51       56
      56     14       51      183
      57      8       57       58
      58     13       57       59
      59     13       57       60
      60     13       57       61
      61     11       58       62
      62     11       58       63
      63      3       58       87
      64      1       64       65
      65      4       65       66
      66      6       65       70
      67      5       66       67
      68      6       66       71
      69      5       67       68
      70      7       67       94
      71      4       68       69
      72      6       68       72
      73      1       69       64
      74      6       69       73
      75      5       74       75
      76      7       74      122
      77      4       75       76
      78      6       75       80
      79      1       76       77
      80      6       76       81
      81      1       77       78
      82      4       78       79
      83      6       78       82
      84      5       79       74
      85      6       79       83
      86      1       84       85
      87      3       84      185
      88      4       85       86
      89      6       85       90
      90      1       86       87
      91      6       86       91
      92      1       87       88
      93      4       88       89
      94      6       88       92
      95      1       89       84
      96      6       89       93
      97      5       94       95
      98      5       95       96
      99      6       95      100
     100      5       96       97
     101      7       96      121
     102      5       97       98
     103      6       97      101
     104      5       98       99
     105      7       98      129
     106      5       99       94
     107      6       99      102
     108      5      103      104
     109      7      103      124
     110      1      104      105
     111      6      104      109
     112      1      105      106
     113      5      106      107
     114      6      106      110
     115      5      107      108
     116      7      107      137
     117      5      108      103
     118      6      108      111
     119      5      112      113
     120      7      112      125
     121      1      113      114
     122      6      113      118
     123      1      114      115
     124      1      115      116
     125      6      115      119
     126      1      116      117
     127      3      116      171
     128      5      117      112
     129      6      117      120
     130      7      121      122
     131      5      122      123
     132      5      123      124
     133      6      123      127
     134      7      124      125
     135      5      125      126
     136      5      126      121
     137      6      126      128
     138      2      129      130
     139      1      130      131
     140      5      131      132
     141      6      131      135
     142      2      132      133
     143      7      132      148
     144      1      133      134
     145      3      133      182
     146      5      134      129
     147      6      134      136
     148      5      137      138
     149      4      138      139
     150      6      138      143
     151      4      139      140
     152      6      139      144
     153      4      140      141
     154      6      140      145
     155      4      141      142
     156      6      141      146
     157      5      142      137
     158      6      142      147
     159      5      148      149
     160      4      149      150
     161      6      149      154
     162      4      150      151
     163      6      150      155
     164      4      151      152
     165      6      151      156
     166      4      152      153
     167      6      152      157
     168      5      153      148
     169      6      153      158
     170      1      159      160
     171      3      159      184
     172      4      160      161
     173      6      160      165
     174      4      161      162
     175      6      161      166
     176      4      162      163
     177      6      162      167
     178      4      163      164
     179      6      163      168
     180      1      164      159
     181      6      164      169
     182      9      170      171
     183     15      170      172
     184     15      170      173
     185     18      170      174
     186     11      171      175
     187     11      171      176
     188     17      172      177
     189     17      172      178
     190     17      173      179
     191     17      173      180
     192     10      181      182
     193     16      181      183
     194     10      181      184
     195     10      181      185
     196     11      182      186
     197     11      182      187
     198     17      183      188
     199     17      183      189
     200     11      184      190
     201     11      184      191
     202     11      185      192
     203     11      185      193

Angles

       1     28        1        2        6
       2     28        1        2        7
       3      7        1        2       64
       4     23        2        1        3
       5     23        2        1        4
       6     23        2        1        5
       7     13        2       64       65
       8     13        2       64       69
       9     42        3        1        4
      10     42        3        1        5
      11     42        4        1        5
      12     41        6        2        7
      13     10        6        2       64
      14     10        7        2       64
      15     28        8        9       13
      16     28        8        9       14
      17      7        8        9       77
      18     23        9        8       10
      19     23        9        8       11
      20     23        9        8       12
      21     13        9       77       76
      22     13        9       77       78
      23     42       10        8       11
      24     42       10        8       12
      25     42       11        8       12
      26     41       13        9       14
      27     10       13        9       77
      28     10       14        9       77
      29     28       15       16       20
      30     28       15       16       21
      31      7       15       16      105
      32     23       16       15       17
      33     23       16       15       18
      34     23       16       15       19
      35     13       16      105      104
      36     13       16      105      106
      37     42       17       15       18
      38     42       17       15       19
      39     42       18       15       19
      40     41       20       16       21
      41     10       20       16      105
      42     10       21       16      105
      43     28       22       23       27
      44     28       22       23       28
      45      7       22       23      114
      46     23       23       22       24
      47     23       23       22       25
      48     23       23       22       26
      49     13       23      114      113
      50     13       23      114      115
      51     42       24       22       25
      52     42       24       22       26
      53     42       25       22       26
      54     41       27       23       28
      55     10       27       23      114
      56     10       28       23      114
      57     30       29       30       34
      58     30       29       30       35
      59     29       29       30      172
      60     31       30       29       31
      61     31       30       29       32
      62     31       30       29       33
      63     32       30      172      170
      64     34       30      172      177
      65     34       30      172      178
      66     42       31       29       32
      67     42       31       29       33
      68     42       32       29       33
      69     43       34       30       35
      70     34       34       30      172
      71     34       35       30      172
      72     30       36       37       41
      73     30       36       37       42
      74     29       36       37      173
      75     31       37       36       38
      76     31       37       36       39
      77     31       37       36       40
      78     32       37      173      170
      79     34       37      173      179
      80     34       37      173      180
      81     42       38       36       39
      82     42       38       36       40
      83     42       39       36       40
      84     43       41       37       42
      85     34       41       37      173
      86     34       42       37      173
      87     28       43       44       48
      88     28       43       44       49
      89      7       43       44      130
      90     23       44       43       45
      91     23       44       43       46
      92     23       44       43       47
      93     19       44      130      129
      94     13       44      130      131
      95     42       45       43       46
      96     42       45       43       47
      97     42       46       43       47
      98     41       48       44       49
      99     10       48       44      130
     100     10       49       44      130
     101     30       50       51       55
     102     30       50       51       56
     103     29       50       51      183
     104     31       51       50       52
     105     31       51       50       53
     106     31       51       50       54
     107     33       51      183      181
     108     34       51      183      188
     109     34       51      183      189
     110     42       52       50       53
     111     42       52       50       54
     112     42       53       50       54
     113     43       55       51       56
     114     34       55       51      183
     115     34       56       51      183
     116     28       57       58       62
     117     28       57       58       63
     118      7       57       58       87
     119     23       58       57       59
     120     23       58       57       60
     121     23       58       57       61
     122     13       58       87       86
     123     13       58       87       88
     124     42       59       57       60
     125     42       59       57       61
     126     42       60       57       61
     127     41       62       58       63
     128     10       62       58       87
     129     10       63       58       87
     130      2       64       65       66
     131      4       64       65       70
     132      2       64       69       68
     133      4       64       69       73
     134     11       65       64       69
     135     15       65       66       67
     136     16       65       66       71
     137     16       66       65       70
     138     17       66       67       68
     139     18       66       67       94
     140     21       67       66       71
     141     15       67       68       69
     142     21       67       68       72
     143     18       67       94       95
     144     18       67       94       99
     145     18       68       67       94
     146     16       68       69       73
     147     16       69       68       72
     148     15       74       75       76
     149     21       74       75       80
     150     15       74       79       78
     151     21       74       79       83
     152     22       74      122      121
     153     18       74      122      123
     154     17       75       74       79
     155     18       75       74      122
     156      2       75       76       77
     157     16       75       76       81
     158     16       76       75       80
     159     11       76       77       78
     160      4       77       76       81
     161      2       77       78       79
     162      4       77       78       82
     163     16       78       79       83
     164     18       79       74      122
     165     16       79       78       82
     166      2       84       85       86
     167      4       84       85       90
     168      2       84       89       88
     169      4       84       89       93
     170      9       84      185      181
     171     10       84      185      192
     172     10       84      185      193
     173     11       85       84       89
     174     13       85       84      185
     175      2       85       86       87
     176     16       85       86       91
     177     16       86       85       90
     178     11       86       87       88
     179      4       87       86       91
     180      2       87       88       89
     181      4       87       88       92
     182     16       88       89       93
     183     13       89       84      185
     184     16       89       88       92
     185     20       94       95       96
     186     21       94       95      100
     187     20       94       99       98
     188     21       94       99      102
     189     17       95       94       99
     190     17       95       96       97
     191     18       95       96      121
     192     21       96       95      100
     193     20       96       97       98
     194     21       96       97      101
     195     22       96      121      122
     196     18       96      121      126
     197     18       97       96      121
     198     17       97       98       99
     199     18       97       98      129
     200     21       98       97      101
     201     21       98       99      102
     202      6       98      129      130
     203     18       98      129      134
     204     18       99       98      129
     205      3      103      104      105
     206     21      103      104      109
     207     20      103      108      107
     208     21      103      108      111
     209     18      103      124      123
     210     22      103      124      125
     211     17      104      103      108
     212     18      104      103      124
     213     11      104      105      106
     214      4      105      104      109
     215      3      105      106      107
     216      4      105      106      110
     217     17      106      107      108
     218     18      106      107      137
     219     21      107      106      110
     220     21      107      108      111
     221     18      107      137      138
     222     18      107      137      142
     223     18      108      103      124
     224     18      108      107      137
     225      3      112      113      114
     226     21      112      113      118
     227      3      112      117      116
     228     21      112      117      120
     229     22      112      125      124
     230     18      112      125      126
     231     17      113      112      117
     232     18      113      112      125
     233     11      113      114      115
     234      4      114      113      118
     235      1      114      115      116
     236      4      114      115      119
     237     11      115      116      117
     238     13      115      116      171
     239      4      116      115      119
     240      4      116      117      120
     241      8      116      171      170
     242     10      116      171      175
     243     10      116      171      176
     244     18      117      112      125
     245     13      117      116      171
     246     18      121      122      123
     247     20      121      126      125
     248     21      121      126      128
     249     18      122      121      126
     250     20      122      123      124
     251     21      122      123      127
     252     18      123      124      125
     253     21      124      123      127
     254     18      124      125      126
     255     21      125      126      128
     256     12      129      130      131
     257      3      129      134      133
     258     21      129      134      136
     259      5      130      129      134
     260      3      130      131      132
     261      4      130      131      135
     262      5      131      132      133
     263     18      131      132      148
     264     21      132      131      135
     265     12      132      133      134
     266     19      132      133      182
     267     18      132      148      149
     268     18      132      148      153
     269      6      133      132      148
     270      4      133      134      136
     271      9      133      182      181
     272     10      133      182      186
     273     10      133      182      187
     274     13      134      133      182
     275     15      137      138      139
     276     21      137      138      143
     277     15      137      142      141
     278     21      137      142      147
     279     17      138      137      142
     280     14      138      139      140
     281     16      138      139      144
     282     16      139      138      143
     283     14      139      140      141
     284     16      139      140      145
     285     16      140      139      144
     286     14      140      141      142
     287     16      140      141      146
     288     16      141      140      145
     289     16      141      142      147
     290     16      142      141      146
     291     15      148      149      150
     292     21      148      149      154
     293     15      148      153      152
     294     21      148      153      158
     295     17      149      148      153
     296     14      149      150      151
     297     16      149      150      155
     298     16      150      149      154
     299     14      150      151      152
     300     16      150      151      156
     301     16      151      150      155
     302     14      151      152      153
     303     16      151      152      157
     304     16      152      151      156
     305     16      152      153      158
     306     16      153      152      157
     307      2      159      160      161
     308      4      159      160      165
     309      2      159      164      163
     310      4      159      164      169
     311      9      159      184      181
     312     10      159      184      190
     313     10      159      184      191
     314     11      160      159      164
     315     13      160      159      184
     316     14      160      161      162
     317     16      160      161      166
     318     16      161      160      165
     319     14      161      162      163
     320     16      161      162      167
     321     16      162      161      166
     322     14      162      163      164
     323     16      162      163      168
     324     16      163      162      167
     325     16      163      164      169
     326     13      164      159      184
     327     16      164      163      168
     328     37      170      171      175
     329     37      170      171      176
     330     38      170      172      177
     331     38      170      172      178
     332     38      170      173      179
     333     38      170      173      180
     334     24      171      170      172
     335     24      171      170      173
     336     25      171      170      174
     337     35      172      170      173
     338     36      172      170      174
     339     36      173      170      174
     340     41      175      171      176
     341     43      177      172      178
     342     43      179      173      180
     343     39      181      182      186
     344     39      181      182      187
     345     40      181      183      188
     346     40      181      183      189
     347     39      181      184      190
     348     39      181      184      191
     349     39      181      185      192
     350     39      181      185      193
     351     27      182      181      183
     352     26      182      181      184
     353     26      182      181      185
     354     27      183      181      184
     355     27      183      181      185
     356     26      184      181      185
     357     41      186      182      187
     358     43      188      183      189
     359     41      190      184      191
     360     41      192      185      193

Dihedrals

       1     22        1        2       64       65
       2     22        1        2       64       69
       3     26        2       64       65       66
       4     48        2       64       65       70
       5     26        2       64       69       68
       6     48        2       64       69       73
       7     66        3        1        2        6
       8     66        3        1        2        7
       9     12        3        1        2       64
      10     66        4        1        2        6
      11     66        4        1        2        7
      12     12        4        1        2       64
      13     66        5        1        2        6
      14     66        5        1        2        7
      15     12        5        1        2       64
      16     25        6        2       64       65
      17     25        6        2       64       69
      18     25        7        2       64       65
      19     25        7        2       64       69
      20     22        8        9       77       76
      21     22        8        9       77       78
      22     26        9       77       76       75
      23     48        9       77       76       81
      24     26        9       77       78       79
      25     48        9       77       78       82
      26     66       10        8        9       13
      27     66       10        8        9       14
      28     12       10        8        9       77
      29     66       11        8        9       13
      30     66       11        8        9       14
      31     12       11        8        9       77
      32     66       12        8        9       13
      33     66       12        8        9       14
      34     12       12        8        9       77
      35     25       13        9       77       76
      36     25       13        9       77       78
      37     25       14        9       77       76
      38     25       14        9       77       78
      39     22       15       16      105      104
      40     22       15       16      105      106
      41     42       16      105      104      103
      42     48       16      105      104      109
      43     42       16      105      106      107
      44     48       16      105      106      110
      45     66       17       15       16       20
      46     66       17       15       16       21
      47     12       17       15       16      105
      48     66       18       15       16       20
      49     66       18       15       16       21
      50     12       18       15       16      105
      51     66       19       15       16       20
      52     66       19       15       16       21
      53     12       19       15       16      105
      54     25       20       16      105      104
      55     25       20       16      105      106
      56     25       21       16      105      104
      57     25       21       16      105      106
      58     22       22       23      114      113
      59     22       22       23      114      115
      60     42       23      114      113      112
      61     48       23      114      113      118
      62      2       23      114      115      116
      63     48       23      114      115      119
      64     66       24       22       23       27
      65     66       24       22       23       28
      66     12       24       22       23      114
      67     66       25       22       23       27
      68     66       25       22       23       28
      69     12       25       22       23      114
      70     66       26       22       23       27
      71     66       26       22       23       28
      72     12       26       22       23      114
      73     25       27       23      114      113
      74     25       27       23      114      115
      75     25       28       23      114      113
      76     25       28       23      114      115
      77     54       29       30      172      170
      78     56       29       30      172      177
      79     56       29       30      172      178
      80     49       30      172      170      171
      81     58       30      172      170      173
      82     59       30      172      170      174
      83     68       31       29       30       34
      84     68       31       29       30       35
      85     57       31       29       30      172
      86     68       32       29       30       34
      87     68       32       29       30       35
      88     57       32       29       30      172
      89     68       33       29       30       34
      90     68       33       29       30       35
      91     57       33       29       30      172
      92     63       34       30      172      170
      93     69       34       30      172      177
      94     69       34       30      172      178
      95     63       35       30      172      170
      96     69       35       30      172      177
      97     69       35       30      172      178
      98     54       36       37      173      170
      99     56       36       37      173      179
     100     56       36       37      173      180
     101     49       37      173      170      171
     102     58       37      173      170      172
     103     59       37      173      170      174
     104     68       38       36       37       41
     105     68       38       36       37       42
     106     57       38       36       37      173
     107     68       39       36       37       41
     108     68       39       36       37       42
     109     57       39       36       37      173
     110     68       40       36       37       41
     111     68       40       36       37       42
     112     57       40       36       37      173
     113     63       41       37      173      170
     114     69       41       37      173      179
     115     69       41       37      173      180
     116     63       42       37      173      170
     117     69       42       37      173      179
     118     69       42       37      173      180
     119     39       43       44      130      129
     120     22       43       44      130      131
     121     45       44      130      129       98
     122     32       44      130      129      134
     123     42       44      130      131      132
     124     48       44      130      131      135
     125     66       45       43       44       48
     126     66       45       43       44       49
     127     12       45       43       44      130
     128     66       46       43       44       48
     129     66       46       43       44       49
     130     12       46       43       44      130
     131     66       47       43       44       48
     132     66       47       43       44       49
     133     12       47       43       44      130
     134     41       48       44      130      129
     135     25       48       44      130      131
     136     41       49       44      130      129
     137     25       49       44      130      131
     138     55       50       51      183      181
     139     56       50       51      183      188
     140     56       50       51      183      189
     141     52       51      183      181      182
     142     52       51      183      181      184
     143     52       51      183      181      185
     144     68       52       50       51       55
     145     68       52       50       51       56
     146     57       52       50       51      183
     147     68       53       50       51       55
     148     68       53       50       51       56
     149     57       53       50       51      183
     150     68       54       50       51       55
     151     68       54       50       51       56
     152     57       54       50       51      183
     153     64       55       51      183      181
     154     69       55       51      183      188
     155     69       55       51      183      189
     156     64       56       51      183      181
     157     69       56       51      183      188
     158     69       56       51      183      189
     159     22       57       58       87       86
     160     22       57       58       87       88
     161     26       58       87       86       85
     162     48       58       87       86       91
     163     26       58       87       88       89
     164     48       58       87       88       92
     165     66       59       57       58       62
     166     66       59       57       58       63
     167     12       59       57       58       87
     168     66       60       57       58       62
     169     66       60       57       58       63
     170     12       60       57       58       87
     171     66       61       57       58       62
     172     66       61       57       58       63
     173     12       61       57       58       87
     174     25       62       58       87       86
     175     25       62       58       87       88
     176     25       63       58       87       86
     177     25       63       58       87       88
     178      5       64       65       66       67
     179      6       64       65       66       71
     180      5       64       69       68       67
     181      6       64       69       68       72
     182     17       65       64       69       68
     183     19       65       64       69       73
     184     30       65       66       67       68
     185     31       65       66       67       94
     186     17       66       65       64       69
     187     30       66       67       68       69
     188     34       66       67       68       72
     189     35       66       67       94       95
     190     35       66       67       94       99
     191     43       67       66       65       70
     192     43       67       68       69       73
     193     44       67       94       95       96
     194     46       67       94       95      100
     195     44       67       94       99       98
     196     46       67       94       99      102
     197     34       68       67       66       71
     198     35       68       67       94       95
     199     35       68       67       94       99
     200     19       69       64       65       70
     201     31       69       68       67       94
     202     65       70       65       66       71
     203     46       71       66       67       94
     204     46       72       68       67       94
     205     65       72       68       69       73
     206      5       74       75       76       77
     207     43       74       75       76       81
     208      5       74       79       78       77
     209     43       74       79       78       82
     210     47       74      122      121       96
     211     36       74      122      121      126
     212     44       74      122      123      124
     213     46       74      122      123      127
     214     30       75       74       79       78
     215     34       75       74       79       83
     216     36       75       74      122      121
     217     35       75       74      122      123
     218     17       75       76       77       78
     219     30       76       75       74       79
     220     31       76       75       74      122
     221     17       76       77       78       79
     222     19       76       77       78       82
     223      6       77       76       75       80
     224      6       77       78       79       83
     225     19       78       77       76       81
     226     31       78       79       74      122
     227     34       79       74       75       80
     228     36       79       74      122      121
     229     35       79       74      122      123
     230     46       80       75       74      122
     231     65       80       75       76       81
     232     65       82       78       79       83
     233     46       83       79       74      122
     234      3       84       85       86       87
     235      6       84       85       86       91
     236      3       84       89       88       87
     237      6       84       89       88       92
     238     15       84      185      181      182
     239     16       84      185      181      183
     240     15       84      185      181      184
     241     17       85       84       89       88
     242     19       85       84       89       93
     243     24       85       84      185      181
     244     25       85       84      185      192
     245     25       85       84      185      193
     246     17       85       86       87       88
     247     17       86       85       84       89
     248     26       86       85       84      185
     249     17       86       87       88       89
     250     19       86       87       88       92
     251      6       87       86       85       90
     252      6       87       88       89       93
     253     19       88       87       86       91
     254     26       88       89       84      185
     255     19       89       84       85       90
     256     24       89       84      185      181
     257     25       89       84      185      192
     258     25       89       84      185      193
     259     48       90       85       84      185
     260     65       90       85       86       91
     261     65       92       88       89       93
     262     48       93       89       84      185
     263     33       94       95       96       97
     264     44       94       95       96      121
     265     33       94       99       98       97
     266     44       94       99       98      129
     267     33       95       94       99       98
     268     34       95       94       99      102
     269     33       95       96       97       98
     270     34       95       96       97      101
     271     36       95       96      121      122
     272     35       95       96      121      126
     273     33       96       95       94       99
     274     33       96       97       98       99
     275     44       96       97       98      129
     276     36       96      121      122      123
     277     44       96      121      126      125
     278     46       96      121      126      128
     279     34       97       96       95      100
     280     36       97       96      121      122
     281     35       97       96      121      126
     282     34       97       98       99      102
     283     11       97       98      129      130
     284     35       97       98      129      134
     285     44       98       97       96      121
     286     21       98      129      130      131
     287      9       98      129      134      133
     288     46       98      129      134      136
     289     34       99       94       95      100
     290     34       99       98       97      101
     291     11       99       98      129      130
     292     35       99       98      129      134
     293     46      100       95       96      121
     294     46      101       97       96      121
     295     46      101       97       98      129
     296     46      102       99       98      129
     297     18      103      104      105      106
     298     33      103      108      107      106
     299     44      103      108      107      137
     300     44      103      124      123      122
     301     46      103      124      123      127
     302     47      103      124      125      112
     303     36      103      124      125      126
     304     33      104      103      108      107
     305     34      104      103      108      111
     306     35      104      103      124      123
     307     36      104      103      124      125
     308     18      104      105      106      107
     309     19      104      105      106      110
     310      8      105      104      103      108
     311      9      105      104      103      124
     312      8      105      106      107      108
     313      9      105      106      107      137
     314     19      106      105      104      109
     315     34      106      107      108      111
     316     35      106      107      137      138
     317     35      106      107      137      142
     318     44      107      108      103      124
     319     31      107      137      138      139
     320     46      107      137      138      143
     321     31      107      137      142      141
     322     46      107      137      142      147
     323     34      108      103      104      109
     324     35      108      103      124      123
     325     36      108      103      124      125
     326     34      108      107      106      110
     327     35      108      107      137      138
     328     35      108      107      137      142
     329     46      109      104      103      124
     330     46      110      106      107      137
     331     46      111      108      103      124
     332     46      111      108      107      137
     333     18      112      113      114      115
     334     18      112      117      116      115
     335     42      112      117      116      171
     336     36      112      125      124      123
     337     44      112      125      126      121
     338     46      112      125      126      128
     339      8      113      112      117      116
     340     34      113      112      117      120
     341     36      113      112      125      124
     342     35      113      112      125      126
     343      1      113      114      115      116
     344     19      113      114      115      119
     345      8      114      113      112      117
     346      9      114      113      112      125
     347      1      114      115      116      117
     348      2      114      115      116      171
     349     19      115      114      113      118
     350     19      115      116      117      120
     351     23      115      116      171      170
     352     25      115      116      171      175
     353     25      115      116      171      176
     354      9      116      117      112      125
     355     13      116      171      170      172
     356     13      116      171      170      173
     357     14      116      171      170      174
     358     34      117      112      113      118
     359     36      117      112      125      124
     360     35      117      112      125      126
     361     19      117      116      115      119
     362     23      117      116      171      170
     363     25      117      116      171      175
     364     25      117      116      171      176
     365     46      118      113      112      125
     366     48      119      115      116      171
     367     46      120      117      112      125
     368     48      120      117      116      171
     369     44      121      122      123      124
     370     46      121      122      123      127
     371     44      121      126      125      124
     372     44      122      121      126      125
     373     46      122      121      126      128
     374     44      122      123      124      125
     375     35      123      122      121      126
     376     35      123      124      125      126
     377     46      124      125      126      128
     378     46      125      124      123      127
     379     37      129      130      131      132
     380     38      129      130      131      135
     381     37      129      134      133      132
     382     42      129      134      133      182
     383      7      130      129      134      133
     384     10      130      129      134      136
     385      7      130      131      132      133
     386      9      130      131      132      148
     387     20      131      130      129      134
     388     20      131      132      133      134
     389     32      131      132      133      182
     390     35      131      132      148      149
     391     35      131      132      148      153
     392     38      132      133      134      136
     393     40      132      133      182      181
     394     41      132      133      182      186
     395     41      132      133      182      187
     396     31      132      148      149      150
     397     46      132      148      149      154
     398     31      132      148      153      152
     399     46      132      148      153      158
     400     10      133      132      131      135
     401     11      133      132      148      149
     402     11      133      132      148      153
     403     16      133      182      181      183
     404     15      133      182      181      184
     405     15      133      182      181      185
     406     21      134      133      132      148
     407     24      134      133      182      181
     408     25      134      133      182      186
     409     25      134      133      182      187
     410     46      135      131      132      148
     411     48      136      134      133      182
     412     28      137      138      139      140
     413     43      137      138      139      144
     414     28      137      142      141      140
     415     43      137      142      141      146
     416     30      138      137      142      141
     417     34      138      137      142      147
     418     27      138      139      140      141
     419     29      138      139      140      145
     420     30      139      138      137      142
     421     27      139      140      141      142
     422     29      139      140      141      146
     423     29      140      139      138      143
     424     29      140      141      142      147
     425     29      141      140      139      144
     426     34      142      137      138      143
     427     29      142      141      140      145
     428     65      143      138      139      144
     429     65      144      139      140      145
     430     65      145      140      141      146
     431     65      146      141      142      147
     432     45      148      132      133      182
     433     28      148      149      150      151
     434     43      148      149      150      155
     435     28      148      153      152      151
     436     43      148      153      152      157
     437     30      149      148      153      152
     438     34      149      148      153      158
     439     27      149      150      151      152
     440     29      149      150      151      156
     441     30      150      149      148      153
     442     27      150      151      152      153
     443     29      150      151      152      157
     444     29      151      150      149      154
     445     29      151      152      153      158
     446     29      152      151      150      155
     447     34      153      148      149      154
     448     29      153      152      151      156
     449     65      154      149      150      155
     450     65      155      150      151      156
     451     65      156      151      152      157
     452     65      157      152      153      158
     453      4      159      160      161      162
     454      6      159      160      161      166
     455      4      159      164      163      162
     456      6      159      164      163      168
     457     15      159      184      181      182
     458     16      159      184      181      183
     459     15      159      184      181      185
     460     17      160      159      164      163
     461     19      160      159      164      169
     462     24      160      159      184      181
     463     25      160      159      184      190
     464     25      160      159      184      191
     465     27      160      161      162      163
     466     29      160      161      162      167
     467     17      161      160      159      164
     468     26      161      160      159      184
     469     27      161      162      163      164
     470     29      161      162      163      168
     471     29      162      161      160      165
     472     29      162      163      164      169
     473     29      163      162      161      166
     474     26      163      164      159      184
     475     19      164      159      160      165
     476     24      164      159      184      181
     477     25      164      159      184      190
     478     25      164      159      184      191
     479     29      164      163      162      167
     480     48      165      160      159      184
     481     65      165      160      161      166
     482     65      166      161      162      167
     483     65      167      162      163      168
     484     65      168      163      164      169
     485     48      169      164      159      184
     486     50      171      170      172      177
     487     50      171      170      172      178
     488     50      171      170      173      179
     489     50      171      170      173      180
     490     60      172      170      171      175
     491     60      172      170      171      176
     492     61      172      170      173      179
     493     61      172      170      173      180
     494     60      173      170      171      175
     495     60      173      170      171      176
     496     61      173      170      172      177
     497     61      173      170      172      178
     498     67      174      170      171      175
     499     67      174      170      171      176
     500     70      174      170      172      177
     501     70      174      170      172      178
     502     70      174      170      173      179
     503     70      174      170      173      180
     504     53      182      181      183      188
     505     53      182      181      183      189
     506     51      182      181      184      190
     507     51      182      181      184      191
     508     51      182      181      185      192
     509     51      182      181      185      193
     510     62      183      181      182      186
     511     62      183      181      182      187
     512     62      183      181      184      190
     513     62      183      181      184      191
     514     62      183      181      185      192
     515     62      183      181      185      193
     516     51      184      181      182      186
     517     51      184      181      182      187
     518     53      184      181      183      188
     519     53      184      181      183      189
     520     51      184      181      185      192
     521     51      184      181      185      193
     522     51      185      181      182      186
     523     51      185      181      182      187
     524     53      185      181      183      188
     525     53      185      181      183      189
     526     51      185      181      184      190
     527     51      185      181      184      191

Impropers

       1      1        2       64       65       69
       2      4       64       65       66       70
       3      7       65       66       67       71
       4     10       66       67       68       94
       5      7       67       68       69       72
       6      4       64       69       68       73
       7     10       75       74       79      122
       8      7       74       75       76       80
       9      4       75       76       77       81
      10      1        9       77       76       78
      11      4       77       78       79       82
      12      7       74       79       78       83
      13      1       85       84       89      185
      14      4       84       85       86       90
      15      4       85       86       87       91
      16      1       58       87       86       88
      17      4       87       88       89       92
      18      4       84       89       88       93
      19     10       67       94       95       99
      20      8       94       95       96      100
      21     10       95       96       97      121
      22      8       96       97       98      101
      23     10       97       98       99      129
      24      8       94       99       98      102
      25     10      104      103      108      124
      26      5      103      104      105      109
      27      1       16      105      104      106
      28      5      105      106      107      110
      29     10      106      107      108      137
      30      8      103      108      107      111
      31     10      113      112      117      125
      32      5      112      113      114      118
      33      1       23      114      113      115
      34      3      114      115      116      119
      35      1      115      116      117      171
      36      5      112      117      116      120
      37     11       96      121      122      126
      38     11       74      122      121      123
      39      8      122      123      124      127
      40     11      103      124      123      125
      41     11      112      125      124      126
      42      8      121      126      125      128
      43      9       98      129      130      134
      44      2       44      130      129      131
      45      5      130      131      132      135
      46      9      131      132      133      148
      47      2      132      133      134      182
      48      5      129      134      133      136
      49     10      107      137      138      142
      50      7      137      138      139      143
      51      6      138      139      140      144
      52      6      139      140      141      145
      53      6      140      141      142      146
      54      7      137      142      141      147
      55     10      132      148      149      153
      56      7      148      149      150      154
      57      6      149      150      151      155
      58      6      150      151      152      156
      59      6      151      152      153      157
      60      7      148      153      152      158
      61      1      160      159      164      184
      62      4      159      160      161      165
      63      6      160      161      162      166
      64      6      161      162      163      167
      65      6      162      163      164      168
      66      4      159      164      163      169

