LAMMPS data file generated by clean-room 1-hop pipeline

     270 atoms
     270 bonds
     540 angles
     810 dihedrals
       0 impropers

       2 atom types
       2 bond types
       3 angle types
       3 dihedral types
       0 improper types

  -35.260900    29.969900 xlo xhi
  -34.393500    34.821600 ylo yhi
  -29.522700    36.672500 zlo zhi

Masses

       1    12.011000
       2     1.008000

Pair Coeffs

       1     0.066000     3.500000
       2     0.030000     2.500000

Bond Coeffs

       1   268.000000     1.529000
       2   340.000000     1.090000

Angle Coeffs

       1    58.350000   112.700000
       2    37.500000   110.700000
       3    33.000000   107.800000

Dihedral Coeffs

       1     0.850000    -0.200000     0.200000     0.000000
       2     0.000000     0.000000     0.300000     0.000000
       3     0.000000     0.000000     0.300000     0.000000

Improper Coeffs


Atoms

       1    1      1  -0.19413973     2.235000    -5.709700    15.674900
       2    1      1  -0.19413973     2.636300    -4.497000    14.817000
       3    1      2   0.09706986     1.110700    -5.665500    15.859700
       4    1      2   0.09706986     2.785800    -5.695800    16.672500
       5    1      2   0.09706986     2.411600    -3.527700    15.373900
       6    1      2   0.09706986     2.018300    -4.531100    13.859000
       7    1      1  -0.19413973     2.585800    -7.003000    14.914100
       8    1      1  -0.19413973     1.994400    -6.975000    13.491500
       9    1      2   0.09706986     2.189000    -7.901300    15.491400
      10    1      2   0.09706986     3.719000    -7.083200    14.821100
      11    1      2   0.09706986     0.861800    -6.849800    13.528000
      12    1      2   0.09706986     2.457000    -6.098100    12.927100
      13    1      1  -0.19413973     2.347900    -8.296500    12.780200
      14    1      1  -0.19413973     1.940300    -8.241800    11.294900
      15    1      2   0.09706986     1.818400    -9.159400    13.303400
      16    1      2   0.09706986     3.474100    -8.458000    12.832400
      17    1      2   0.09706986     0.822800    -8.041100    11.192300
      18    1      2   0.09706986     2.524100    -7.399900    10.795300
      19    1      1  -0.19413973     2.291100    -9.577700    10.609500
      20    1      1  -0.19413973     2.072300    -9.448100     9.089800
      21    1      2   0.09706986     1.644800   -10.412200    11.040200
      22    1      2   0.09706986     3.391100    -9.816400    10.792400
      23    1      2   0.09706986     0.991200    -9.164900     8.867100
      24    1      2   0.09706986     2.763400    -8.627700     8.704500
      25    1      1  -0.19413973     2.415700   -10.768000     8.370900
      26    1      1  -0.19413973     2.375700   -10.514000     6.851700
      27    1      2   0.09706986     1.669700   -11.577400     8.668800
      28    1      2   0.09706986     3.469500   -11.095200     8.656400
      29    1      2   0.09706986     1.345600   -10.132800     6.547100
      30    1      2   0.09706986     3.156000    -9.718300     6.609700
      31    1      1  -0.19413973     2.701400   -11.788000     6.047800
      32    1      1  -0.19413973     2.817000   -11.384100     4.565000
      33    1      2   0.09706986     1.877700   -12.561700     6.196900
      34    1      2   0.09706986     3.699300   -12.217700     6.390900
      35    1      2   0.09706986     1.847400   -10.892300     4.224100
      36    1      2   0.09706986     3.670000   -10.634500     4.469900
      37    1      1  -0.19413973     3.109800   -12.591100     3.652900
      38    1      1  -0.19413973     3.352700   -12.050400     2.230400
      39    1      2   0.09706986     2.221500   -13.306100     3.665800
      40    1      2   0.09706986     4.046300   -13.134500     4.010000
      41    1      2   0.09706986     2.448600   -11.444100     1.892300
      42    1      2   0.09706986     4.269800   -11.373100     2.256100
      43    1      1  -0.19413973     3.592300   -13.187100     1.218200
      44    1      1  -0.19413973     3.942500   -12.554600    -0.143300
      45    1      2   0.09706986     2.648300   -13.819500     1.129700
      46    1      2   0.09706986     4.460500   -13.840500     1.560000
      47    1      2   0.09706986     3.111500   -11.843400    -0.461700
      48    1      2   0.09706986     4.916800   -11.972100    -0.037700
      49    1      1  -0.19413973     4.108900   -13.637500    -1.225700
      50    1      1  -0.19413973     4.563400   -12.963500    -2.534800
      51    1      2   0.09706986     3.112000   -14.169500    -1.382500
      52    1      2   0.09706986     4.898400   -14.393500    -0.902600
      53    1      2   0.09706986     3.814700   -12.161000    -2.840800
      54    1      2   0.09706986     4.649300   -13.743600    -3.360400
      55    1      1  -0.19413973     5.948700   -12.340200    -2.280200
      56    1      1  -0.19413973     6.506500   -11.640200    -3.535100
      57    1      2   0.09706986     6.665700   -13.174200    -1.976700
      58    1      2   0.09706986     5.874400   -11.584700    -1.430100
      59    1      2   0.09706986     5.842400   -10.757200    -3.821400
      60    1      2   0.09706986     6.559400   -12.378800    -4.401200
      61    1      1  -0.19413973     7.927400   -11.157500    -3.187800
      62    1      1  -0.19413973     8.610500   -10.423900    -4.358200
      63    1      2   0.09706986     8.557500   -12.066400    -2.907600
      64    1      2   0.09706986     7.874100   -10.452100    -2.294100
      65    1      2   0.09706986     8.672700   -11.100300    -5.272900
      66    1      2   0.09706986     9.664500   -10.138800    -4.028100
      67    1      1  -0.19413973     7.847300    -9.132100    -4.704200
      68    1      1  -0.19413973     8.658900    -8.331700    -5.741600
      69    1      2   0.09706986     6.806800    -9.376900    -5.101100
      70    1      2   0.09706986     7.754600    -8.501200    -3.760300
      71    1      2   0.09706986     8.763700    -8.918500    -6.712400
      72    1      2   0.09706986     9.692400    -8.127700    -5.307500
      73    1      1  -0.19413973     7.960900    -6.984200    -6.001100
      74    1      1  -0.19413973     8.838400    -6.082300    -6.890600
      75    1      2   0.09706986     6.943800    -7.155400    -6.487900
      76    1      2   0.09706986     7.815300    -6.456800    -5.000300
      77    1      2   0.09706986     8.997900    -6.550300    -7.917300
      78    1      2   0.09706986     9.844500    -5.929400    -6.377600
      79    1      1  -0.19413973     8.127000    -4.722900    -7.016300
      80    1      1  -0.19413973     8.991500    -3.676500    -7.745600
      81    1      2   0.09706986     7.135600    -4.857900    -7.563100
      82    1      2   0.09706986     7.922400    -4.331600    -5.965200
      83    1      2   0.09706986     9.207100    -3.993100    -8.818900
      84    1      2   0.09706986     9.969900    -3.537200    -7.178000
      85    1      1  -0.19413973     8.184500    -2.366000    -7.710700
      86    1      1  -0.19413973     8.949000    -1.147900    -8.262600
      87    1      2   0.09706986     7.218400    -2.506100    -8.298600
      88    1      2   0.09706986     7.925800    -2.143800    -6.622900
      89    1      2   0.09706986     9.210000    -1.283400    -9.364600
      90    1      2   0.09706986     9.897300    -0.983500    -7.652600
      91    1      1  -0.19413973     7.983700     0.034600    -8.064400
      92    1      1  -0.19413973     8.565400     1.415100    -8.420800
      93    1      2   0.09706986     7.047800    -0.148800    -8.689200
      94    1      2   0.09706986     7.690200     0.062600    -6.963100
      95    1      2   0.09706986     8.847100     1.476500    -9.522700
      96    1      2   0.09706986     9.474500     1.632200    -7.768500
      97    1      1  -0.19413973     7.422200     2.390600    -8.086800
      98    1      1  -0.19413973     7.764400     3.883700    -8.240700
      99    1      2   0.09706986     6.531000     2.145100    -8.754600
     100    1      2   0.09706986     7.124100     2.218600    -6.999700
     101    1      2   0.09706986     8.040600     4.135700    -9.317300
     102    1      2   0.09706986     8.618200     4.161800    -7.539700
     103    1      1  -0.19413973     6.469100     4.604900    -7.823900
     104    1      1  -0.19413973     6.566500     6.140900    -7.794400
     105    1      2   0.09706986     5.639000     4.301000    -8.543900
     106    1      2   0.09706986     6.191900     4.255700    -6.774500
     107    1      2   0.09706986     6.820200     6.552200    -8.826600
     108    1      2   0.09706986     7.355400     6.466500    -7.038600
     109    1      1  -0.19413973     5.170100     6.618300    -7.352000
     110    1      1  -0.19413973     5.070000     8.144900    -7.180800
     111    1      2   0.09706986     4.407100     6.281400    -8.128700
     112    1      2   0.09706986     4.921100     6.131100    -6.352100
     113    1      2   0.09706986     5.308500     8.672500    -8.163100
     114    1      2   0.09706986     5.792800     8.489500    -6.370900
     115    1      1  -0.19413973     3.618700     8.445000    -6.758700
     116    1      1  -0.19413973     3.400900     9.945900    -6.493800
     117    1      2   0.09706986     2.916400     8.103600    -7.588100
     118    1      2   0.09706986     3.380700     7.867700    -5.804200
     119    1      2   0.09706986     3.648200    10.546300    -7.431300
     120    1      2   0.09706986     4.073100    10.280700    -5.636500
     121    1      1  -0.19413973     1.922800    10.166500    -6.117400
     122    1      1  -0.19413973     1.678100    11.653600    -5.800900
     123    1      2   0.09706986     1.264200     9.849500    -6.992000
     124    1      2   0.09706986     1.663000     9.539800    -5.200400
     125    1      2   0.09706986     1.969800    12.285600    -6.703600
     126    1      2   0.09706986     2.314600    11.956000    -4.906100
     127    1      1  -0.19413973     0.189700    11.894700    -5.481000
     128    1      1  -0.19413973    -0.000000    13.385200    -5.143600
     129    1      2   0.09706986    -0.440200    11.622400    -6.391900
     130    1      2   0.09706986    -0.131300    11.258200    -4.590200
     131    1      2   0.09706986     0.366000    14.016600    -6.019900
     132    1      2   0.09706986     0.614100    13.636600    -4.216500
     133    1      1  -0.19413973    -1.482300    13.715100    -4.882300
     134    1      1  -0.19413973    -2.046900    12.875900    -3.720900
     135    1      2   0.09706986    -2.089400    13.499900    -5.822600
     136    1      2   0.09706986    -1.571300    14.821600    -4.622400
     137    1      2   0.09706986    -1.436300    13.059800    -2.776300
     138    1      2   0.09706986    -2.002900    11.770300    -3.995600
     139    1      1  -0.19413973    -3.507200    13.305300    -3.478400
     140    1      1  -0.19413973    -4.138300    12.459500    -2.356700
     141    1      2   0.09706986    -4.107500    13.157600    -4.435400
     142    1      2   0.09706986    -3.529800    14.406300    -3.184600
     143    1      2   0.09706986    -3.537800    12.575900    -1.395400
     144    1      2   0.09706986    -4.137100    11.365200    -2.674700
     145    1      1  -0.19413973    -5.588900    12.920100    -2.113500
     146    1      1  -0.19413973    -6.232600    11.994600    -1.065600
     147    1      2   0.09706986    -6.179600    12.841300    -3.085300
     148    1      2   0.09706986    -5.599100    14.000100    -1.747700
     149    1      2   0.09706986    -5.651400    12.040600    -0.086200
     150    1      2   0.09706986    -6.203400    10.928500    -1.470900
     151    1      1  -0.19413973    -7.701400    12.387100    -0.817900
     152    1      1  -0.19413973    -8.447000    12.414000    -2.164600
     153    1      2   0.09706986    -7.768800    13.417100    -0.332800
     154    1      2   0.09706986    -8.173100    11.610500    -0.129700
     155    1      2   0.09706986    -8.047200    13.265700    -2.807500
     156    1      2   0.09706986    -8.278300    11.423100    -2.702300
     157    1      1  -0.19413973    -9.959800    12.567000    -1.920100
     158    1      1  -0.19413973   -10.360600    11.314200    -1.122500
     159    1      2   0.09706986   -10.501500    12.571100    -2.923200
     160    1      2   0.09706986   -10.200600    13.520000    -1.342000
     161    1      2   0.09706986    -9.995500    10.411100    -1.715700
     162    1      2   0.09706986    -9.839800    11.321100    -0.108100
     163    1      1  -0.19413973   -11.879800    11.143400    -0.937200
     164    1      1  -0.19413973   -12.005000     9.751600    -0.294300
     165    1      2   0.09706986   -12.377800    11.132000    -1.963100
     166    1      2   0.09706986   -12.337000    11.961800    -0.286800
     167    1      2   0.09706986   -11.407200     9.040800    -0.955600
     168    1      2   0.09706986   -11.536200     9.760900     0.744700
     169    1      1  -0.19413973   -13.429400     9.171800    -0.226200
     170    1      1  -0.19413973   -13.157300     7.724500     0.218000
     171    1      2   0.09706986   -13.878200     9.166900    -1.274200
     172    1      2   0.09706986   -14.108600     9.735500     0.494500
     173    1      2   0.09706986   -12.360800     7.327400    -0.494500
     174    1      2   0.09706986   -12.730300     7.717000     1.275800
     175    1      1  -0.19413973   -14.331400     6.735400     0.116000
     176    1      1  -0.19413973   -13.613500     5.396100     0.356600
     177    1      2   0.09706986   -14.745200     6.755100    -0.946800
     178    1      2   0.09706986   -15.160000     6.941300     0.871300
     179    1      2   0.09706986   -12.729500     5.387300    -0.362900
     180    1      2   0.09706986   -13.211200     5.358500     1.422500
     181    1      1  -0.19413973   -14.409000     4.115700     0.050100
     182    1      1  -0.19413973   -13.309300     3.041500     0.125900
     183    1      2   0.09706986   -14.807600     4.169400    -1.015800
     184    1      2   0.09706986   -15.260900     3.933500     0.785700
     185    1      2   0.09706986   -12.469000     3.402900    -0.554300
     186    1      2   0.09706986   -12.909600     2.970800     1.190100
     187    1      1  -0.19413973   -13.695400     1.642800    -0.384700
     188    1      1  -0.19413973   -12.345100     0.903900    -0.423600
     189    1      2   0.09706986   -14.102900     1.730900    -1.445400
     190    1      2   0.09706986   -14.456300     1.127300     0.290100
     191    1      2   0.09706986   -11.636600     1.553800    -1.036100
     192    1      2   0.09706986   -11.926400     0.798700     0.631500
     193    1      1  -0.19413973   -12.387700    -0.470700    -1.113200
     194    1      1  -0.19413973   -10.911700    -0.892800    -1.237100
     195    1      2   0.09706986   -12.825600    -0.348500    -2.158900
     196    1      2   0.09706986   -13.000300    -1.226100    -0.518400
     197    1      2   0.09706986   -10.363400    -0.049100    -1.771800
     198    1      2   0.09706986   -10.452900    -1.035700    -0.204100
     199    1      1  -0.19413973   -10.720400    -2.165800    -2.079800
     200    1      1  -0.19413973    -9.200300    -2.323400    -2.268300
     201    1      2   0.09706986   -11.205300    -2.013200    -3.100300
     202    1      2   0.09706986   -11.175600    -3.076800    -1.565700
     203    1      2   0.09706986    -8.803300    -1.359000    -2.727200
     204    1      2   0.09706986    -8.972000    -3.195000    -2.965800
     205    1      1  -0.19413973    -8.506200    -2.563000    -0.914600
     206    1      1  -0.19413973    -6.983200    -2.484800    -1.133500
     207    1      2   0.09706986    -8.807700    -3.587500    -0.515300
     208    1      2   0.09706986    -8.811100    -1.756400    -0.168600
     209    1      2   0.09706986    -6.720100    -1.421800    -1.446900
     210    1      2   0.09706986    -6.671400    -3.207900    -1.957100
     211    1      1  -0.19413973    -6.222100    -2.852500     0.154000
     212    1      1  -0.19413973    -4.719100    -2.605200    -0.076200
     213    1      2   0.09706986    -6.411800    -3.951800     0.389000
     214    1      2   0.09706986    -6.574600    -2.208700     1.027400
     215    1      2   0.09706986    -4.545600    -1.486300    -0.205000
     216    1      2   0.09706986    -4.378800    -3.151300    -1.017400
     217    1      1  -0.19413973    -3.901300    -3.140900     1.113500
     218    1      1  -0.19413973    -2.415500    -2.783400     0.917500
     219    1      2   0.09706986    -4.025700    -4.273600     1.150800
     220    1      2   0.09706986    -4.268200    -2.685900     2.092300
     221    1      2   0.09706986    -2.285900    -1.654400     1.005200
     222    1      2   0.09706986    -2.068000    -3.127900    -0.111100
     223    1      1  -0.19413973    -1.575100    -3.514300     1.980400
     224    1      1  -0.19413973    -0.092900    -3.107600     1.875400
     225    1      2   0.09706986    -1.675500    -4.635200     1.797800
     226    1      2   0.09706986    -1.953200    -3.267300     3.026700
     227    1      2   0.09706986     0.024800    -2.018300     2.192600
     228    1      2   0.09706986     0.277400    -3.238600     0.804900
     229    1      1  -0.19413973     0.715900    -4.043400     2.791700
     230    1      1  -0.19413973     2.206300    -3.657900     2.851700
     231    1      2   0.09706986     0.618200    -5.102400     2.381500
     232    1      2   0.09706986     0.291900    -4.012500     3.849200
     233    1      2   0.09706986     2.317100    -2.660500     3.393300
     234    1      2   0.09706986     2.653500    -3.583900     1.805600
     235    1      1  -0.19413973     2.910300    -4.787900     3.624000
     236    1      1  -0.19413973     4.386200    -4.487000     3.945300
     237    1      2   0.09706986     2.841000    -5.741100     3.003000
     238    1      2   0.09706986     2.369700    -4.950700     4.613900
     239    1      2   0.09706986     5.001200    -4.259800     3.012200
     240    1      2   0.09706986     4.811300    -5.407200     4.467500
     241    1      1  -0.19413973     4.415300    -3.321100     4.948700
     242    1      1  -0.19413973     5.790600    -3.234600     5.635100
     243    1      2   0.09706986     4.108000    -2.335400     4.466400
     244    1      2   0.09706986     3.668200    -3.582300     5.769100
     245    1      2   0.09706986     6.629900    -2.884300     4.947700
     246    1      2   0.09706986     6.025600    -4.279700     6.024900
     247    1      1  -0.19413973     5.589600    -2.326300     6.859400
     248    1      1  -0.19413973     6.669800    -2.577400     7.925800
     249    1      2   0.09706986     5.483300    -1.225900     6.580900
     250    1      2   0.09706986     4.616100    -2.678700     7.338100
     251    1      2   0.09706986     7.695600    -2.148600     7.676100
     252    1      2   0.09706986     6.744000    -3.707600     8.049000
     253    1      1  -0.19413973     6.050500    -2.026600     9.220600
     254    1      1  -0.19413973     6.648300    -2.690700    10.472300
     255    1      2   0.09706986     6.056400    -0.886700     9.268400
     256    1      2   0.09706986     4.967800    -2.383200     9.198400
     257    1      2   0.09706986     7.685700    -2.315600    10.754800
     258    1      2   0.09706986     6.683200    -3.811500    10.268700
     259    1      1  -0.19413973     5.574500    -2.464200    11.550000
     260    1      1  -0.19413973     5.697200    -3.456200    12.719100
     261    1      2   0.09706986     5.536700    -1.380300    11.900400
     262    1      2   0.09706986     4.584700    -2.720000    11.046300
     263    1      2   0.09706986     6.576400    -3.230000    13.409100
     264    1      2   0.09706986     5.806800    -4.502500    12.280500
     265    1      1  -0.19413973     4.122000    -4.548700    14.417400
     266    1      1  -0.19413973     4.332200    -3.390000    13.426900
     267    1      2   0.09706986     4.313100    -5.535100    13.879600
     268    1      2   0.09706986     4.809600    -4.460100    15.322100
     269    1      2   0.09706986     4.185300    -2.381600    13.937200
     270    1      2   0.09706986     3.539500    -3.512900    12.616600

Bonds

       1      1        1        2
       2      2        1        3
       3      2        1        4
       4      1        1        7
       5      2        2        5
       6      2        2        6
       7      1        2      265
       8      1        7        8
       9      2        7        9
      10      2        7       10
      11      2        8       11
      12      2        8       12
      13      1        8       13
      14      1       13       14
      15      2       13       15
      16      2       13       16
      17      2       14       17
      18      2       14       18
      19      1       14       19
      20      1       19       20
      21      2       19       21
      22      2       19       22
      23      2       20       23
      24      2       20       24
      25      1       20       25
      26      1       25       26
      27      2       25       27
      28      2       25       28
      29      2       26       29
      30      2       26       30
      31      1       26       31
      32      1       31       32
      33      2       31       33
      34      2       31       34
      35      2       32       35
      36      2       32       36
      37      1       32       37
      38      1       37       38
      39      2       37       39
      40      2       37       40
      41      2       38       41
      42      2       38       42
      43      1       38       43
      44      1       43       44
      45      2       43       45
      46      2       43       46
      47      2       44       47
      48      2       44       48
      49      1       44       49
      50      1       49       50
      51      2       49       51
      52      2       49       52
      53      2       50       53
      54      2       50       54
      55      1       50       55
      56      1       55       56
      57      2       55       57
      58      2       55       58
      59      2       56       59
      60      2       56       60
      61      1       56       61
      62      1       61       62
      63      2       61       63
      64      2       61       64
      65      2       62       65
      66      2       62       66
      67      1       62       67
      68      1       67       68
      69      2       67       69
      70      2       67       70
      71      2       68       71
      72      2       68       72
      73      1       68       73
      74      1       73       74
      75      2       73       75
      76      2       73       76
      77      2       74       77
      78      2       74       78
      79      1       74       79
      80      1       79       80
      81      2       79       81
      82      2       79       82
      83      2       80       83
      84      2       80       84
      85      1       80       85
      86      1       85       86
      87      2       85       87
      88      2       85       88
      89      2       86       89
      90      2       86       90
      91      1       86       91
      92      1       91       92
      93      2       91       93
      94      2       91       94
      95      2       92       95
      96      2       92       96
      97      1       92       97
      98      1       97       98
      99      2       97       99
     100      2       97      100
     101      2       98      101
     102      2       98      102
     103      1       98      103
     104      1      103      104
     105      2      103      105
     106      2      103      106
     107      2      104      107
     108      2      104      108
     109      1      104      109
     110      1      109      110
     111      2      109      111
     112      2      109      112
     113      2      110      113
     114      2      110      114
     115      1      110      115
     116      1      115      116
     117      2      115      117
     118      2      115      118
     119      2      116      119
     120      2      116      120
     121      1      116      121
     122      1      121      122
     123      2      121      123
     124      2      121      124
     125      2      122      125
     126      2      122      126
     127      1      122      127
     128      1      127      128
     129      2      127      129
     130      2      127      130
     131      2      128      131
     132      2      128      132
     133      1      128      133
     134      1      133      134
     135      2      133      135
     136      2      133      136
     137      2      134      137
     138      2      134      138
     139      1      134      139
     140      1      139      140
     141      2      139      141
     142      2      139      142
     143      2      140      143
     144      2      140      144
     145      1      140      145
     146      1      145      146
     147      2      145      147
     148      2      145      148
     149      2      146      149
     150      2      146      150
     151      1      146      151
     152      1      151      152
     153      2      151      153
     154      2      151      154
     155      2      152      155
     156      2      152      156
     157      1      152      157
     158      1      157      158
     159      2      157      159
     160      2      157      160
     161      2      158      161
     162      2      158      162
     163      1      158      163
     164      1      163      164
     165      2      163      165
     166      2      163      166
     167      2      164      167
     168      2      164      168
     169      1      164      169
     170      1      169      170
     171      2      169      171
     172      2      169      172
     173      2      170      173
     174      2      170      174
     175      1      170      175
     176      1      175      176
     177      2      175      177
     178      2      175      178
     179      2      176      179
     180      2      176      180
     181      1      176      181
     182      1      181      182
     183      2      181      183
     184      2      181      184
     185      2      182      185
     186      2      182      186
     187      1      182      187
     188      1      187      188
     189      2      187      189
     190      2      187      190
     191      2      188      191
     192      2      188      192
     193      1      188      193
     194      1      193      194
     195      2      193      195
     196      2      193      196
     197      2      194      197
     198      2      194      198
     199      1      194      199
     200      1      199      200
     201      2      199      201
     202      2      199      202
     203      2      200      203
     204      2      200      204
     205      1      200      205
     206      1      205      206
     207      2      205      207
     208      2      205      208
     209      2      206      209
     210      2      206      210
     211      1      206      211
     212      1      211      212
     213      2      211      213
     214      2      211      214
     215      2      212      215
     216      2      212      216
     217      1      212      217
     218      1      217      218
     219      2      217      219
     220      2      217      220
     221      2      218      221
     222      2      218      222
     223      1      218      223
     224      1      223      224
     225      2      223      225
     226      2      223      226
     227      2      224      227
     228      2      224      228
     229      1      224      229
     230      1      229      230
     231      2      229      231
     232      2      229      232
     233      2      230      233
     234      2      230      234
     235      1      230      235
     236      1      235      236
     237      2      235      237
     238      2      235      238
     239      2      236      239
     240      2      236      240
     241      1      236      241
     242      1      241      242
     243      2      241      243
     244      2      241      244
     245      2      242      245
     246      2      242      246
     247      1      242      247
     248      1      247      248
     249      2      247      249
     250      2      247      250
     251      2      248      251
     252      2      248      252
     253      1      248      253
     254      1      253      254
     255      2      253      255
     256      2      253      256
     257      2      254      257
     258      2      254      258
     259      1      254      259
     260      1      259      260
     261      2      259      261
     262      2      259      262
     263      2      260      263
     264      2      260      264
     265      1      260      266
     266      1      265      266
     267      2      265      267
     268      2      265      268
     269      2      266      269
     270      2      266      270

Angles

       1      2        1        2        5
       2      2        1        2        6
       3      1        1        2      265
       4      1        1        7        8
       5      2        1        7        9
       6      2        1        7       10
       7      2        2        1        3
       8      2        2        1        4
       9      1        2        1        7
      10      1        2      265      266
      11      2        2      265      267
      12      2        2      265      268
      13      3        3        1        4
      14      2        3        1        7
      15      2        4        1        7
      16      3        5        2        6
      17      2        5        2      265
      18      2        6        2      265
      19      2        7        8       11
      20      2        7        8       12
      21      1        7        8       13
      22      2        8        7        9
      23      2        8        7       10
      24      1        8       13       14
      25      2        8       13       15
      26      2        8       13       16
      27      3        9        7       10
      28      3       11        8       12
      29      2       11        8       13
      30      2       12        8       13
      31      2       13       14       17
      32      2       13       14       18
      33      1       13       14       19
      34      2       14       13       15
      35      2       14       13       16
      36      1       14       19       20
      37      2       14       19       21
      38      2       14       19       22
      39      3       15       13       16
      40      3       17       14       18
      41      2       17       14       19
      42      2       18       14       19
      43      2       19       20       23
      44      2       19       20       24
      45      1       19       20       25
      46      2       20       19       21
      47      2       20       19       22
      48      1       20       25       26
      49      2       20       25       27
      50      2       20       25       28
      51      3       21       19       22
      52      3       23       20       24
      53      2       23       20       25
      54      2       24       20       25
      55      2       25       26       29
      56      2       25       26       30
      57      1       25       26       31
      58      2       26       25       27
      59      2       26       25       28
      60      1       26       31       32
      61      2       26       31       33
      62      2       26       31       34
      63      3       27       25       28
      64      3       29       26       30
      65      2       29       26       31
      66      2       30       26       31
      67      2       31       32       35
      68      2       31       32       36
      69      1       31       32       37
      70      2       32       31       33
      71      2       32       31       34
      72      1       32       37       38
      73      2       32       37       39
      74      2       32       37       40
      75      3       33       31       34
      76      3       35       32       36
      77      2       35       32       37
      78      2       36       32       37
      79      2       37       38       41
      80      2       37       38       42
      81      1       37       38       43
      82      2       38       37       39
      83      2       38       37       40
      84      1       38       43       44
      85      2       38       43       45
      86      2       38       43       46
      87      3       39       37       40
      88      3       41       38       42
      89      2       41       38       43
      90      2       42       38       43
      91      2       43       44       47
      92      2       43       44       48
      93      1       43       44       49
      94      2       44       43       45
      95      2       44       43       46
      96      1       44       49       50
      97      2       44       49       51
      98      2       44       49       52
      99      3       45       43       46
     100      3       47       44       48
     101      2       47       44       49
     102      2       48       44       49
     103      2       49       50       53
     104      2       49       50       54
     105      1       49       50       55
     106      2       50       49       51
     107      2       50       49       52
     108      1       50       55       56
     109      2       50       55       57
     110      2       50       55       58
     111      3       51       49       52
     112      3       53       50       54
     113      2       53       50       55
     114      2       54       50       55
     115      2       55       56       59
     116      2       55       56       60
     117      1       55       56       61
     118      2       56       55       57
     119      2       56       55       58
     120      1       56       61       62
     121      2       56       61       63
     122      2       56       61       64
     123      3       57       55       58
     124      3       59       56       60
     125      2       59       56       61
     126      2       60       56       61
     127      2       61       62       65
     128      2       61       62       66
     129      1       61       62       67
     130      2       62       61       63
     131      2       62       61       64
     132      1       62       67       68
     133      2       62       67       69
     134      2       62       67       70
     135      3       63       61       64
     136      3       65       62       66
     137      2       65       62       67
     138      2       66       62       67
     139      2       67       68       71
     140      2       67       68       72
     141      1       67       68       73
     142      2       68       67       69
     143      2       68       67       70
     144      1       68       73       74
     145      2       68       73       75
     146      2       68       73       76
     147      3       69       67       70
     148      3       71       68       72
     149      2       71       68       73
     150      2       72       68       73
     151      2       73       74       77
     152      2       73       74       78
     153      1       73       74       79
     154      2       74       73       75
     155      2       74       73       76
     156      1       74       79       80
     157      2       74       79       81
     158      2       74       79       82
     159      3       75       73       76
     160      3       77       74       78
     161      2       77       74       79
     162      2       78       74       79
     163      2       79       80       83
     164      2       79       80       84
     165      1       79       80       85
     166      2       80       79       81
     167      2       80       79       82
     168      1       80       85       86
     169      2       80       85       87
     170      2       80       85       88
     171      3       81       79       82
     172      3       83       80       84
     173      2       83       80       85
     174      2       84       80       85
     175      2       85       86       89
     176      2       85       86       90
     177      1       85       86       91
     178      2       86       85       87
     179      2       86       85       88
     180      1       86       91       92
     181      2       86       91       93
     182      2       86       91       94
     183      3       87       85       88
     184      3       89       86       90
     185      2       89       86       91
     186      2       90       86       91
     187      2       91       92       95
     188      2       91       92       96
     189      1       91       92       97
     190      2       92       91       93
     191      2       92       91       94
     192      1       92       97       98
     193      2       92       97       99
     194      2       92       97      100
     195      3       93       91       94
     196      3       95       92       96
     197      2       95       92       97
     198      2       96       92       97
     199      2       97       98      101
     200      2       97       98      102
     201      1       97       98      103
     202      2       98       97       99
     203      2       98       97      100
     204      1       98      103      104
     205      2       98      103      105
     206      2       98      103      106
     207      3       99       97      100
     208      3      101       98      102
     209      2      101       98      103
     210      2      102       98      103
     211      2      103      104      107
     212      2      103      104      108
     213      1      103      104      109
     214      2      104      103      105
     215      2      104      103      106
     216      1      104      109      110
     217      2      104      109      111
     218      2      104      109      112
     219      3      105      103      106
     220      3      107      104      108
     221      2      107      104      109
     222      2      108      104      109
     223      2      109      110      113
     224      2      109      110      114
     225      1      109      110      115
     226      2      110      109      111
     227      2      110      109      112
     228      1      110      115      116
     229      2      110      115      117
     230      2      110      115      118
     231      3      111      109      112
     232      3      113      110      114
     233      2      113      110      115
     234      2      114      110      115
     235      2      115      116      119
     236      2      115      116      120
     237      1      115      116      121
     238      2      116      115      117
     239      2      116      115      118
     240      1      116      121      122
     241      2      116      121      123
     242      2      116      121      124
     243      3      117      115      118
     244      3      119      116      120
     245      2      119      116      121
     246      2      120      116      121
     247      2      121      122      125
     248      2      121      122      126
     249      1      121      122      127
     250      2      122      121      123
     251      2      122      121      124
     252      1      122      127      128
     253      2      122      127      129
     254      2      122      127      130
     255      3      123      121      124
     256      3      125      122      126
     257      2      125      122      127
     258      2      126      122      127
     259      2      127      128      131
     260      2      127      128      132
     261      1      127      128      133
     262      2      128      127      129
     263      2      128      127      130
     264      1      128      133      134
     265      2      128      133      135
     266      2      128      133      136
     267      3      129      127      130
     268      3      131      128      132
     269      2      131      128      133
     270      2      132      128      133
     271      2      133      134      137
     272      2      133      134      138
     273      1      133      134      139
     274      2      134      133      135
     275      2      134      133      136
     276      1      134      139      140
     277      2      134      139      141
     278      2      134      139      142
     279      3      135      133      136
     280      3      137      134      138
     281      2      137      134      139
     282      2      138      134      139
     283      2      139      140      143
     284      2      139      140      144
     285      1      139      140      145
     286      2      140      139      141
     287      2      140      139      142
     288      1      140      145      146
     289      2      140      145      147
     290      2      140      145      148
     291      3      141      139      142
     292      3      143      140      144
     293      2      143      140      145
     294      2      144      140      145
     295      2      145      146      149
     296      2      145      146      150
     297      1      145      146      151
     298      2      146      145      147
     299      2      146      145      148
     300      1      146      151      152
     301      2      146      151      153
     302      2      146      151      154
     303      3      147      145      148
     304      3      149      146      150
     305      2      149      146      151
     306      2      150      146      151
     307      2      151      152      155
     308      2      151      152      156
     309      1      151      152      157
     310      2      152      151      153
     311      2      152      151      154
     312      1      152      157      158
     313      2      152      157      159
     314      2      152      157      160
     315      3      153      151      154
     316      3      155      152      156
     317      2      155      152      157
     318      2      156      152      157
     319      2      157      158      161
     320      2      157      158      162
     321      1      157      158      163
     322      2      158      157      159
     323      2      158      157      160
     324      1      158      163      164
     325      2      158      163      165
     326      2      158      163      166
     327      3      159      157      160
     328      3      161      158      162
     329      2      161      158      163
     330      2      162      158      163
     331      2      163      164      167
     332      2      163      164      168
     333      1      163      164      169
     334      2      164      163      165
     335      2      164      163      166
     336      1      164      169      170
     337      2      164      169      171
     338      2      164      169      172
     339      3      165      163      166
     340      3      167      164      168
     341      2      167      164      169
     342      2      168      164      169
     343      2      169      170      173
     344      2      169      170      174
     345      1      169      170      175
     346      2      170      169      171
     347      2      170      169      172
     348      1      170      175      176
     349      2      170      175      177
     350      2      170      175      178
     351      3      171      169      172
     352      3      173      170      174
     353      2      173      170      175
     354      2      174      170      175
     355      2      175      176      179
     356      2      175      176      180
     357      1      175      176      181
     358      2      176      175      177
     359      2      176      175      178
     360      1      176      181      182
     361      2      176      181      183
     362      2      176      181      184
     363      3      177      175      178
     364      3      179      176      180
     365      2      179      176      181
     366      2      180      176      181
     367      2      181      182      185
     368      2      181      182      186
     369      1      181      182      187
     370      2      182      181      183
     371      2      182      181      184
     372      1      182      187      188
     373      2      182      187      189
     374      2      182      187      190
     375      3      183      181      184
     376      3      185      182      186
     377      2      185      182      187
     378      2      186      182      187
     379      2      187      188      191
     380      2      187      188      192
     381      1      187      188      193
     382      2      188      187      189
     383      2      188      187      190
     384      1      188      193      194
     385      2      188      193      195
     386      2      188      193      196
     387      3      189      187      190
     388      3      191      188      192
     389      2      191      188      193
     390      2      192      188      193
     391      2      193      194      197
     392      2      193      194      198
     393      1      193      194      199
     394      2      194      193      195
     395      2      194      193      196
     396      1      194      199      200
     397      2      194      199      201
     398      2      194      199      202
     399      3      195      193      196
     400      3      197      194      198
     401      2      197      194      199
     402      2      198      194      199
     403      2      199      200      203
     404      2      199      200      204
     405      1      199      200      205
     406      2      200      199      201
     407      2      200      199      202
     408      1      200      205      206
     409      2      200      205      207
     410      2      200      205      208
     411      3      201      199      202
     412      3      203      200      204
     413      2      203      200      205
     414      2      204      200      205
     415      2      205      206      209
     416      2      205      206      210
     417      1      205      206      211
     418      2      206      205      207
     419      2      206      205      208
     420      1      206      211      212
     421      2      206      211      213
     422      2      206      211      214
     423      3      207      205      208
     424      3      209      206      210
     425      2      209      206      211
     426      2      210      206      211
     427      2      211      212      215
     428      2      211      212      216
     429      1      211      212      217
     430      2      212      211      213
     431      2      212      211      214
     432      1      212      217      218
     433      2      212      217      219
     434      2      212      217      220
     435      3      213      211      214
     436      3      215      212      216
     437      2      215      212      217
     438      2      216      212      217
     439      2      217      218      221
     440      2      217      218      222
     441      1      217      218      223
     442      2      218      217      219
     443      2      218      217      220
     444      1      218      223      224
     445      2      218      223      225
     446      2      218      223      226
     447      3      219      217      220
     448      3      221      218      222
     449      2      221      218      223
     450      2      222      218      223
     451      2      223      224      227
     452      2      223      224      228
     453      1      223      224      229
     454      2      224      223      225
     455      2      224      223      226
     456      1      224      229      230
     457      2      224      229      231
     458      2      224      229      232
     459      3      225      223      226
     460      3      227      224      228
     461      2      227      224      229
     462      2      228      224      229
     463      2      229      230      233
     464      2      229      230      234
     465      1      229      230      235
     466      2      230      229      231
     467      2      230      229      232
     468      1      230      235      236
     469      2      230      235      237
     470      2      230      235      238
     471      3      231      229      232
     472      3      233      230      234
     473      2      233      230      235
     474      2      234      230      235
     475      2      235      236      239
     476      2      235      236      240
     477      1      235      236      241
     478      2      236      235      237
     479      2      236      235      238
     480      1      236      241      242
     481      2      236      241      243
     482      2      236      241      244
     483      3      237      235      238
     484      3      239      236      240
     485      2      239      236      241
     486      2      240      236      241
     487      2      241      242      245
     488      2      241      242      246
     489      1      241      242      247
     490      2      242      241      243
     491      2      242      241      244
     492      1      242      247      248
     493      2      242      247      249
     494      2      242      247      250
     495      3      243      241      244
     496      3      245      242      246
     497      2      245      242      247
     498      2      246      242      247
     499      2      247      248      251
     500      2      247      248      252
     501      1      247      248      253
     502      2      248      247      249
     503      2      248      247      250
     504      1      248      253      254
     505      2      248      253      255
     506      2      248      253      256
     507      3      249      247      250
     508      3      251      248      252
     509      2      251      248      253
     510      2      252      248      253
     511      2      253      254      257
     512      2      253      254      258
     513      1      253      254      259
     514      2      254      253      255
     515      2      254      253      256
     516      1      254      259      260
     517      2      254      259      261
     518      2      254      259      262
     519      3      255      253      256
     520      3      257      254      258
     521      2      257      254      259
     522      2      258      254      259
     523      2      259      260      263
     524      2      259      260      264
     525      1      259      260      266
     526      2      260      259      261
     527      2      260      259      262
     528      1      260      266      265
     529      2      260      266      269
     530      2      260      266      270
     531      3      261      259      262
     532      3      263      260      264
     533      2      263      260      266
     534      2      264      260      266
     535      2      265      266      269
     536      2      265      266      270
     537      2      266      265      267
     538      2      266      265      268
     539      3      267      265      268
     540      3      269      266      270

Dihedrals

       1      1        1        2      265      266
       2      2        1        2      265      267
       3      2        1        2      265      268
       4      2        1        7        8       11
       5      2        1        7        8       12
       6      1        1        7        8       13
       7      1        2        1        7        8
       8      2        2        1        7        9
       9      2        2        1        7       10
      10      1        2      265      266      260
      11      2        2      265      266      269
      12      2        2      265      266      270
      13      3        3        1        2        5
      14      3        3        1        2        6
      15      2        3        1        2      265
      16      2        3        1        7        8
      17      3        3        1        7        9
      18      3        3        1        7       10
      19      3        4        1        2        5
      20      3        4        1        2        6
      21      2        4        1        2      265
      22      2        4        1        7        8
      23      3        4        1        7        9
      24      3        4        1        7       10
      25      2        5        2        1        7
      26      2        5        2      265      266
      27      3        5        2      265      267
      28      3        5        2      265      268
      29      2        6        2        1        7
      30      2        6        2      265      266
      31      3        6        2      265      267
      32      3        6        2      265      268
      33      1        7        1        2      265
      34      1        7        8       13       14
      35      2        7        8       13       15
      36      2        7        8       13       16
      37      2        8       13       14       17
      38      2        8       13       14       18
      39      1        8       13       14       19
      40      3        9        7        8       11
      41      3        9        7        8       12
      42      2        9        7        8       13
      43      3       10        7        8       11
      44      3       10        7        8       12
      45      2       10        7        8       13
      46      2       11        8       13       14
      47      3       11        8       13       15
      48      3       11        8       13       16
      49      2       12        8       13       14
      50      3       12        8       13       15
      51      3       12        8       13       16
      52      1       13       14       19       20
      53      2       13       14       19       21
      54      2       13       14       19       22
      55      2       14       19       20       23
      56      2       14       19       20       24
      57      1       14       19       20       25
      58      3       15       13       14       17
      59      3       15       13       14       18
      60      2       15       13       14       19
      61      3       16       13       14       17
      62      3       16       13       14       18
      63      2       16       13       14       19
      64      2       17       14       19       20
      65      3       17       14       19       21
      66      3       17       14       19       22
      67      2       18       14       19       20
      68      3       18       14       19       21
      69      3       18       14       19       22
      70      1       19       20       25       26
      71      2       19       20       25       27
      72      2       19       20       25       28
      73      2       20       25       26       29
      74      2       20       25       26       30
      75      1       20       25       26       31
      76      3       21       19       20       23
      77      3       21       19       20       24
      78      2       21       19       20       25
      79      3       22       19       20       23
      80      3       22       19       20       24
      81      2       22       19       20       25
      82      2       23       20       25       26
      83      3       23       20       25       27
      84      3       23       20       25       28
      85      2       24       20       25       26
      86      3       24       20       25       27
      87      3       24       20       25       28
      88      1       25       26       31       32
      89      2       25       26       31       33
      90      2       25       26       31       34
      91      2       26       31       32       35
      92      2       26       31       32       36
      93      1       26       31       32       37
      94      3       27       25       26       29
      95      3       27       25       26       30
      96      2       27       25       26       31
      97      3       28       25       26       29
      98      3       28       25       26       30
      99      2       28       25       26       31
     100      2       29       26       31       32
     101      3       29       26       31       33
     102      3       29       26       31       34
     103      2       30       26       31       32
     104      3       30       26       31       33
     105      3       30       26       31       34
     106      1       31       32       37       38
     107      2       31       32       37       39
     108      2       31       32       37       40
     109      2       32       37       38       41
     110      2       32       37       38       42
     111      1       32       37       38       43
     112      3       33       31       32       35
     113      3       33       31       32       36
     114      2       33       31       32       37
     115      3       34       31       32       35
     116      3       34       31       32       36
     117      2       34       31       32       37
     118      2       35       32       37       38
     119      3       35       32       37       39
     120      3       35       32       37       40
     121      2       36       32       37       38
     122      3       36       32       37       39
     123      3       36       32       37       40
     124      1       37       38       43       44
     125      2       37       38       43       45
     126      2       37       38       43       46
     127      2       38       43       44       47
     128      2       38       43       44       48
     129      1       38       43       44       49
     130      3       39       37       38       41
     131      3       39       37       38       42
     132      2       39       37       38       43
     133      3       40       37       38       41
     134      3       40       37       38       42
     135      2       40       37       38       43
     136      2       41       38       43       44
     137      3       41       38       43       45
     138      3       41       38       43       46
     139      2       42       38       43       44
     140      3       42       38       43       45
     141      3       42       38       43       46
     142      1       43       44       49       50
     143      2       43       44       49       51
     144      2       43       44       49       52
     145      2       44       49       50       53
     146      2       44       49       50       54
     147      1       44       49       50       55
     148      3       45       43       44       47
     149      3       45       43       44       48
     150      2       45       43       44       49
     151      3       46       43       44       47
     152      3       46       43       44       48
     153      2       46       43       44       49
     154      2       47       44       49       50
     155      3       47       44       49       51
     156      3       47       44       49       52
     157      2       48       44       49       50
     158      3       48       44       49       51
     159      3       48       44       49       52
     160      1       49       50       55       56
     161      2       49       50       55       57
     162      2       49       50       55       58
     163      2       50       55       56       59
     164      2       50       55       56       60
     165      1       50       55       56       61
     166      3       51       49       50       53
     167      3       51       49       50       54
     168      2       51       49       50       55
     169      3       52       49       50       53
     170      3       52       49       50       54
     171      2       52       49       50       55
     172      2       53       50       55       56
     173      3       53       50       55       57
     174      3       53       50       55       58
     175      2       54       50       55       56
     176      3       54       50       55       57
     177      3       54       50       55       58
     178      1       55       56       61       62
     179      2       55       56       61       63
     180      2       55       56       61       64
     181      2       56       61       62       65
     182      2       56       61       62       66
     183      1       56       61       62       67
     184      3       57       55       56       59
     185      3       57       55       56       60
     186      2       57       55       56       61
     187      3       58       55       56       59
     188      3       58       55       56       60
     189      2       58       55       56       61
     190      2       59       56       61       62
     191      3       59       56       61       63
     192      3       59       56       61       64
     193      2       60       56       61       62
     194      3       60       56       61       63
     195      3       60       56       61       64
     196      1       61       62       67       68
     197      2       61       62       67       69
     198      2       61       62       67       70
     199      2       62       67       68       71
     200      2       62       67       68       72
     201      1       62       67       68       73
     202      3       63       61       62       65
     203      3       63       61       62       66
     204      2       63       61       62       67
     205      3       64       61       62       65
     206      3       64       61       62       66
     207      2       64       61       62       67
     208      2       65       62       67       68
     209      3       65       62       67       69
     210      3       65       62       67       70
     211      2       66       62       67       68
     212      3       66       62       67       69
     213      3       66       62       67       70
     214      1       67       68       73       74
     215      2       67       68       73       75
     216      2       67       68       73       76
     217      2       68       73       74       77
     218      2       68       73       74       78
     219      1       68       73       74       79
     220      3       69       67       68       71
     221      3       69       67       68       72
     222      2       69       67       68       73
     223      3       70       67       68       71
     224      3       70       67       68       72
     225      2       70       67       68       73
     226      2       71       68       73       74
     227      3       71       68       73       75
     228      3       71       68       73       76
     229      2       72       68       73       74
     230      3       72       68       73       75
     231      3       72       68       73       76
     232      1       73       74       79       80
     233      2       73       74       79       81
     234      2       73       74       79       82
     235      2       74       79       80       83
     236      2       74       79       80       84
     237      1       74       79       80       85
     238      3       75       73       74       77
     239      3       75       73       74       78
     240      2       75       73       74       79
     241      3       76       73       74       77
     242      3       76       73       74       78
     243      2       76       73       74       79
     244      2       77       74       79       80
     245      3       77       74       79       81
     246      3       77       74       79       82
     247      2       78       74       79       80
     248      3       78       74       79       81
     249      3       78       74       79       82
     250      1       79       80       85       86
     251      2       79       80       85       87
     252      2       79       80       85       88
     253      2       80       85       86       89
     254      2       80       85       86       90
     255      1       80       85       86       91
     256      3       81       79       80       83
     257      3       81       79       80       84
     258      2       81       79       80       85
     259      3       82       79       80       83
     260      3       82       79       80       84
     261      2       82       79       80       85
     262      2       83       80       85       86
     263      3       83       80       85       87
     264      3       83       80       85       88
     265      2       84       80       85       86
     266      3       84       80       85       87
     267      3       84       80       85       88
     268      1       85       86       91       92
     269      2       85       86       91       93
     270      2       85       86       91       94
     271      2       86       91       92       95
     272      2       86       91       92       96
     273      1       86       91       92       97
     274      3       87       85       86       89
     275      3       87       85       86       90
     276      2       87       85       86       91
     277      3       88       85       86       89
     278      3       88       85       86       90
     279      2       88       85       86       91
     280      2       89       86       91       92
     281      3       89       86       91       93
     282      3       89       86       91       94
     283      2       90       86       91       92
     284      3       90       86       91       93
     285      3       90       86       91       94
     286      1       91       92       97       98
     287      2       91       92       97       99
     288      2       91       92       97      100
     289      2       92       97       98      101
     290      2       92       97       98      102
     291      1       92       97       98      103
     292      3       93       91       92       95
     293      3       93       91       92       96
     294      2       93       91       92       97
     295      3       94       91       92       95
     296      3       94       91       92       96
     297      2       94       91       92       97
     298      2       95       92       97       98
     299      3       95       92       97       99
     300      3       95       92       97      100
     301      2       96       92       97       98
     302      3       96       92       97       99
     303      3       96       92       97      100
     304      1       97       98      103      104
     305      2       97       98      103      105
     306      2       97       98      103      106
     307      2       98      103      104      107
     308      2       98      103      104      108
     309      1       98      103      104      109
     310      3       99       97       98      101
     311      3       99       97       98      102
     312      2       99       97       98      103
     313      3      100       97       98      101
     314      3      100       97       98      102
     315      2      100       97       98      103
     316      2      101       98      103      104
     317      3      101       98      103      105
     318      3      101       98      103      106
     319      2      102       98      103      104
     320      3      102       98      103      105
     321      3      102       98      103      106
     322      1      103      104      109      110
     323      2      103      104      109      111
     324      2      103      104      109      112
     325      2      104      109      110      113
     326      2      104      109      110      114
     327      1      104      109      110      115
     328      3      105      103      104      107
     329      3      105      103      104      108
     330      2      105      103      104      109
     331      3      106      103      104      107
     332      3      106      103      104      108
     333      2      106      103      104      109
     334      2      107      104      109      110
     335      3      107      104      109      111
     336      3      107      104      109      112
     337      2      108      104      109      110
     338      3      108      104      109      111
     339      3      108      104      109      112
     340      1      109      110      115      116
     341      2      109      110      115      117
     342      2      109      110      115      118
     343      2      110      115      116      119
     344      2      110      115      116      120
     345      1      110      115      116      121
     346      3      111      109      110      113
     347      3      111      109      110      114
     348      2      111      109      110      115
     349      3      112      109      110      113
     350      3      112      109      110      114
     351      2      112      109      110      115
     352      2      113      110      115      116
     353      3      113      110      115      117
     354      3      113      110      115      118
     355      2      114      110      115      116
     356      3      114      110      115      117
     357      3      114      110      115      118
     358      1      115      116      121      122
     359      2      115      116      121      123
     360      2      115      116      121      124
     361      2      116      121      122      125
     362      2      116      121      122      126
     363      1      116      121      122      127
     364      3      117      115      116      119
     365      3      117      115      116      120
     366      2      117      115      116      121
     367      3      118      115      116      119
     368      3      118      115      116      120
     369      2      118      115      116      121
     370      2      119      116      121      122
     371      3      119      116      121      123
     372      3      119      116      121      124
     373      2      120      116      121      122
     374      3      120      116      121      123
     375      3      120      116      121      124
     376      1      121      122      127      128
     377      2      121      122      127      129
     378      2      121      122      127      130
     379      2      122      127      128      131
     380      2      122      127      128      132
     381      1      122      127      128      133
     382      3      123      121      122      125
     383      3      123      121      122      126
     384      2      123      121      122      127
     385      3      124      121      122      125
     386      3      124      121      122      126
     387      2      124      121      122      127
     388      2      125      122      127      128
     389      3      125      122      127      129
     390      3      125      122      127      130
     391      2      126      122      127      128
     392      3      126      122      127      129
     393      3      126      122      127      130
     394      1      127      128      133      134
     395      2      127      128      133      135
     396      2      127      128      133      136
     397      2      128      133      134      137
     398      2      128      133      134      138
     399      1      128      133      134      139
     400      3      129      127      128      131
     401      3      129      127      128      132
     402      2      129      127      128      133
     403      3      130      127      128      131
     404      3      130      127      128      132
     405      2      130      127      128      133
     406      2      131      128      133      134
     407      3      131      128      133      135
     408      3      131      128      133      136
     409      2      132      128      133      134
     410      3      132      128      133      135
     411      3      132      128      133      136
     412      1      133      134      139      140
     413      2      133      134      139      141
     414      2      133      134      139      142
     415      2      134      139      140      143
     416      2      134      139      140      144
     417      1      134      139      140      145
     418      3      135      133      134      137
     419      3      135      133      134      138
     420      2      135      133      134      139
     421      3      136      133      134      137
     422      3      136      133      134      138
     423      2      136      133      134      139
     424      2      137      134      139      140
     425      3      137      134      139      141
     426      3      137      134      139      142
     427      2      138      134      139      140
     428      3      138      134      139      141
     429      3      138      134      139      142
     430      1      139      140      145      146
     431      2      139      140      145      147
     432      2      139      140      145      148
     433      2      140      145      146      149
     434      2      140      145      146      150
     435      1      140      145      146      151
     436      3      141      139      140      143
     437      3      141      139      140      144
     438      2      141      139      140      145
     439      3      142      139      140      143
     440      3      142      139      140      144
     441      2      142      139      140      145
     442      2      143      140      145      146
     443      3      143      140      145      147
     444      3      143      140      145      148
     445      2      144      140      145      146
     446      3      144      140      145      147
     447      3      144      140      145      148
     448      1      145      146      151      152
     449      2      145      146      151      153
     450      2      145      146      151      154
     451      2      146      151      152      155
     452      2      146      151      152      156
     453      1      146      151      152      157
     454      3      147      145      146      149
     455      3      147      145      146      150
     456      2      147      145      146      151
     457      3      148      145      146      149
     458      3      148      145      146      150
     459      2      148      145      146      151
     460      2      149      146      151      152
     461      3      149      146      151      153
     462      3      149      146      151      154
     463      2      150      146      151      152
     464      3      150      146      151      153
     465      3      150      146      151      154
     466      1      151      152      157      158
     467      2      151      152      157      159
     468      2      151      152      157      160
     469      2      152      157      158      161
     470      2      152      157      158      162
     471      1      152      157      158      163
     472      3      153      151      152      155
     473      3      153      151      152      156
     474      2      153      151      152      157
     475      3      154      151      152      155
     476      3      154      151      152      156
     477      2      154      151      152      157
     478      2      155      152      157      158
     479      3      155      152      157      159
     480      3      155      152      157      160
     481      2      156      152      157      158
     482      3      156      152      157      159
     483      3      156      152      157      160
     484      1      157      158      163      164
     485      2      157      158      163      165
     486      2      157      158      163      166
     487      2      158      163      164      167
     488      2      158      163      164      168
     489      1      158      163      164      169
     490      3      159      157      158      161
     491      3      159      157      158      162
     492      2      159      157      158      163
     493      3      160      157      158      161
     494      3      160      157      158      162
     495      2      160      157      158      163
     496      2      161      158      163      164
     497      3      161      158      163      165
     498      3      161      158      163      166
     499      2      162      158      163      164
     500      3      162      158      163      165
     501      3      162      158      163      166
     502      1      163      164      169      170
     503      2      163      164      169      171
     504      2      163      164      169      172
     505      2      164      169      170      173
     506      2      164      169      170      174
     507      1      164      169      170      175
     508      3      165      163      164      167
     509      3      165      163      164      168
     510      2      165      163      164      169
     511      3      166      163      164      167
     512      3      166      163      164      168
     513      2      166      163      164      169
     514      2      167      164      169      170
     515      3      167      164      169      171
     516      3      167      164      169      172
     517      2      168      164      169      170
     518      3      168      164      169      171
     519      3      168      164      169      172
     520      1      169      170      175      176
     521      2      169      170      175      177
     522      2      169      170      175      178
     523      2      170      175      176      179
     524      2      170      175      176      180
     525      1      170      175      176      181
     526      3      171      169      170      173
     527      3      171      169      170      174
     528      2      171      169      170      175
     529      3      172      169      170      173
     530      3      172      169      170      174
     531      2      172      169      170      175
     532      2      173      170      175      176
     533      3      173      170      175      177
     534      3      173      170      175      178
     535      2      174      170      175      176
     536      3      174      170      175      177
     537      3      174      170      175      178
     538      1      175      176      181      182
     539      2      175      176      181      183
     540      2      175      176      181      184
     541      2      176      181      182      185
     542      2      176      181      182      186
     543      1      176      181      182      187
     544      3      177      175      176      179
     545      3      177      175      176      180
     546      2      177      175      176      181
     547      3      178      175      176      179
     548      3      178      175      176      180
     549      2      178      175      176      181
     550      2      179      176      181      182
     551      3      179      176      181      183
     552      3      179      176      181      184
     553      2      180      176      181      182
     554      3      180      176      181      183
     555      3      180      176      181      184
     556      1      181      182      187      188
     557      2      181      182      187      189
     558      2      181      182      187      190
     559      2      182      187      188      191
     560      2      182      187      188      192
     561      1      182      187      188      193
     562      3      183      181      182      185
     563      3      183      181      182      186
     564      2      183      181      182      187
     565      3      184      181      182      185
     566      3      184      181      182      186
     567      2      184      181      182      187
     568      2      185      182      187      188
     569      3      185      182      187      189
     570      3      185      182      187      190
     571      2      186      182      187      188
     572      3      186      182      187      189
     573      3      186      182      187      190
     574      1      187      188      193      194
     575      2      187      188      193      195
     576      2      187      188      193      196
     577      2      188      193      194      197
     578      2      188      193      194      198
     579      1      188      193      194      199
     580      3      189      187      188      191
     581      3      189      187      188      192
     582      2      189      187      188      193
     583      3      190      187      188      191
     584      3      190      187      188      192
     585      2      190      187      188      193
     586      2      191      188      193      194
     587      3      191      188      193      195
     588      3      191      188      193      196
     589      2      192      188      193      194
     590      3      192      188      193      195
     591      3      192      188      193      196
     592      1      193      194      199      200
     593      2      193      194      199      201
     594      2      193      194      199      202
     595      2      194      199      200      203
     596      2      194      199      200      204
     597      1      194      199      200      205
     598      3      195      193      194      197
     599      3      195      193      194      198
     600      2      195      193      194      199
     601      3      196      193      194      197
     602      3      196      193      194      198
     603      2      196      193      194      199
     604      2      197      194      199      200
     605      3      197      194      199      201
     606      3      197      194      199      202
     607      2      198      194      199      200
     608      3      198      194      199      201
     609      3      198      194      199      202
     610      1      199      200      205      206
     611      2      199      200      205      207
     612      2      199      200      205      208
     613      2      200      205      206      209
     614      2      200      205      206      210
     615      1      200      205      206      211
     616      3      201      199      200      203
     617      3      201      199      200      204
     618      2      201      199      200      205
     619      3      202      199      200      203
     620      3      202      199      200      204
     621      2      202      199      200      205
     622      2      203      200      205      206
     623      3      203      200      205      207
     624      3      203      200      205      208
     625      2      204      200      205      206
     626      3      204      200      205      207
     627      3      204      200      205      208
     628      1      205      206      211      212
     629      2      205      206      211      213
     630      2      205      206      211      214
     631      2      206      211      212      215
     632      2      206      211      212      216
     633      1      206      211      212      217
     634      3      207      205      206      209
     635      3      207      205      206      210
     636      2      207      205      206      211
     637      3      208      205      206      209
     638      3      208      205      206      210
     639      2      208      205      206      211
     640      2      209      206      211      212
     641      3      209      206      211      213
     642      3      209      206      211      214
     643      2      210      206      211      212
     644      3      210      206      211      213
     645      3      210      206      211      214
     646      1      211      212      217      218
     647      2      211      212      217      219
     648      2      211      212      217      220
     649      2      212      217      218      221
     650      2      212      217      218      222
     651      1      212      217      218      223
     652      3      213      211      212      215
     653      3      213      211      212      216
     654      2      213      211      212      217
     655      3      214      211      212      215
     656      3      214      211      212      216
     657      2      214      211      212      217
     658      2      215      212      217      218
     659      3      215      212      217      219
     660      3      215      212      217      220
     661      2      216      212      217      218
     662      3      216      212      217      219
     663      3      216      212      217      220
     664      1      217      218      223      224
     665      2      217      218      223      225
     666      2      217      218      223      226
     667      2      218      223      224      227
     668      2      218      223      224      228
     669      1      218      223      224      229
     670      3      219      217      218      221
     671      3      219      217      218      222
     672      2      219      217      218      223
     673      3      220      217      218      221
     674      3      220      217      218      222
     675      2      220      217      218      223
     676      2      221      218      223      224
     677      3      221      218      223      225
     678      3      221      218      223      226
     679      2      222      218      223      224
     680      3      222      218      223      225
     681      3      222      218      223      226
     682      1      223      224      229      230
     683      2      223      224      229      231
     684      2      223      224      229      232
     685      2      224      229      230      233
     686      2      224      229      230      234
     687      1      224      229      230      235
     688      3      225      223      224      227
     689      3      225      223      224      228
     690      2      225      223      224      229
     691      3      226      223      224      227
     692      3      226      223      224      228
     693      2      226      223      224      229
     694      2      227      224      229      230
     695      3      227      224      229      231
     696      3      227      224      229      232
     697      2      228      224      229      230
     698      3      228      224      229      231
     699      3      228      224      229      232
     700      1      229      230      235      236
     701      2      229      230      235      237
     702      2      229      230      235      238
     703      2      230      235      236      239
     704      2      230      235      236      240
     705      1      230      235      236      241
     706      3      231      229      230      233
     707      3      231      229      230      234
     708      2      231      229      230      235
     709      3      232      229      230      233
     710      3      232      229      230      234
     711      2      232      229      230      235
     712      2      233      230      235      236
     713      3      233      230      235      237
     714      3      233      230      235      238
     715      2      234      230      235      236
     716      3      234      230      235      237
     717      3      234      230      235      238
     718      1      235      236      241      242
     719      2      235      236      241      243
     720      2      235      236      241      244
     721      2      236      241      242      245
     722      2      236      241      242      246
     723      1      236      241      242      247
     724      3      237      235      236      239
     725      3      237      235      236      240
     726      2      237      235      236      241
     727      3      238      235      236      239
     728      3      238      235      236      240
     729      2      238      235      236      241
     730      2      239      236      241      242
     731      3      239      236      241      243
     732      3      239      236      241      244
     733      2      240      236      241      242
     734      3      240      236      241      243
     735      3      240      236      241      244
     736      1      241      242      247      248
     737      2      241      242      247      249
     738      2      241      242      247      250
     739      2      242      247      248      251
     740      2      242      247      248      252
     741      1      242      247      248      253
     742      3      243      241      242      245
     743      3      243      241      242      246
     744      2      243      241      242      247
     745      3      244      241      242      245
     746      3      244      241      242      246
     747      2      244      241      242      247
     748      2      245      242      247      248
     749      3      245      242      247      249
     750      3      245      242      247      250
     751      2      246      242      247      248
     752      3      246      242      247      249
     753      3      246      242      247      250
     754      1      247      248      253      254
     755      2      247      248      253      255
     756      2      247      248      253      256
     757      2      248      253      254      257
     758      2      248      253      254      258
     759      1      248      253      254      259
     760      3      249      247      248      251
     761      3      249      247      248      252
     762      2      249      247      248      253
     763      3      250      247      248      251
     764      3      250      247      248      252
     765      2      250      247      248      253
     766      2      251      248      253      254
     767      3      251      248      253      255
     768      3      251      248      253      256
     769      2      252      248      253      254
     770      3      252      248      253      255
     771      3      252      248      253      256
     772      1      253      254      259      260
     773      2      253      254      259      261
     774      2      253      254      259      262
     775      2      254      259      260      263
     776      2      254      259      260      264
     777      1      254      259      260      266
     778      3      255      253      254      257
     779      3      255      253      254      258
     780      2      255      253      254      259
     781      3      256      253      254      257
     782      3      256      253      254      258
     783      2      256      253      254      259
     784      2      257      254      259      260
     785      3      257      254      259      261
     786      3      257      254      259      262
     787      2      258      254      259      260
     788      3      258      254      259      261
     789      3      258      254      259      262
     790      1      259      260      266      265
     791      2      259      260      266      269
     792      2      259      260      266      270
     793      2      260      266      265      267
     794      2      260      266      265      268
     795      3      261      259      260      263
     796      3      261      259      260      264
     797      2      261      259      260      266
     798      3      262      259      260      263
     799      3      262      259      260      264
     800      2      262      259      260      266
     801      2      263      260      266      265
     802      3      263      260      266      269
     803      3      263      260      266      270
     804      2      264      260      266      265
     805      3      264      260      266      269
     806      3      264      260      266      270
     807      3      267      265      266      269
     808      3      267      265      266      270
     809      3      268      265      266      269
     810      3      268      265      266      270

Impropers


