LAMMPS data file generated by clean-room 1-hop pipeline

     208 atoms
     224 bonds
     378 angles
     562 dihedrals
     102 impropers

       7 atom types
      10 bond types
      23 angle types
      40 dihedral types
      10 improper types

  -30.410300    33.537800 xlo xhi
  -34.030100    35.981600 ylo yhi
  -29.195900    32.736800 zlo zhi

Masses

       1    12.011000
       2    12.011000
       3    12.011000
       4    12.011000
       5    12.011000
       6     1.008000
       7     1.008000

Pair Coeffs

       1     0.070000     3.550000
       2     0.070000     3.550000
       3     0.070000     3.550000
       4     0.066000     3.500000
       5     0.066000     3.500000
       6     0.030000     2.420000
       7     0.030000     2.500000

Bond Coeffs

       1   469.000000     1.400000
       2   469.000000     1.400000
       3   317.000000     1.510000
       4   469.000000     1.400000
       5   469.000000     1.400000
       6   367.000000     1.080000
       7   385.000000     1.460000
       8   268.000000     1.529000
       9   340.000000     1.090000
      10   340.000000     1.090000

Angle Coeffs

       1    63.000000   120.000000
       2    63.000000   120.000000
       3    35.000000   120.000000
       4    63.000000   120.000000
       5    63.000000   120.000000
       6    63.000000   114.000000
       7    35.000000   109.500000
       8    63.000000   120.000000
       9    63.000000   120.000000
      10    70.000000   120.000000
      11    63.000000   120.000000
      12    63.000000   120.000000
      13    35.000000   120.000000
      14    63.000000   120.000000
      15    63.000000   120.000000
      16    70.000000   120.000000
      17    63.000000   120.000000
      18    35.000000   120.000000
      19    63.000000   120.000000
      20    37.500000   110.700000
      21    37.500000   110.700000
      22    33.000000   107.800000
      23    33.000000   107.800000

Dihedral Coeffs

       1     0.000000     7.250000     0.000000     0.000000
       2     0.000000     7.250000     0.000000     0.000000
       3     0.000000     7.250000     0.000000     0.000000
       4     0.000000     7.250000     0.000000     0.000000
       5     0.000000     7.250000     0.000000     0.000000
       6     0.000000     7.250000     0.000000     0.000000
       7     0.000000     1.650000     0.000000    -0.050000
       8     0.000000     1.650000     0.000000    -0.050000
       9     0.000000     0.000000     0.462000     0.000000
      10     0.000000     7.250000     0.000000     0.000000
      11     0.000000     7.250000     0.000000     0.000000
      12     0.000000     7.250000     0.000000     0.000000
      13     0.000000     7.250000     0.000000     0.000000
      14    -0.250000     0.000000     0.000000     0.000000
      15     0.000000     0.000000     0.000000     0.000000
      16     0.000000     7.250000     0.000000     0.000000
      17     0.000000     7.250000     0.000000     0.000000
      18     0.000000     7.250000     0.000000     0.000000
      19     0.000000     7.250000     0.000000     0.000000
      20     0.000000     7.250000     0.000000     0.000000
      21     0.000000     7.250000     0.000000     0.000000
      22     0.000000     7.250000     0.000000     0.000000
      23     0.000000     7.250000     0.000000     0.000000
      24     0.000000     7.250000     0.000000     0.000000
      25     0.000000     1.650000     0.000000    -0.050000
      26     0.000000     1.650000     0.000000    -0.050000
      27     0.000000     7.250000     0.000000     0.000000
      28     0.000000     7.250000     0.000000     0.000000
      29    -0.250000     0.000000     0.000000     0.000000
      30     0.000000     0.000000     0.000000     0.000000
      31     0.000000     7.250000     0.000000     0.000000
      32     0.000000     7.250000     0.000000     0.000000
      33     0.000000     7.250000     0.000000     0.000000
      34     0.000000     7.250000     0.000000     0.000000
      35     0.000000     7.250000     0.000000     0.000000
      36     0.000000     7.250000     0.000000     0.000000
      37     0.000000     1.650000     0.000000    -0.050000
      38     0.000000     7.250000     0.000000     0.000000
      39     0.000000     7.250000     0.000000     0.000000
      40     0.000000     0.000000     0.300000     0.000000

Improper Coeffs

       1     2.500000   -1    2
       2     2.500000   -1    2
       3     2.500000   -1    2
       4     2.500000   -1    2
       5     2.500000   -1    2
       6     2.500000   -1    2
       7     2.500000   -1    2
       8     2.500000   -1    2
       9     2.500000   -1    2
      10     2.500000   -1    2

Atoms

       1    1      3  -0.04026552     7.615800    10.861300    10.497500
       2    1      2  -0.14852816     6.623600    12.032500    10.620500
       3    1      2  -0.14852816     7.003100    13.280600    11.438900
       4    1      2  -0.14852816     8.372600    13.354900    12.138700
       5    1      2  -0.14852816     9.355700    12.173900    12.034200
       6    1      2  -0.14852816     8.975000    10.924800    11.217700
       7    1      6   0.16684702     5.614200    11.981600    10.092900
       8    1      6   0.16684702     6.272300    14.151700    11.522400
       9    1      6   0.16684702     8.657400    14.282500    12.736800
      10    1      6   0.16684702    10.366800    12.226100    12.557800
      11    1      6   0.16684702     9.706200    10.054400    11.132100
      12    1      3  -0.04026552     9.638300     6.797500     5.832000
      13    1      2  -0.14852816     9.895400     8.008800     6.748700
      14    1      2  -0.14852816    11.312100     8.294300     7.279400
      15    1      2  -0.14852816    12.487900     7.395500     6.857200
      16    1      2  -0.14852816    12.245600     6.218000     5.896200
      17    1      2  -0.14852816    10.825100     5.927200     5.375500
      18    1      6   0.16684702     9.038300     8.710600     7.016900
      19    1      6   0.16684702    11.491900     9.178900     7.976000
      20    1      6   0.16684702    13.537800     7.606500     7.248300
      21    1      6   0.16684702    13.118400     5.563200     5.566800
      22    1      6   0.16684702    10.651400     5.065500     4.649700
      23    1      3  -0.04026552     8.498700    11.960400     1.012100
      24    1      2  -0.14852816     7.455200    13.085100     1.152300
      25    1      2  -0.14852816     7.913700    14.552300     1.263100
      26    1      2  -0.14852816     9.414300    14.896600     1.218200
      27    1      2  -0.14852816    10.455900    13.774900     1.051500
      28    1      2  -0.14852816     9.998100    12.307700     0.948800
      29    1      6   0.16684702     6.344900    12.829800     1.194700
      30    1      6   0.16684702     7.142200    15.383100     1.381900
      31    1      6   0.16684702     9.753700    15.981600     1.303900
      32    1      6   0.16684702    11.565900    14.030100     1.008000
      33    1      6   0.16684702    10.770500    11.476100     0.840200
      34    1      3  -0.04026552     1.955200     9.606500     1.335400
      35    1      2  -0.14852816     2.592800    10.854900     1.970400
      36    1      2  -0.14852816     2.185800    12.256900     1.478700
      37    1      2  -0.14852816     1.136200    12.408200     0.361000
      38    1      2  -0.14852816     0.479400    11.158700    -0.253900
      39    1      2  -0.14852816     0.885200     9.758400     0.238300
      40    1      6   0.16684702     3.379700    10.741500     2.787000
      41    1      6   0.16684702     2.666000    13.183000     1.937800
      42    1      6   0.16684702     0.843300    13.446000    -0.008700
      43    1      6   0.16684702    -0.303200    11.270500    -1.075200
      44    1      6   0.16684702     0.408800     8.831300    -0.223600
      45    1      3  -0.04026552    -3.900500     0.700300    -5.718500
      46    1      2  -0.14852816    -4.796700     1.754600    -6.396400
      47    1      2  -0.14852816    -5.593000     1.397500    -7.663800
      48    1      2  -0.14852816    -5.498400    -0.020200    -8.254300
      49    1      2  -0.14852816    -4.612400    -1.080100    -7.572700
      50    1      2  -0.14852816    -3.813100    -0.721500    -6.304800
      51    1      6   0.16684702    -4.861300     2.807000    -5.962100
      52    1      6   0.16684702    -6.249100     2.182800    -8.166200
      53    1      6   0.16684702    -6.083700    -0.285700    -9.195900
      54    1      6   0.16684702    -4.545300    -2.131100    -8.009000
      55    1      6   0.16684702    -3.154900    -1.506500    -5.809500
      56    1      3  -0.04026552    -5.815500   -10.363400     2.343400
      57    1      2  -0.14852816    -5.110600   -11.725700     2.196100
      58    1      2  -0.14852816    -5.937700   -13.022800     2.124300
      59    1      2  -0.14852816    -7.474600   -12.959100     2.179700
      60    1      2  -0.14852816    -8.183300   -11.596700     2.288100
      61    1      2  -0.14852816    -7.355100   -10.299500     2.354300
      62    1      6   0.16684702    -3.972600   -11.773500     2.147400
      63    1      6   0.16684702    -5.411800   -14.030100     2.031300
      64    1      6   0.16684702    -8.087500   -13.919100     2.133000
      65    1      6   0.16684702    -9.321900   -11.547800     2.316200
      66    1      6   0.16684702    -7.882500    -9.290500     2.410300
      67    1      3  -0.04026552    -6.853800    -7.658500     3.670000
      68    1      2  -0.14852816    -7.591700    -6.316700     3.828600
      69    1      2  -0.14852816    -8.891700    -6.242800     4.651900
      70    1      2  -0.14852816    -9.444000    -7.506900     5.336200
      71    1      2  -0.14852816    -8.685300    -8.840200     5.213400
      72    1      2  -0.14852816    -7.383600    -8.911000     4.394700
      73    1      6   0.16684702    -7.179600    -5.378600     3.328800
      74    1      6   0.16684702    -9.446000    -5.251800     4.753600
      75    1      6   0.16684702   -10.410300    -7.453800     5.938700
      76    1      6   0.16684702    -9.085100    -9.774000     5.730800
      77    1      6   0.16684702    -6.809900    -9.893400     4.324600
      78    1      3  -0.04026552     7.282100     9.664400     9.588200
      79    1      2  -0.14852816     8.298600     8.521800     9.409400
      80    1      2  -0.14852816     8.100200     7.495800     8.277700
      81    1      3  -0.04026552     6.922800     7.661700     7.299400
      82    1      2  -0.14852816     5.776600     8.626300     7.654000
      83    1      2  -0.14852816     5.964600     9.646300     8.791900
      84    1      6   0.16684702     9.221600     8.467700    10.076300
      85    1      6   0.16684702     8.872700     6.674300     8.109300
      86    1      6   0.16684702     4.828800     8.644800     7.020500
      87    1      6   0.16684702     5.156600    10.421600     9.005100
      88    1      3  -0.04026552     7.238000     7.650300     1.849400
      89    1      2  -0.14852816     8.699200     7.936300     1.454800
      90    1      2  -0.14852816     9.111800     9.364300     1.049100
      91    1      3  -0.04026552     8.054800    10.483600     1.027400
      92    1      2  -0.14852816     6.560900    10.117100     1.114400
      93    1      2  -0.14852816     6.149800     8.675700     1.478600
      94    1      6   0.16684702     9.491400     7.125200     1.572300
      95    1      6   0.16684702    10.206900     9.607500     0.843400
      96    1      6   0.16684702     5.765100    10.919400     0.964100
      97    1      6   0.16684702     5.050000     8.403800     1.572000
      98    1      3  -0.04026552     0.793200    -3.893600    -1.503400
      99    1      2  -0.14852816    -0.507800    -4.652900    -1.171400
     100    1      2  -0.14852816    -0.674200    -6.126600    -1.580400
     101    1      1  -0.08854052     0.443000    -6.837100    -2.362000
     102    1      2  -0.14852816     1.705800    -6.056600    -2.775300
     103    1      2  -0.14852816     1.884200    -4.587100    -2.341200
     104    1      6   0.16684702    -1.345700    -4.125300    -0.607300
     105    1      6   0.16684702    -1.624400    -6.692400    -1.301900
     106    1      6   0.16684702     2.512300    -6.568900    -3.397200
     107    1      6   0.16684702     2.825800    -4.015600    -2.635200
     108    1      3  -0.04026552    -0.786100    -2.814900     0.866900
     109    1      2  -0.14852816    -0.107600    -4.153900     1.202600
     110    1      2  -0.14852816    -0.944900    -5.348300     1.673200
     111    1      3  -0.04026552    -2.464500    -5.203700     1.844200
     112    1      2  -0.14852816    -3.103900    -3.797000     1.764600
     113    1      2  -0.14852816    -2.257800    -2.590800     1.276200
     114    1      6   0.16684702     1.010100    -4.283300     1.020300
     115    1      6   0.16684702    -0.442500    -6.353800     1.860200
     116    1      6   0.16684702    -4.209200    -3.658200     2.007400
     117    1      6   0.16684702    -2.739700    -1.565900     1.148800
     118    1      3  -0.04026552     6.921900     6.976800     5.915600
     119    1      3  -0.04026552     8.242500     6.553500     5.215600
     120    1      2  -0.14852816     8.184300     6.130300     3.740800
     121    1      3  -0.04026552     6.965100     6.592200     2.937900
     122    1      3  -0.04026552     5.594800     6.560600     3.634800
     123    1      2  -0.14852816     5.581300     6.832800     5.152600
     124    1      6   0.16684702     9.129300     5.782800     3.206000
     125    1      6   0.16684702     4.592900     7.005400     5.694400
     126    1      3  -0.04026552     1.982200     4.553400     0.078500
     127    1      1  -0.08854052     1.361200     5.134700    -1.196200
     128    1      2  -0.14852816     0.318800     4.339400    -1.965900
     129    1      3  -0.04026552     0.019000     2.887800    -1.589500
     130    1      3  -0.04026552     0.909700     2.164700    -0.548100
     131    1      2  -0.14852816     1.863300     3.023600     0.347900
     132    1      6   0.16684702    -0.218800     4.818600    -2.847500
     133    1      6   0.16684702     2.444000     2.539800     1.201400
     134    1      3  -0.04026552    -1.116100     2.213400    -2.380300
     135    1      1  -0.08854052    -2.184500     3.135600    -2.997900
     136    1      2  -0.14852816    -3.149000     2.596100    -4.057400
     137    1      3  -0.04026552    -3.064200     1.129100    -4.495700
     138    1      1  -0.08854052    -2.129200     0.154700    -3.738400
     139    1      2  -0.14852816    -1.150000     0.699900    -2.670200
     140    1      6   0.16684702    -3.906900     3.293700    -4.546400
     141    1      6   0.16684702    -0.425100    -0.003900    -2.141200
     142    1      3  -0.04026552     0.983700     0.615700    -0.560100
     143    1      1  -0.08854052     2.080200    -0.040900    -1.420300
     144    1      2  -0.14852816     2.072200    -1.557400    -1.674000
     145    1      3  -0.04026552     0.973000    -2.426300    -1.048200
     146    1      3  -0.04026552     0.011600    -1.819100    -0.007700
     147    1      2  -0.14852816    -0.061700    -0.278200     0.163700
     148    1      6   0.16684702     2.848900    -2.026700    -2.363900
     149    1      6   0.16684702    -0.851900     0.190000     0.839400
     150    1      3  -0.04026552    -3.312600    -6.482900     2.046800
     151    1      1  -0.08854052    -2.696100    -7.853400     1.693900
     152    1      2  -0.14852816    -3.518000    -9.141000     1.866400
     153    1      3  -0.04026552    -4.963000    -9.075200     2.385300
     154    1      3  -0.04026552    -5.542500    -7.720400     2.857600
     155    1      2  -0.14852816    -4.754200    -6.415700     2.593900
     156    1      6   0.16684702    -3.070500   -10.144300     1.560500
     157    1      6   0.16684702    -5.215300    -5.408300     2.861400
     158    1      3  -0.04026552     4.288700     6.637400     2.815100
     159    1      2  -0.14852816     3.565300     7.995700     2.738500
     160    1      3  -0.04026552     2.446100     8.199100     1.712000
     161    1      2  -0.14852816     1.888600     6.998100     0.949900
     162    1      3  -0.04026552     2.544300     5.612600     1.058700
     163    1      2  -0.14852816     3.757200     5.417700     2.003000
     164    1      6   0.16684702     3.930000     8.874000     3.367100
     165    1      6   0.16684702     1.005100     7.145100     0.245300
     166    1      6   0.16684702     4.273400     4.404200     2.079000
     167    1      5  -0.26006639     0.487200     7.398400    -1.828700
     168    1      4  -0.14101760     1.756400     6.540100    -1.689800
     169    1      7   0.10179457    -0.014800     7.488300    -0.809200
     170    1      7   0.10179457     0.766600     8.437100    -2.206700
     171    1      7   0.10179457    -0.227500     6.900600    -2.564600
     172    1      7   0.10179457     2.479500     7.029500    -0.958200
     173    1      7   0.10179457     2.262400     6.449100    -2.707200
     174    1      5  -0.26006639    -1.918300     5.549200    -3.689000
     175    1      4  -0.14101760    -2.307200     4.601900    -2.538600
     176    1      7   0.10179457    -0.842000     5.349600    -4.007300
     177    1      7   0.10179457    -2.615500     5.368700    -4.572300
     178    1      7   0.10179457    -2.016900     6.630200    -3.340100
     179    1      7   0.10179457    -1.634000     4.783500    -1.637600
     180    1      7   0.10179457    -3.388400     4.808600    -2.242700
     181    1      5  -0.26006639    -3.547100    -1.909100    -3.725200
     182    1      4  -0.14101760    -2.150700    -1.350000    -4.058000
     183    1      7   0.10179457    -3.579100    -3.023400    -3.963700
     184    1      7   0.10179457    -3.765400    -1.749300    -2.617800
     185    1      7   0.10179457    -4.331800    -1.364500    -4.347100
     186    1      7   0.10179457    -1.923100    -1.507000    -5.163800
     187    1      7   0.10179457    -1.365600    -1.885500    -3.428500
     188    1      5  -0.26006639     2.508900     1.649100    -3.216600
     189    1      4  -0.14101760     3.156500     0.839800    -2.077300
     190    1      7   0.10179457     3.298900     2.303000    -3.713600
     191    1      7   0.10179457     2.067400     0.934300    -3.987500
     192    1      7   0.10179457     1.681300     2.308600    -2.792800
     193    1      7   0.10179457     3.590200     1.553100    -1.301300
     194    1      7   0.10179457     3.985200     0.180300    -2.498700
     195    1      5  -0.26006639     1.032200    -8.536200    -4.113500
     196    1      4  -0.14101760     0.256400    -8.300300    -2.805100
     197    1      7   0.10179457     0.900100    -9.619100    -4.445000
     198    1      7   0.10179457     0.632500    -7.839100    -4.922000
     199    1      7   0.10179457     2.138400    -8.321700    -3.940800
     200    1      7   0.10179457     0.652400    -8.996400    -1.993700
     201    1      7   0.10179457    -0.851600    -8.508700    -2.975400
     202    1      5  -0.26006639    -1.305700    -9.122100     0.031900
     203    1      4  -0.14101760    -1.319300    -7.931000     1.007800
     204    1      7   0.10179457    -0.291300    -9.178800    -0.486100
     205    1      7   0.10179457    -1.497200   -10.086700     0.608900
     206    1      7   0.10179457    -2.122600    -8.979300    -0.750100
     207    1      7   0.10179457    -1.131600    -6.971900     0.421400
     208    1      7   0.10179457    -0.504700    -8.064000     1.794000

Bonds

       1      5        1        2
       2      7        1       78
       3      4        2        3
       4      6        2        7
       5      4        3        4
       6      6        3        8
       7      4        4        5
       8      6        4        9
       9      4        5        6
      10      6        5       10
      11      5        6        1
      12      6        6       11
      13      5       12       13
      14      7       12      119
      15      4       13       14
      16      6       13       18
      17      4       14       15
      18      6       14       19
      19      4       15       16
      20      6       15       20
      21      4       16       17
      22      6       16       21
      23      5       17       12
      24      6       17       22
      25      5       23       24
      26      7       23       91
      27      4       24       25
      28      6       24       29
      29      4       25       26
      30      6       25       30
      31      4       26       27
      32      6       26       31
      33      4       27       28
      34      6       27       32
      35      5       28       23
      36      6       28       33
      37      5       34       35
      38      7       34      160
      39      4       35       36
      40      6       35       40
      41      4       36       37
      42      6       36       41
      43      4       37       38
      44      6       37       42
      45      4       38       39
      46      6       38       43
      47      5       39       34
      48      6       39       44
      49      5       45       46
      50      7       45      137
      51      4       46       47
      52      6       46       51
      53      4       47       48
      54      6       47       52
      55      4       48       49
      56      6       48       53
      57      4       49       50
      58      6       49       54
      59      5       50       45
      60      6       50       55
      61      5       56       57
      62      7       56      153
      63      4       57       58
      64      6       57       62
      65      4       58       59
      66      6       58       63
      67      4       59       60
      68      6       59       64
      69      4       60       61
      70      6       60       65
      71      5       61       56
      72      6       61       66
      73      5       67       68
      74      7       67      154
      75      4       68       69
      76      6       68       73
      77      4       69       70
      78      6       69       74
      79      4       70       71
      80      6       70       75
      81      4       71       72
      82      6       71       76
      83      5       72       67
      84      6       72       77
      85      5       78       79
      86      4       79       80
      87      6       79       84
      88      5       80       81
      89      6       80       85
      90      5       81       82
      91      7       81      118
      92      4       82       83
      93      6       82       86
      94      5       83       78
      95      6       83       87
      96      5       88       89
      97      7       88      121
      98      4       89       90
      99      6       89       94
     100      5       90       91
     101      6       90       95
     102      5       91       92
     103      4       92       93
     104      6       92       96
     105      5       93       88
     106      6       93       97
     107      5       98       99
     108      7       98      145
     109      4       99      100
     110      6       99      104
     111      1      100      101
     112      6      100      105
     113      1      101      102
     114      3      101      196
     115      4      102      103
     116      6      102      106
     117      5      103       98
     118      6      103      107
     119      5      108      109
     120      7      108      146
     121      4      109      110
     122      6      109      114
     123      5      110      111
     124      6      110      115
     125      5      111      112
     126      7      111      150
     127      4      112      113
     128      6      112      116
     129      5      113      108
     130      6      113      117
     131      7      118      119
     132      5      119      120
     133      5      120      121
     134      6      120      124
     135      7      121      122
     136      5      122      123
     137      7      122      158
     138      5      123      118
     139      6      123      125
     140      2      126      127
     141      7      126      162
     142      1      127      128
     143      3      127      168
     144      5      128      129
     145      6      128      132
     146      7      129      130
     147      7      129      134
     148      5      130      131
     149      7      130      142
     150      5      131      126
     151      6      131      133
     152      2      134      135
     153      1      135      136
     154      3      135      175
     155      5      136      137
     156      6      136      140
     157      2      137      138
     158      1      138      139
     159      3      138      182
     160      5      139      134
     161      6      139      141
     162      2      142      143
     163      1      143      144
     164      3      143      189
     165      5      144      145
     166      6      144      148
     167      7      145      146
     168      5      146      147
     169      5      147      142
     170      6      147      149
     171      2      150      151
     172      1      151      152
     173      3      151      203
     174      5      152      153
     175      6      152      156
     176      7      153      154
     177      5      154      155
     178      5      155      150
     179      6      155      157
     180      5      158      159
     181      5      159      160
     182      6      159      164
     183      5      160      161
     184      5      161      162
     185      6      161      165
     186      5      162      163
     187      5      163      158
     188      6      163      166
     189      8      167      168
     190     10      167      169
     191     10      167      170
     192     10      167      171
     193      9      168      172
     194      9      168      173
     195      8      174      175
     196     10      174      176
     197     10      174      177
     198     10      174      178
     199      9      175      179
     200      9      175      180
     201      8      181      182
     202     10      181      183
     203     10      181      184
     204     10      181      185
     205      9      182      186
     206      9      182      187
     207      8      188      189
     208     10      188      190
     209     10      188      191
     210     10      188      192
     211      9      189      193
     212      9      189      194
     213      8      195      196
     214     10      195      197
     215     10      195      198
     216     10      195      199
     217      9      196      200
     218      9      196      201
     219      8      202      203
     220     10      202      204
     221     10      202      205
     222     10      202      206
     223      9      203      207
     224      9      203      208

Angles

       1     12        1        2        3
       2     18        1        2        7
       3     12        1        6        5
       4     18        1        6       11
       5     15        1       78       79
       6     15        1       78       83
       7     14        2        1        6
       8     15        2        1       78
       9     11        2        3        4
      10     13        2        3        8
      11     13        3        2        7
      12     11        3        4        5
      13     13        3        4        9
      14     13        4        3        8
      15     11        4        5        6
      16     13        4        5       10
      17     13        5        4        9
      18     13        5        6       11
      19     15        6        1       78
      20     13        6        5       10
      21     12       12       13       14
      22     18       12       13       18
      23     12       12       17       16
      24     18       12       17       22
      25     19       12      119      118
      26     15       12      119      120
      27     14       13       12       17
      28     15       13       12      119
      29     11       13       14       15
      30     13       13       14       19
      31     13       14       13       18
      32     11       14       15       16
      33     13       14       15       20
      34     13       15       14       19
      35     11       15       16       17
      36     13       15       16       21
      37     13       16       15       20
      38     13       16       17       22
      39     15       17       12      119
      40     13       17       16       21
      41     12       23       24       25
      42     18       23       24       29
      43     12       23       28       27
      44     18       23       28       33
      45     15       23       91       90
      46     15       23       91       92
      47     14       24       23       28
      48     15       24       23       91
      49     11       24       25       26
      50     13       24       25       30
      51     13       25       24       29
      52     11       25       26       27
      53     13       25       26       31
      54     13       26       25       30
      55     11       26       27       28
      56     13       26       27       32
      57     13       27       26       31
      58     13       27       28       33
      59     15       28       23       91
      60     13       28       27       32
      61     12       34       35       36
      62     18       34       35       40
      63     12       34       39       38
      64     18       34       39       44
      65     15       34      160      159
      66     15       34      160      161
      67     14       35       34       39
      68     15       35       34      160
      69     11       35       36       37
      70     13       35       36       41
      71     13       36       35       40
      72     11       36       37       38
      73     13       36       37       42
      74     13       37       36       41
      75     11       37       38       39
      76     13       37       38       43
      77     13       38       37       42
      78     13       38       39       44
      79     15       39       34      160
      80     13       39       38       43
      81     12       45       46       47
      82     18       45       46       51
      83     12       45       50       49
      84     18       45       50       55
      85     15       45      137      136
      86      5       45      137      138
      87     14       46       45       50
      88     15       46       45      137
      89     11       46       47       48
      90     13       46       47       52
      91     13       47       46       51
      92     11       47       48       49
      93     13       47       48       53
      94     13       48       47       52
      95     11       48       49       50
      96     13       48       49       54
      97     13       49       48       53
      98     13       49       50       55
      99     15       50       45      137
     100     13       50       49       54
     101     12       56       57       58
     102     18       56       57       62
     103     12       56       61       60
     104     18       56       61       66
     105     15       56      153      152
     106     19       56      153      154
     107     14       57       56       61
     108     15       57       56      153
     109     11       57       58       59
     110     13       57       58       63
     111     13       58       57       62
     112     11       58       59       60
     113     13       58       59       64
     114     13       59       58       63
     115     11       59       60       61
     116     13       59       60       65
     117     13       60       59       64
     118     13       60       61       66
     119     15       61       56      153
     120     13       61       60       65
     121     12       67       68       69
     122     18       67       68       73
     123     12       67       72       71
     124     18       67       72       77
     125     19       67      154      153
     126     15       67      154      155
     127     14       68       67       72
     128     15       68       67      154
     129     11       68       69       70
     130     13       68       69       74
     131     13       69       68       73
     132     11       69       70       71
     133     13       69       70       75
     134     13       70       69       74
     135     11       70       71       72
     136     13       70       71       76
     137     13       71       70       75
     138     13       71       72       77
     139     15       72       67      154
     140     13       72       71       76
     141     12       78       79       80
     142     18       78       79       84
     143     12       78       83       82
     144     18       78       83       87
     145     14       79       78       83
     146     12       79       80       81
     147     13       79       80       85
     148     13       80       79       84
     149     14       80       81       82
     150     15       80       81      118
     151     18       81       80       85
     152     12       81       82       83
     153     18       81       82       86
     154     19       81      118      119
     155     15       81      118      123
     156     15       82       81      118
     157     13       82       83       87
     158     13       83       82       86
     159     12       88       89       90
     160     18       88       89       94
     161     12       88       93       92
     162     18       88       93       97
     163     15       88      121      120
     164     19       88      121      122
     165     14       89       88       93
     166     15       89       88      121
     167     12       89       90       91
     168     13       89       90       95
     169     13       90       89       94
     170     14       90       91       92
     171     18       91       90       95
     172     12       91       92       93
     173     18       91       92       96
     174     13       92       93       97
     175     15       93       88      121
     176     13       93       92       96
     177     12       98       99      100
     178     18       98       99      104
     179     12       98      103      102
     180     18       98      103      107
     181     15       98      145      144
     182     19       98      145      146
     183     14       99       98      103
     184     15       99       98      145
     185      1       99      100      101
     186     13       99      100      105
     187     13      100       99      104
     188      8      100      101      102
     189     10      100      101      196
     190      3      101      100      105
     191      1      101      102      103
     192      3      101      102      106
     193      6      101      196      195
     194      7      101      196      200
     195      7      101      196      201
     196     10      102      101      196
     197     13      102      103      107
     198     15      103       98      145
     199     13      103      102      106
     200     12      108      109      110
     201     18      108      109      114
     202     12      108      113      112
     203     18      108      113      117
     204     19      108      146      145
     205     15      108      146      147
     206     14      109      108      113
     207     15      109      108      146
     208     12      109      110      111
     209     13      109      110      115
     210     13      110      109      114
     211     14      110      111      112
     212     15      110      111      150
     213     18      111      110      115
     214     12      111      112      113
     215     18      111      112      116
     216      5      111      150      151
     217     15      111      150      155
     218     15      112      111      150
     219     13      112      113      117
     220     15      113      108      146
     221     13      113      112      116
     222     15      118      119      120
     223     17      118      123      122
     224     18      118      123      125
     225     15      119      118      123
     226     17      119      120      121
     227     18      119      120      124
     228     15      120      121      122
     229     18      121      120      124
     230     15      121      122      123
     231     19      121      122      158
     232     18      122      123      125
     233     15      122      158      159
     234     15      122      158      163
     235     15      123      122      158
     236      9      126      127      128
     237     16      126      127      168
     238     17      126      131      130
     239     18      126      131      133
     240     15      126      162      161
     241     15      126      162      163
     242      4      127      126      131
     243      5      127      126      162
     244      2      127      128      129
     245      3      127      128      132
     246      6      127      168      167
     247      7      127      168      172
     248      7      127      168      173
     249     10      128      127      168
     250     15      128      129      130
     251     15      128      129      134
     252     18      129      128      132
     253     15      129      130      131
     254     19      129      130      142
     255      5      129      134      135
     256     15      129      134      139
     257     19      130      129      134
     258     18      130      131      133
     259      5      130      142      143
     260     15      130      142      147
     261     15      131      126      162
     262     15      131      130      142
     263      9      134      135      136
     264     16      134      135      175
     265      2      134      139      138
     266     18      134      139      141
     267      4      135      134      139
     268      2      135      136      137
     269      3      135      136      140
     270      6      135      175      174
     271      7      135      175      179
     272      7      135      175      180
     273     10      136      135      175
     274      4      136      137      138
     275     18      137      136      140
     276      9      137      138      139
     277     16      137      138      182
     278      3      138      139      141
     279      6      138      182      181
     280      7      138      182      186
     281      7      138      182      187
     282     10      139      138      182
     283      9      142      143      144
     284     16      142      143      189
     285     17      142      147      146
     286     18      142      147      149
     287      4      143      142      147
     288      2      143      144      145
     289      3      143      144      148
     290      6      143      189      188
     291      7      143      189      193
     292      7      143      189      194
     293     10      144      143      189
     294     15      144      145      146
     295     18      145      144      148
     296     15      145      146      147
     297     18      146      147      149
     298      9      150      151      152
     299     16      150      151      203
     300     17      150      155      154
     301     18      150      155      157
     302      4      151      150      155
     303      2      151      152      153
     304      3      151      152      156
     305      6      151      203      202
     306      7      151      203      207
     307      7      151      203      208
     308     10      152      151      203
     309     15      152      153      154
     310     18      153      152      156
     311     15      153      154      155
     312     18      154      155      157
     313     17      158      159      160
     314     18      158      159      164
     315     17      158      163      162
     316     18      158      163      166
     317     14      159      158      163
     318     14      159      160      161
     319     18      160      159      164
     320     17      160      161      162
     321     18      160      161      165
     322     14      161      162      163
     323     18      162      161      165
     324     18      162      163      166
     325     21      167      168      172
     326     21      167      168      173
     327     20      168      167      169
     328     20      168      167      170
     329     20      168      167      171
     330     23      169      167      170
     331     23      169      167      171
     332     23      170      167      171
     333     22      172      168      173
     334     21      174      175      179
     335     21      174      175      180
     336     20      175      174      176
     337     20      175      174      177
     338     20      175      174      178
     339     23      176      174      177
     340     23      176      174      178
     341     23      177      174      178
     342     22      179      175      180
     343     21      181      182      186
     344     21      181      182      187
     345     20      182      181      183
     346     20      182      181      184
     347     20      182      181      185
     348     23      183      181      184
     349     23      183      181      185
     350     23      184      181      185
     351     22      186      182      187
     352     21      188      189      193
     353     21      188      189      194
     354     20      189      188      190
     355     20      189      188      191
     356     20      189      188      192
     357     23      190      188      191
     358     23      190      188      192
     359     23      191      188      192
     360     22      193      189      194
     361     21      195      196      200
     362     21      195      196      201
     363     20      196      195      197
     364     20      196      195      198
     365     20      196      195      199
     366     23      197      195      198
     367     23      197      195      199
     368     23      198      195      199
     369     22      200      196      201
     370     21      202      203      207
     371     21      202      203      208
     372     20      203      202      204
     373     20      203      202      205
     374     20      203      202      206
     375     23      204      202      205
     376     23      204      202      206
     377     23      205      202      206
     378     22      207      203      208

Dihedrals

       1     18        1        2        3        4
       2     33        1        2        3        8
       3     18        1        6        5        4
       4     33        1        6        5       10
       5     21        1       78       79       80
       6     36        1       78       79       84
       7     21        1       78       83       82
       8     36        1       78       83       87
       9     20        2        1        6        5
      10     24        2        1        6       11
      11     25        2        1       78       79
      12     25        2        1       78       83
      13     17        2        3        4        5
      14     19        2        3        4        9
      15     20        3        2        1        6
      16     21        3        2        1       78
      17     17        3        4        5        6
      18     19        3        4        5       10
      19     19        4        3        2        7
      20     19        4        5        6       11
      21     19        5        4        3        8
      22     21        5        6        1       78
      23     24        6        1        2        7
      24     25        6        1       78       79
      25     25        6        1       78       83
      26     19        6        5        4        9
      27     36        7        2        1       78
      28     39        7        2        3        8
      29     39        8        3        4        9
      30     39        9        4        5       10
      31     39       10        5        6       11
      32     36       11        6        1       78
      33     18       12       13       14       15
      34     33       12       13       14       19
      35     18       12       17       16       15
      36     33       12       17       16       21
      37     37       12      119      118       81
      38     26       12      119      118      123
      39     34       12      119      120      121
      40     36       12      119      120      124
      41     20       13       12       17       16
      42     24       13       12       17       22
      43     26       13       12      119      118
      44     25       13       12      119      120
      45     17       13       14       15       16
      46     19       13       14       15       20
      47     20       14       13       12       17
      48     21       14       13       12      119
      49     17       14       15       16       17
      50     19       14       15       16       21
      51     19       15       14       13       18
      52     19       15       16       17       22
      53     19       16       15       14       19
      54     21       16       17       12      119
      55     24       17       12       13       18
      56     26       17       12      119      118
      57     25       17       12      119      120
      58     19       17       16       15       20
      59     36       18       13       12      119
      60     39       18       13       14       19
      61     39       19       14       15       20
      62     39       20       15       16       21
      63     39       21       16       17       22
      64     36       22       17       12      119
      65     18       23       24       25       26
      66     33       23       24       25       30
      67     18       23       28       27       26
      68     33       23       28       27       32
      69     21       23       91       90       89
      70     36       23       91       90       95
      71     21       23       91       92       93
      72     36       23       91       92       96
      73     20       24       23       28       27
      74     24       24       23       28       33
      75     25       24       23       91       90
      76     25       24       23       91       92
      77     17       24       25       26       27
      78     19       24       25       26       31
      79     20       25       24       23       28
      80     21       25       24       23       91
      81     17       25       26       27       28
      82     19       25       26       27       32
      83     19       26       25       24       29
      84     19       26       27       28       33
      85     19       27       26       25       30
      86     21       27       28       23       91
      87     24       28       23       24       29
      88     25       28       23       91       90
      89     25       28       23       91       92
      90     19       28       27       26       31
      91     36       29       24       23       91
      92     39       29       24       25       30
      93     39       30       25       26       31
      94     39       31       26       27       32
      95     39       32       27       28       33
      96     36       33       28       23       91
      97     18       34       35       36       37
      98     33       34       35       36       41
      99     18       34       39       38       37
     100     33       34       39       38       43
     101     34       34      160      159      158
     102     36       34      160      159      164
     103     34       34      160      161      162
     104     36       34      160      161      165
     105     20       35       34       39       38
     106     24       35       34       39       44
     107     25       35       34      160      159
     108     25       35       34      160      161
     109     17       35       36       37       38
     110     19       35       36       37       42
     111     20       36       35       34       39
     112     21       36       35       34      160
     113     17       36       37       38       39
     114     19       36       37       38       43
     115     19       37       36       35       40
     116     19       37       38       39       44
     117     19       38       37       36       41
     118     21       38       39       34      160
     119     24       39       34       35       40
     120     25       39       34      160      159
     121     25       39       34      160      161
     122     19       39       38       37       42
     123     36       40       35       34      160
     124     39       40       35       36       41
     125     39       41       36       37       42
     126     39       42       37       38       43
     127     39       43       38       39       44
     128     36       44       39       34      160
     129     18       45       46       47       48
     130     33       45       46       47       52
     131     18       45       50       49       48
     132     33       45       50       49       54
     133      4       45      137      136      135
     134     36       45      137      136      140
     135     13       45      137      138      139
     136     35       45      137      138      182
     137     20       46       45       50       49
     138     24       46       45       50       55
     139     25       46       45      137      136
     140      7       46       45      137      138
     141     17       46       47       48       49
     142     19       46       47       48       53
     143     20       47       46       45       50
     144     21       47       46       45      137
     145     17       47       48       49       50
     146     19       47       48       49       54
     147     19       48       47       46       51
     148     19       48       49       50       55
     149     19       49       48       47       52
     150     21       49       50       45      137
     151     24       50       45       46       51
     152     25       50       45      137      136
     153      7       50       45      137      138
     154     19       50       49       48       53
     155     36       51       46       45      137
     156     39       51       46       47       52
     157     39       52       47       48       53
     158     39       53       48       49       54
     159     39       54       49       50       55
     160     36       55       50       45      137
     161     18       56       57       58       59
     162     33       56       57       58       63
     163     18       56       61       60       59
     164     33       56       61       60       65
     165      4       56      153      152      151
     166     36       56      153      152      156
     167     37       56      153      154       67
     168     26       56      153      154      155
     169     20       57       56       61       60
     170     24       57       56       61       66
     171     25       57       56      153      152
     172     26       57       56      153      154
     173     17       57       58       59       60
     174     19       57       58       59       64
     175     20       58       57       56       61
     176     21       58       57       56      153
     177     17       58       59       60       61
     178     19       58       59       60       65
     179     19       59       58       57       62
     180     19       59       60       61       66
     181     19       60       59       58       63
     182     21       60       61       56      153
     183     24       61       56       57       62
     184     25       61       56      153      152
     185     26       61       56      153      154
     186     19       61       60       59       64
     187     36       62       57       56      153
     188     39       62       57       58       63
     189     39       63       58       59       64
     190     39       64       59       60       65
     191     39       65       60       61       66
     192     36       66       61       56      153
     193     18       67       68       69       70
     194     33       67       68       69       74
     195     18       67       72       71       70
     196     33       67       72       71       76
     197     26       67      154      153      152
     198     34       67      154      155      150
     199     36       67      154      155      157
     200     20       68       67       72       71
     201     24       68       67       72       77
     202     26       68       67      154      153
     203     25       68       67      154      155
     204     17       68       69       70       71
     205     19       68       69       70       75
     206     20       69       68       67       72
     207     21       69       68       67      154
     208     17       69       70       71       72
     209     19       69       70       71       76
     210     19       70       69       68       73
     211     19       70       71       72       77
     212     19       71       70       69       74
     213     21       71       72       67      154
     214     24       72       67       68       73
     215     26       72       67      154      153
     216     25       72       67      154      155
     217     19       72       71       70       75
     218     36       73       68       67      154
     219     39       73       68       69       74
     220     39       74       69       70       75
     221     39       75       70       71       76
     222     39       76       71       72       77
     223     36       77       72       67      154
     224     32       78       79       80       81
     225     33       78       79       80       85
     226     32       78       83       82       81
     227     33       78       83       82       86
     228     20       79       78       83       82
     229     24       79       78       83       87
     230     20       79       80       81       82
     231     21       79       80       81      118
     232     20       80       79       78       83
     233     20       80       81       82       83
     234     24       80       81       82       86
     235     26       80       81      118      119
     236     25       80       81      118      123
     237     33       81       80       79       84
     238     33       81       82       83       87
     239     26       81      118      119      120
     240     34       81      118      123      122
     241     36       81      118      123      125
     242     24       82       81       80       85
     243     26       82       81      118      119
     244     25       82       81      118      123
     245     24       83       78       79       84
     246     21       83       82       81      118
     247     39       84       79       80       85
     248     36       85       80       81      118
     249     36       86       82       81      118
     250     39       86       82       83       87
     251     32       88       89       90       91
     252     33       88       89       90       95
     253     32       88       93       92       91
     254     33       88       93       92       96
     255     34       88      121      120      119
     256     36       88      121      120      124
     257     26       88      121      122      123
     258     37       88      121      122      158
     259     20       89       88       93       92
     260     24       89       88       93       97
     261     25       89       88      121      120
     262     26       89       88      121      122
     263     20       89       90       91       92
     264     20       90       89       88       93
     265     21       90       89       88      121
     266     20       90       91       92       93
     267     24       90       91       92       96
     268     33       91       90       89       94
     269     33       91       92       93       97
     270     24       92       91       90       95
     271     21       92       93       88      121
     272     24       93       88       89       94
     273     25       93       88      121      120
     274     26       93       88      121      122
     275     36       94       89       88      121
     276     39       94       89       90       95
     277     39       96       92       93       97
     278     36       97       93       88      121
     279      1       98       99      100      101
     280     33       98       99      100      105
     281      1       98      103      102      101
     282     33       98      103      102      106
     283      4       98      145      144      143
     284     36       98      145      144      148
     285     37       98      145      146      108
     286     26       98      145      146      147
     287     20       99       98      103      102
     288     24       99       98      103      107
     289     25       99       98      145      144
     290     26       99       98      145      146
     291     10       99      100      101      102
     292     16       99      100      101      196
     293     20      100       99       98      103
     294     21      100       99       98      145
     295     10      100      101      102      103
     296     11      100      101      102      106
     297     14      100      101      196      195
     298     15      100      101      196      200
     299     15      100      101      196      201
     300      2      101      100       99      104
     301      2      101      102      103      107
     302      9      101      196      195      197
     303      9      101      196      195      198
     304      9      101      196      195      199
     305     11      102      101      100      105
     306     14      102      101      196      195
     307     15      102      101      196      200
     308     15      102      101      196      201
     309     21      102      103       98      145
     310     24      103       98       99      104
     311     25      103       98      145      144
     312     26      103       98      145      146
     313     16      103      102      101      196
     314     36      104       99       98      145
     315     39      104       99      100      105
     316     38      105      100      101      196
     317     38      106      102      101      196
     318     39      106      102      103      107
     319     36      107      103       98      145
     320     32      108      109      110      111
     321     33      108      109      110      115
     322     32      108      113      112      111
     323     33      108      113      112      116
     324     26      108      146      145      144
     325     34      108      146      147      142
     326     36      108      146      147      149
     327     20      109      108      113      112
     328     24      109      108      113      117
     329     26      109      108      146      145
     330     25      109      108      146      147
     331     20      109      110      111      112
     332     21      109      110      111      150
     333     20      110      109      108      113
     334     21      110      109      108      146
     335     20      110      111      112      113
     336     24      110      111      112      116
     337      7      110      111      150      151
     338     25      110      111      150      155
     339     33      111      110      109      114
     340     33      111      112      113      117
     341     13      111      150      151      152
     342     35      111      150      151      203
     343     34      111      150      155      154
     344     36      111      150      155      157
     345     24      112      111      110      115
     346      7      112      111      150      151
     347     25      112      111      150      155
     348     21      112      113      108      146
     349     24      113      108      109      114
     350     26      113      108      146      145
     351     25      113      108      146      147
     352     21      113      112      111      150
     353     36      114      109      108      146
     354     39      114      109      110      115
     355     36      115      110      111      150
     356     36      116      112      111      150
     357     39      116      112      113      117
     358     36      117      113      108      146
     359     34      118      119      120      121
     360     36      118      119      120      124
     361     34      118      123      122      121
     362     34      118      123      122      158
     363     34      119      118      123      122
     364     36      119      118      123      125
     365     34      119      120      121      122
     366     25      120      119      118      123
     367     25      120      121      122      123
     368     26      120      121      122      158
     369     36      121      122      123      125
     370     26      121      122      158      159
     371     26      121      122      158      163
     372     36      122      121      120      124
     373     34      122      158      159      160
     374     36      122      158      159      164
     375     34      122      158      163      162
     376     36      122      158      163      166
     377     25      123      122      158      159
     378     25      123      122      158      163
     379     36      125      123      122      158
     380     27      126      127      128      129
     381     28      126      127      128      132
     382     29      126      127      168      167
     383     30      126      127      168      172
     384     30      126      127      168      173
     385     34      126      131      130      129
     386     34      126      131      130      142
     387     34      126      162      161      160
     388     36      126      162      161      165
     389     34      126      162      163      158
     390     36      126      162      163      166
     391      5      127      126      131      130
     392      6      127      126      131      133
     393      7      127      126      162      161
     394      7      127      126      162      163
     395      4      127      128      129      130
     396      4      127      128      129      134
     397      9      127      168      167      169
     398      9      127      168      167      170
     399      9      127      168      167      171
     400     12      128      127      126      131
     401     13      128      127      126      162
     402     14      128      127      168      167
     403     15      128      127      168      172
     404     15      128      127      168      173
     405     25      128      129      130      131
     406     26      128      129      130      142
     407      7      128      129      134      135
     408     25      128      129      134      139
     409     31      129      128      127      168
     410     36      129      130      131      133
     411      8      129      130      142      143
     412     26      129      130      142      147
     413     13      129      134      135      136
     414     35      129      134      135      175
     415      4      129      134      139      138
     416     36      129      134      139      141
     417     36      130      129      128      132
     418      8      130      129      134      135
     419     26      130      129      134      139
     420     34      130      131      126      162
     421     13      130      142      143      144
     422     35      130      142      143      189
     423     34      130      142      147      146
     424     36      130      142      147      149
     425     22      131      126      127      168
     426     25      131      126      162      161
     427     25      131      126      162      163
     428     26      131      130      129      134
     429      7      131      130      142      143
     430     25      131      130      142      147
     431     38      132      128      127      168
     432     36      132      128      129      134
     433     36      133      131      126      162
     434     36      133      131      130      142
     435     37      134      129      130      142
     436     27      134      135      136      137
     437     28      134      135      136      140
     438     29      134      135      175      174
     439     30      134      135      175      179
     440     30      134      135      175      180
     441     27      134      139      138      137
     442     31      134      139      138      182
     443      3      135      134      139      138
     444      6      135      134      139      141
     445      3      135      136      137      138
     446      9      135      175      174      176
     447      9      135      175      174      177
     448      9      135      175      174      178
     449     12      136      135      134      139
     450     14      136      135      175      174
     451     15      136      135      175      179
     452     15      136      135      175      180
     453     12      136      137      138      139
     454     22      136      137      138      182
     455     31      137      136      135      175
     456     28      137      138      139      141
     457     29      137      138      182      181
     458     30      137      138      182      186
     459     30      137      138      182      187
     460      6      138      137      136      140
     461      9      138      182      181      183
     462      9      138      182      181      184
     463      9      138      182      181      185
     464     22      139      134      135      175
     465     14      139      138      182      181
     466     15      139      138      182      186
     467     15      139      138      182      187
     468     38      140      136      135      175
     469     38      141      139      138      182
     470     27      142      143      144      145
     471     28      142      143      144      148
     472     29      142      143      189      188
     473     30      142      143      189      193
     474     30      142      143      189      194
     475     34      142      147      146      145
     476      5      143      142      147      146
     477      6      143      142      147      149
     478      4      143      144      145      146
     479      9      143      189      188      190
     480      9      143      189      188      191
     481      9      143      189      188      192
     482     12      144      143      142      147
     483     14      144      143      189      188
     484     15      144      143      189      193
     485     15      144      143      189      194
     486     25      144      145      146      147
     487     31      145      144      143      189
     488     36      145      146      147      149
     489     36      146      145      144      148
     490     22      147      142      143      189
     491     38      148      144      143      189
     492     27      150      151      152      153
     493     28      150      151      152      156
     494     29      150      151      203      202
     495     30      150      151      203      207
     496     30      150      151      203      208
     497     34      150      155      154      153
     498      5      151      150      155      154
     499      6      151      150      155      157
     500      4      151      152      153      154
     501      9      151      203      202      204
     502      9      151      203      202      205
     503      9      151      203      202      206
     504     12      152      151      150      155
     505     14      152      151      203      202
     506     15      152      151      203      207
     507     15      152      151      203      208
     508     25      152      153      154      155
     509     31      153      152      151      203
     510     36      153      154      155      157
     511     36      154      153      152      156
     512     22      155      150      151      203
     513     38      156      152      151      203
     514     23      158      159      160      161
     515     23      158      163      162      161
     516     23      159      158      163      162
     517     24      159      158      163      166
     518     23      159      160      161      162
     519     24      159      160      161      165
     520     23      160      159      158      163
     521     23      160      161      162      163
     522     24      161      160      159      164
     523     24      161      162      163      166
     524     35      162      126      127      168
     525     24      163      158      159      164
     526     24      163      162      161      165
     527     40      169      167      168      172
     528     40      169      167      168      173
     529     40      170      167      168      172
     530     40      170      167      168      173
     531     40      171      167      168      172
     532     40      171      167      168      173
     533     40      176      174      175      179
     534     40      176      174      175      180
     535     40      177      174      175      179
     536     40      177      174      175      180
     537     40      178      174      175      179
     538     40      178      174      175      180
     539     40      183      181      182      186
     540     40      183      181      182      187
     541     40      184      181      182      186
     542     40      184      181      182      187
     543     40      185      181      182      186
     544     40      185      181      182      187
     545     40      190      188      189      193
     546     40      190      188      189      194
     547     40      191      188      189      193
     548     40      191      188      189      194
     549     40      192      188      189      193
     550     40      192      188      189      194
     551     40      197      195      196      200
     552     40      197      195      196      201
     553     40      198      195      196      200
     554     40      198      195      196      201
     555     40      199      195      196      200
     556     40      199      195      196      201
     557     40      204      202      203      207
     558     40      204      202      203      208
     559     40      205      202      203      207
     560     40      205      202      203      208
     561     40      206      202      203      207
     562     40      206      202      203      208

Impropers

       1      9        2        1        6       78
       2      6        1        2        3        7
       3      5        2        3        4        8
       4      5        3        4        5        9
       5      5        4        5        6       10
       6      6        1        6        5       11
       7      9       13       12       17      119
       8      6       12       13       14       18
       9      5       13       14       15       19
      10      5       14       15       16       20
      11      5       15       16       17       21
      12      6       12       17       16       22
      13      9       24       23       28       91
      14      6       23       24       25       29
      15      5       24       25       26       30
      16      5       25       26       27       31
      17      5       26       27       28       32
      18      6       23       28       27       33
      19      9       35       34       39      160
      20      6       34       35       36       40
      21      5       35       36       37       41
      22      5       36       37       38       42
      23      5       37       38       39       43
      24      6       34       39       38       44
      25      9       46       45       50      137
      26      6       45       46       47       51
      27      5       46       47       48       52
      28      5       47       48       49       53
      29      5       48       49       50       54
      30      6       45       50       49       55
      31      9       57       56       61      153
      32      6       56       57       58       62
      33      5       57       58       59       63
      34      5       58       59       60       64
      35      5       59       60       61       65
      36      6       56       61       60       66
      37      9       68       67       72      154
      38      6       67       68       69       73
      39      5       68       69       70       74
      40      5       69       70       71       75
      41      5       70       71       72       76
      42      6       67       72       71       77
      43      9        1       78       79       83
      44      6       78       79       80       84
      45      6       79       80       81       85
      46      9       80       81       82      118
      47      6       81       82       83       86
      48      6       78       83       82       87
      49      9       89       88       93      121
      50      6       88       89       90       94
      51      6       89       90       91       95
      52      9       23       91       90       92
      53      6       91       92       93       96
      54      6       88       93       92       97
      55      9       99       98      103      145
      56      6       98       99      100      104
      57      3       99      100      101      105
      58      1      100      101      102      196
      59      3      101      102      103      106
      60      6       98      103      102      107
      61      9      109      108      113      146
      62      6      108      109      110      114
      63      6      109      110      111      115
      64      9      110      111      112      150
      65      6      111      112      113      116
      66      6      108      113      112      117
      67     10       81      118      119      123
      68     10       12      119      118      120
      69      7      119      120      121      124
      70     10       88      121      120      122
      71     10      121      122      123      158
      72      7      118      123      122      125
      73      8      127      126      131      162
      74      2      126      127      128      168
      75      4      127      128      129      132
      76     10      128      129      130      134
      77     10      129      130      131      142
      78      7      126      131      130      133
      79      8      129      134      135      139
      80      2      134      135      136      175
      81      4      135      136      137      140
      82      8       45      137      136      138
      83      2      137      138      139      182
      84      4      134      139      138      141
      85      8      130      142      143      147
      86      2      142      143      144      189
      87      4      143      144      145      148
      88     10       98      145      144      146
      89     10      108      146      145      147
      90      7      142      147      146      149
      91      8      111      150      151      155
      92      2      150      151      152      203
      93      4      151      152      153      156
      94     10       56      153      152      154
      95     10       67      154      153      155
      96      7      150      155      154      157
      97      9      122      158      159      163
      98      7      158      159      160      164
      99      9       34      160      159      161
     100      7      160      161      162      165
     101      9      126      162      161      163
     102      7      158      163      162      166

