LAMMPS data file generated by clean-room 1-hop pipeline

     176 atoms
     175 bonds
     348 angles
     513 dihedrals
       0 impropers

       4 atom types
       6 bond types
      11 angle types
      13 dihedral types
       0 improper types

  -27.082000    27.537100 xlo xhi
  -33.977100    38.883900 ylo yhi
  -36.393800    36.599800 zlo zhi

Masses

       1    12.011000
       2    12.011000
       3    12.011000
       4     1.008000

Pair Coeffs

       1     0.066000     3.500000
       2     0.066000     3.500000
       3     0.066000     3.500000
       4     0.030000     2.500000

Bond Coeffs

       1   268.000000     1.529000
       2   340.000000     1.090000
       3   268.000000     1.529000
       4   268.000000     1.529000
       5   340.000000     1.090000
       6   340.000000     1.090000

Angle Coeffs

       1    58.350000   112.700000
       2    37.500000   110.700000
       3    37.500000   110.700000
       4    58.350000   112.700000
       5    58.350000   112.700000
       6    37.500000   110.700000
       7    58.350000   112.700000
       8    37.500000   110.700000
       9    37.500000   110.700000
      10    33.000000   107.800000
      11    33.000000   107.800000

Dihedral Coeffs

       1     0.850000    -0.200000     0.200000     0.000000
       2     0.000000     0.000000     0.300000     0.000000
       3     0.000000     0.000000     0.300000     0.000000
       4     0.850000    -0.200000     0.200000     0.000000
       5     0.850000    -0.200000     0.200000     0.000000
       6     0.000000     0.000000     0.300000     0.000000
       7     0.850000    -0.200000     0.200000     0.000000
       8     0.000000     0.000000     0.300000     0.000000
       9     0.000000     0.000000     0.300000     0.000000
      10     0.000000     0.000000     0.300000     0.000000
      11     0.000000     0.000000     0.300000     0.000000
      12     0.000000     0.000000     0.300000     0.000000
      13     0.000000     0.000000     0.300000     0.000000

Improper Coeffs


Atoms

       1    1      1  -0.26504133     4.645700    18.198700    -5.549800
       2    1      2  -0.19438996     5.311800    17.355900    -4.444500
       3    1      4   0.09681963     5.420500    18.883900    -6.028300
       4    1      4   0.09681963     4.210200    17.503800    -6.343500
       5    1      4   0.09681963     3.809100    18.827400    -5.098600
       6    1      4   0.09681963     5.748700    18.040100    -3.641900
       7    1      4   0.09681963     6.146700    16.724100    -4.893900
       8    1      1  -0.26504133    -1.632600    -1.584200   -15.034200
       9    1      2  -0.19438996    -2.944900    -2.336800   -15.317500
      10    1      4   0.09681963    -0.822100    -1.953300   -15.743800
      11    1      4   0.09681963    -1.795100    -0.466300   -15.189800
      12    1      4   0.09681963    -1.312800    -1.775500   -13.955600
      13    1      4   0.09681963    -2.784500    -3.455400   -15.165500
      14    1      4   0.09681963    -3.267900    -2.142700   -16.393800
      15    1      1  -0.26504133     0.265100    -6.654000    14.117700
      16    1      2  -0.19438996    -1.209600    -6.850200    13.715900
      17    1      4   0.09681963     0.459300    -7.164300    15.118600
      18    1      4   0.09681963     0.940800    -7.110600    13.321200
      19    1      4   0.09681963     0.488300    -5.539400    14.211100
      20    1      4   0.09681963    -1.886800    -6.394600    14.512200
      21    1      4   0.09681963    -1.437700    -7.963800    13.618900
      22    1      1  -0.26504133     6.801500   -13.057100    15.766800
      23    1      2  -0.19438996     6.076300   -13.001300    14.408300
      24    1      4   0.09681963     7.537100   -13.929100    15.770800
      25    1      4   0.09681963     7.367700   -12.082400    15.935800
      26    1      4   0.09681963     6.037900   -13.201500    16.599800
      27    1      4   0.09681963     5.510800   -13.977100    14.238800
      28    1      4   0.09681963     6.839600   -12.857600    13.574500
      29    1      2  -0.19438996     4.258800    16.428200    -3.810500
      30    1      2  -0.19438996     3.666500    15.513800    -4.899100
      31    1      4   0.09681963     4.750400    15.790100    -3.003500
      32    1      4   0.09681963     3.426000    17.052200    -3.345000
      33    1      4   0.09681963     3.151000    16.145400    -5.696300
      34    1      4   0.09681963     4.505000    14.906700    -5.377700
      35    1      2  -0.19438996     2.655600    14.552900    -4.246800
      36    1      2  -0.19438996     2.070700    13.590000    -5.297100
      37    1      4   0.09681963     3.197900    13.943200    -3.450500
      38    1      4   0.09681963     1.813200    15.146500    -3.758800
      39    1      4   0.09681963     1.479900    14.168800    -6.081400
      40    1      4   0.09681963     2.923400    13.024200    -5.800400
      41    1      2  -0.19438996     1.163200    12.580600    -4.570200
      42    1      2  -0.19438996     0.607500    11.528300    -5.547600
      43    1      4   0.09681963     0.302100    13.124500    -4.056400
      44    1      4   0.09681963     1.791300    12.043800    -3.783700
      45    1      4   0.09681963    -0.083700    12.014000    -6.314400
      46    1      4   0.09681963     1.478100    11.021100    -6.083100
      47    1      2  -0.19438996    -0.143000    10.474200    -4.713300
      48    1      2  -0.19438996    -0.645400     9.313200    -5.591200
      49    1      4   0.09681963    -1.020700    10.955400    -4.164600
      50    1      4   0.09681963     0.590500    10.048900    -3.949300
      51    1      4   0.09681963    -1.441800     9.673600    -6.323600
      52    1      4   0.09681963     0.234700     8.873600    -6.167400
      53    1      2  -0.19438996    -1.205100     8.233100    -4.646700
      54    1      2  -0.19438996    -1.640100     6.974600    -5.420400
      55    1      4   0.09681963    -2.086600     8.647600    -4.053100
      56    1      4   0.09681963    -0.373100     7.936500    -3.924800
      57    1      4   0.09681963    -2.523500     7.210200    -6.101300
      58    1      4   0.09681963    -0.764600     6.597700    -6.045100
      59    1      2  -0.19438996    -2.012300     5.892100    -4.389100
      60    1      2  -0.19438996    -2.393900     4.575100    -5.090200
      61    1      4   0.09681963    -2.880900     6.249800    -3.742800
      62    1      4   0.09681963    -1.103500     5.702100    -3.726700
      63    1      4   0.09681963    -3.336400     4.729100    -5.713700
      64    1      4   0.09681963    -1.538200     4.246100    -5.768500
      65    1      2  -0.19438996    -2.628600     3.488300    -4.022800
      66    1      2  -0.19438996    -3.009800     2.162500    -4.707200
      67    1      4   0.09681963    -3.469000     3.810600    -3.322200
      68    1      4   0.09681963    -1.669500     3.343400    -3.423300
      69    1      4   0.09681963    -3.985400     2.310900    -5.279900
      70    1      4   0.09681963    -2.186700     1.858500    -5.436600
      71    1      2  -0.19438996    -5.662200    -0.812500    -6.020000
      72    1      2  -0.19438996    -5.066100    -0.801000    -7.443400
      73    1      4   0.09681963    -6.737800    -0.459200    -6.150900
      74    1      4   0.09681963    -5.672400    -1.854200    -5.558200
      75    1      4   0.09681963    -5.103500     0.274500    -7.816500
      76    1      4   0.09681963    -3.994200    -1.187200    -7.486500
      77    1      2  -0.19438996    -6.028200    -1.642900    -8.305000
      78    1      2  -0.19438996    -5.896700    -1.427500    -9.827600
      79    1      4   0.09681963    -7.082000    -1.298200    -8.039500
      80    1      4   0.09681963    -5.927800    -2.746000    -8.037900
      81    1      4   0.09681963    -6.045400    -0.318700   -10.048000
      82    1      4   0.09681963    -6.742600    -2.011300   -10.321000
      83    1      2  -0.19438996    -4.587800    -1.885500   -10.497700
      84    1      2  -0.19438996    -4.806700    -1.626600   -12.003000
      85    1      4   0.09681963    -4.430800    -2.999900   -10.316700
      86    1      4   0.09681963    -3.696000    -1.295100   -10.104700
      87    1      4   0.09681963    -4.971300    -0.510600   -12.169600
      88    1      4   0.09681963    -5.743400    -2.189900   -12.323900
      89    1      2  -0.19438996    -3.641300    -2.103000   -12.890500
      90    1      2  -0.19438996    -4.040900    -1.840700   -14.356400
      91    1      4   0.09681963    -3.477800    -3.221700   -12.736500
      92    1      4   0.09681963    -2.687200    -1.535900   -12.634200
      93    1      4   0.09681963    -4.202900    -0.722100   -14.509700
      94    1      4   0.09681963    -5.008900    -2.395600   -14.581900
      95    1      2  -0.19438996    -5.115700    -0.848900    -2.547100
      96    1      2  -0.19438996    -5.771400    -1.815300    -1.534900
      97    1      4   0.09681963    -5.938700    -0.603500    -3.296600
      98    1      4   0.09681963    -4.821800     0.114300    -2.012400
      99    1      4   0.09681963    -6.754700    -1.303500    -1.268400
     100    1      4   0.09681963    -6.020900    -2.802400    -2.048100
     101    1      2  -0.19438996    -5.119300    -2.077600    -0.157200
     102    1      2  -0.19438996    -3.873900    -2.975200     0.002700
     103    1      4   0.09681963    -5.927900    -2.605600     0.449000
     104    1      4   0.09681963    -4.909600    -1.072600     0.338000
     105    1      4   0.09681963    -2.942900    -2.504800    -0.455700
     106    1      4   0.09681963    -4.076000    -3.993600    -0.468700
     107    1      2  -0.19438996    -3.757800    -3.136100     1.536800
     108    1      2  -0.19438996    -2.708300    -4.127200     2.086600
     109    1      4   0.09681963    -4.771900    -3.509500     1.900800
     110    1      4   0.09681963    -3.566200    -2.109500     1.995800
     111    1      4   0.09681963    -1.650500    -3.790600     1.827600
     112    1      4   0.09681963    -2.902200    -5.166700     1.659900
     113    1      2  -0.19438996    -2.925800    -4.146600     3.616700
     114    1      2  -0.19438996    -2.058000    -5.138200     4.424600
     115    1      4   0.09681963    -4.016800    -4.422100     3.802400
     116    1      4   0.09681963    -2.743300    -3.094900     4.018600
     117    1      4   0.09681963    -0.951100    -4.883700     4.319000
     118    1      4   0.09681963    -2.249300    -6.202800     4.062800
     119    1      2  -0.19438996    -2.514400    -4.990700     5.893200
     120    1      2  -0.19438996    -1.860200    -5.909900     6.950900
     121    1      4   0.09681963    -3.636600    -5.192800     5.920000
     122    1      4   0.09681963    -2.334700    -3.909300     6.208200
     123    1      4   0.09681963    -0.738000    -5.719600     7.023400
     124    1      4   0.09681963    -2.059400    -7.005300     6.704000
     125    1      2  -0.19438996    -2.947100    -6.341300    11.970600
     126    1      2  -0.19438996    -1.471000    -6.155500    12.366600
     127    1      4   0.09681963    -3.171500    -7.455300    11.870300
     128    1      4   0.09681963    -3.623300    -5.885100    12.768300
     129    1      4   0.09681963    -1.240700    -5.042000    12.461400
     130    1      4   0.09681963    -0.803300    -6.614600    11.563500
     131    1      2  -0.19438996    -1.358900    -8.622700     9.188900
     132    1      2  -0.19438996    -0.407800    -8.504200    10.399300
     133    1      4   0.09681963    -0.866300    -8.299200     8.213400
     134    1      4   0.09681963    -1.697900    -9.708600     9.111100
     135    1      4   0.09681963    -1.015000    -8.746000    11.333300
     136    1      4   0.09681963    -0.006100    -7.440000    10.486900
     137    1      2  -0.19438996     0.745400    -9.525300    10.331800
     138    1      2  -0.19438996     1.538200    -9.485700    11.654600
     139    1      4   0.09681963     1.427700    -9.306500     9.445600
     140    1      4   0.09681963     0.296500   -10.567500    10.217200
     141    1      4   0.09681963     0.816300    -9.669700    12.517900
     142    1      4   0.09681963     2.031300    -8.466000    11.786300
     143    1      2  -0.19438996     2.603300   -10.600100    11.663900
     144    1      2  -0.19438996     3.339800   -10.618900    13.018200
     145    1      4   0.09681963     3.349600   -10.429600    10.819500
     146    1      4   0.09681963     2.085700   -11.604300    11.514400
     147    1      4   0.09681963     3.880400    -9.628100    13.175800
     148    1      4   0.09681963     2.581100   -10.774600    13.855200
     149    1      2  -0.19438996     4.355600   -11.778000    13.038900
     150    1      2  -0.19438996     5.079900   -11.825900    14.398400
     151    1      4   0.09681963     5.119700   -11.629600    12.206600
     152    1      4   0.09681963     3.804200   -12.761600    12.875700
     153    1      4   0.09681963     5.641700   -10.848000    14.566100
     154    1      4   0.09681963     4.315500   -11.971900    15.230800
     155    1      3  -0.12813658    -3.659100    -0.217600    -4.422600
     156    1      2  -0.19438996    -3.195700     1.040500    -3.666900
     157    1      2  -0.19438996    -4.987000     0.207000    -5.081900
     158    1      2  -0.19438996    -3.940800    -1.351200    -3.409700
     159    1      4   0.09681963    -2.876300    -0.517600    -5.192500
     160    1      4   0.09681963    -2.215300     0.841000    -3.120100
     161    1      4   0.09681963    -4.000300     1.340200    -2.917100
     162    1      4   0.09681963    -5.703200     0.416600    -4.221000
     163    1      4   0.09681963    -4.840900     1.173200    -5.667600
     164    1      4   0.09681963    -3.020500    -1.581200    -2.777300
     165    1      4   0.09681963    -4.270300    -2.284900    -3.974700
     166    1      3  -0.12813658    -2.244200    -6.260900     9.580800
     167    1      2  -0.19438996    -2.570000    -5.520500     8.264400
     168    1      2  -0.19438996    -3.194500    -5.644500    10.620800
     169    1      2  -0.19438996    -2.586400    -7.760800     9.534000
     170    1      4   0.09681963    -1.172000    -6.107700     9.935500
     171    1      4   0.09681963    -2.377800    -4.409900     8.441000
     172    1      4   0.09681963    -3.686300    -5.664400     8.084100
     173    1      4   0.09681963    -4.276200    -5.802900    10.297000
     174    1      4   0.09681963    -2.981800    -4.528700    10.717000
     175    1      4   0.09681963    -3.458400    -7.924500     8.817400
     176    1      4   0.09681963    -2.897800    -8.093400    10.578500

Bonds

       1      1        1        2
       2      2        1        3
       3      2        1        4
       4      2        1        5
       5      5        2        6
       6      5        2        7
       7      3        2       29
       8      1        8        9
       9      2        8       10
      10      2        8       11
      11      2        8       12
      12      5        9       13
      13      5        9       14
      14      3        9       90
      15      1       15       16
      16      2       15       17
      17      2       15       18
      18      2       15       19
      19      5       16       20
      20      5       16       21
      21      3       16      126
      22      1       22       23
      23      2       22       24
      24      2       22       25
      25      2       22       26
      26      5       23       27
      27      5       23       28
      28      3       23      150
      29      3       29       30
      30      5       29       31
      31      5       29       32
      32      5       30       33
      33      5       30       34
      34      3       30       35
      35      3       35       36
      36      5       35       37
      37      5       35       38
      38      5       36       39
      39      5       36       40
      40      3       36       41
      41      3       41       42
      42      5       41       43
      43      5       41       44
      44      5       42       45
      45      5       42       46
      46      3       42       47
      47      3       47       48
      48      5       47       49
      49      5       47       50
      50      5       48       51
      51      5       48       52
      52      3       48       53
      53      3       53       54
      54      5       53       55
      55      5       53       56
      56      5       54       57
      57      5       54       58
      58      3       54       59
      59      3       59       60
      60      5       59       61
      61      5       59       62
      62      5       60       63
      63      5       60       64
      64      3       60       65
      65      3       65       66
      66      5       65       67
      67      5       65       68
      68      5       66       69
      69      5       66       70
      70      3       66      156
      71      3       71       72
      72      5       71       73
      73      5       71       74
      74      3       71      157
      75      5       72       75
      76      5       72       76
      77      3       72       77
      78      3       77       78
      79      5       77       79
      80      5       77       80
      81      5       78       81
      82      5       78       82
      83      3       78       83
      84      3       83       84
      85      5       83       85
      86      5       83       86
      87      5       84       87
      88      5       84       88
      89      3       84       89
      90      3       89       90
      91      5       89       91
      92      5       89       92
      93      5       90       93
      94      5       90       94
      95      3       95       96
      96      5       95       97
      97      5       95       98
      98      3       95      158
      99      5       96       99
     100      5       96      100
     101      3       96      101
     102      3      101      102
     103      5      101      103
     104      5      101      104
     105      5      102      105
     106      5      102      106
     107      3      102      107
     108      3      107      108
     109      5      107      109
     110      5      107      110
     111      5      108      111
     112      5      108      112
     113      3      108      113
     114      3      113      114
     115      5      113      115
     116      5      113      116
     117      5      114      117
     118      5      114      118
     119      3      114      119
     120      3      119      120
     121      5      119      121
     122      5      119      122
     123      5      120      123
     124      5      120      124
     125      3      120      167
     126      3      125      126
     127      5      125      127
     128      5      125      128
     129      3      125      168
     130      5      126      129
     131      5      126      130
     132      3      131      132
     133      5      131      133
     134      5      131      134
     135      3      131      169
     136      5      132      135
     137      5      132      136
     138      3      132      137
     139      3      137      138
     140      5      137      139
     141      5      137      140
     142      5      138      141
     143      5      138      142
     144      3      138      143
     145      3      143      144
     146      5      143      145
     147      5      143      146
     148      5      144      147
     149      5      144      148
     150      3      144      149
     151      3      149      150
     152      5      149      151
     153      5      149      152
     154      5      150      153
     155      5      150      154
     156      4      155      156
     157      4      155      157
     158      4      155      158
     159      6      155      159
     160      5      156      160
     161      5      156      161
     162      5      157      162
     163      5      157      163
     164      5      158      164
     165      5      158      165
     166      4      166      167
     167      4      166      168
     168      4      166      169
     169      6      166      170
     170      5      167      171
     171      5      167      172
     172      5      168      173
     173      5      168      174
     174      5      169      175
     175      5      169      176

Angles

       1      2        1        2        6
       2      2        1        2        7
       3      1        1        2       29
       4      3        2        1        3
       5      3        2        1        4
       6      3        2        1        5
       7      4        2       29       30
       8      6        2       29       31
       9      6        2       29       32
      10     10        3        1        4
      11     10        3        1        5
      12     10        4        1        5
      13     11        6        2        7
      14      6        6        2       29
      15      6        7        2       29
      16      2        8        9       13
      17      2        8        9       14
      18      1        8        9       90
      19      3        9        8       10
      20      3        9        8       11
      21      3        9        8       12
      22      4        9       90       89
      23      6        9       90       93
      24      6        9       90       94
      25     10       10        8       11
      26     10       10        8       12
      27     10       11        8       12
      28     11       13        9       14
      29      6       13        9       90
      30      6       14        9       90
      31      2       15       16       20
      32      2       15       16       21
      33      1       15       16      126
      34      3       16       15       17
      35      3       16       15       18
      36      3       16       15       19
      37      4       16      126      125
      38      6       16      126      129
      39      6       16      126      130
      40     10       17       15       18
      41     10       17       15       19
      42     10       18       15       19
      43     11       20       16       21
      44      6       20       16      126
      45      6       21       16      126
      46      2       22       23       27
      47      2       22       23       28
      48      1       22       23      150
      49      3       23       22       24
      50      3       23       22       25
      51      3       23       22       26
      52      4       23      150      149
      53      6       23      150      153
      54      6       23      150      154
      55     10       24       22       25
      56     10       24       22       26
      57     10       25       22       26
      58     11       27       23       28
      59      6       27       23      150
      60      6       28       23      150
      61      6       29       30       33
      62      6       29       30       34
      63      4       29       30       35
      64      6       30       29       31
      65      6       30       29       32
      66      4       30       35       36
      67      6       30       35       37
      68      6       30       35       38
      69     11       31       29       32
      70     11       33       30       34
      71      6       33       30       35
      72      6       34       30       35
      73      6       35       36       39
      74      6       35       36       40
      75      4       35       36       41
      76      6       36       35       37
      77      6       36       35       38
      78      4       36       41       42
      79      6       36       41       43
      80      6       36       41       44
      81     11       37       35       38
      82     11       39       36       40
      83      6       39       36       41
      84      6       40       36       41
      85      6       41       42       45
      86      6       41       42       46
      87      4       41       42       47
      88      6       42       41       43
      89      6       42       41       44
      90      4       42       47       48
      91      6       42       47       49
      92      6       42       47       50
      93     11       43       41       44
      94     11       45       42       46
      95      6       45       42       47
      96      6       46       42       47
      97      6       47       48       51
      98      6       47       48       52
      99      4       47       48       53
     100      6       48       47       49
     101      6       48       47       50
     102      4       48       53       54
     103      6       48       53       55
     104      6       48       53       56
     105     11       49       47       50
     106     11       51       48       52
     107      6       51       48       53
     108      6       52       48       53
     109      6       53       54       57
     110      6       53       54       58
     111      4       53       54       59
     112      6       54       53       55
     113      6       54       53       56
     114      4       54       59       60
     115      6       54       59       61
     116      6       54       59       62
     117     11       55       53       56
     118     11       57       54       58
     119      6       57       54       59
     120      6       58       54       59
     121      6       59       60       63
     122      6       59       60       64
     123      4       59       60       65
     124      6       60       59       61
     125      6       60       59       62
     126      4       60       65       66
     127      6       60       65       67
     128      6       60       65       68
     129     11       61       59       62
     130     11       63       60       64
     131      6       63       60       65
     132      6       64       60       65
     133      6       65       66       69
     134      6       65       66       70
     135      4       65       66      156
     136      6       66       65       67
     137      6       66       65       68
     138      5       66      156      155
     139      6       66      156      160
     140      6       66      156      161
     141     11       67       65       68
     142     11       69       66       70
     143      6       69       66      156
     144      6       70       66      156
     145      6       71       72       75
     146      6       71       72       76
     147      4       71       72       77
     148      5       71      157      155
     149      6       71      157      162
     150      6       71      157      163
     151      6       72       71       73
     152      6       72       71       74
     153      4       72       71      157
     154      4       72       77       78
     155      6       72       77       79
     156      6       72       77       80
     157     11       73       71       74
     158      6       73       71      157
     159      6       74       71      157
     160     11       75       72       76
     161      6       75       72       77
     162      6       76       72       77
     163      6       77       78       81
     164      6       77       78       82
     165      4       77       78       83
     166      6       78       77       79
     167      6       78       77       80
     168      4       78       83       84
     169      6       78       83       85
     170      6       78       83       86
     171     11       79       77       80
     172     11       81       78       82
     173      6       81       78       83
     174      6       82       78       83
     175      6       83       84       87
     176      6       83       84       88
     177      4       83       84       89
     178      6       84       83       85
     179      6       84       83       86
     180      4       84       89       90
     181      6       84       89       91
     182      6       84       89       92
     183     11       85       83       86
     184     11       87       84       88
     185      6       87       84       89
     186      6       88       84       89
     187      6       89       90       93
     188      6       89       90       94
     189      6       90       89       91
     190      6       90       89       92
     191     11       91       89       92
     192     11       93       90       94
     193      6       95       96       99
     194      6       95       96      100
     195      4       95       96      101
     196      5       95      158      155
     197      6       95      158      164
     198      6       95      158      165
     199      6       96       95       97
     200      6       96       95       98
     201      4       96       95      158
     202      4       96      101      102
     203      6       96      101      103
     204      6       96      101      104
     205     11       97       95       98
     206      6       97       95      158
     207      6       98       95      158
     208     11       99       96      100
     209      6       99       96      101
     210      6      100       96      101
     211      6      101      102      105
     212      6      101      102      106
     213      4      101      102      107
     214      6      102      101      103
     215      6      102      101      104
     216      4      102      107      108
     217      6      102      107      109
     218      6      102      107      110
     219     11      103      101      104
     220     11      105      102      106
     221      6      105      102      107
     222      6      106      102      107
     223      6      107      108      111
     224      6      107      108      112
     225      4      107      108      113
     226      6      108      107      109
     227      6      108      107      110
     228      4      108      113      114
     229      6      108      113      115
     230      6      108      113      116
     231     11      109      107      110
     232     11      111      108      112
     233      6      111      108      113
     234      6      112      108      113
     235      6      113      114      117
     236      6      113      114      118
     237      4      113      114      119
     238      6      114      113      115
     239      6      114      113      116
     240      4      114      119      120
     241      6      114      119      121
     242      6      114      119      122
     243     11      115      113      116
     244     11      117      114      118
     245      6      117      114      119
     246      6      118      114      119
     247      6      119      120      123
     248      6      119      120      124
     249      4      119      120      167
     250      6      120      119      121
     251      6      120      119      122
     252      5      120      167      166
     253      6      120      167      171
     254      6      120      167      172
     255     11      121      119      122
     256     11      123      120      124
     257      6      123      120      167
     258      6      124      120      167
     259      6      125      126      129
     260      6      125      126      130
     261      5      125      168      166
     262      6      125      168      173
     263      6      125      168      174
     264      6      126      125      127
     265      6      126      125      128
     266      4      126      125      168
     267     11      127      125      128
     268      6      127      125      168
     269      6      128      125      168
     270     11      129      126      130
     271      6      131      132      135
     272      6      131      132      136
     273      4      131      132      137
     274      5      131      169      166
     275      6      131      169      175
     276      6      131      169      176
     277      6      132      131      133
     278      6      132      131      134
     279      4      132      131      169
     280      4      132      137      138
     281      6      132      137      139
     282      6      132      137      140
     283     11      133      131      134
     284      6      133      131      169
     285      6      134      131      169
     286     11      135      132      136
     287      6      135      132      137
     288      6      136      132      137
     289      6      137      138      141
     290      6      137      138      142
     291      4      137      138      143
     292      6      138      137      139
     293      6      138      137      140
     294      4      138      143      144
     295      6      138      143      145
     296      6      138      143      146
     297     11      139      137      140
     298     11      141      138      142
     299      6      141      138      143
     300      6      142      138      143
     301      6      143      144      147
     302      6      143      144      148
     303      4      143      144      149
     304      6      144      143      145
     305      6      144      143      146
     306      4      144      149      150
     307      6      144      149      151
     308      6      144      149      152
     309     11      145      143      146
     310     11      147      144      148
     311      6      147      144      149
     312      6      148      144      149
     313      6      149      150      153
     314      6      149      150      154
     315      6      150      149      151
     316      6      150      149      152
     317     11      151      149      152
     318     11      153      150      154
     319      9      155      156      160
     320      9      155      156      161
     321      9      155      157      162
     322      9      155      157      163
     323      9      155      158      164
     324      9      155      158      165
     325      7      156      155      157
     326      7      156      155      158
     327      8      156      155      159
     328      7      157      155      158
     329      8      157      155      159
     330      8      158      155      159
     331     11      160      156      161
     332     11      162      157      163
     333     11      164      158      165
     334      9      166      167      171
     335      9      166      167      172
     336      9      166      168      173
     337      9      166      168      174
     338      9      166      169      175
     339      9      166      169      176
     340      7      167      166      168
     341      7      167      166      169
     342      8      167      166      170
     343      7      168      166      169
     344      8      168      166      170
     345      8      169      166      170
     346     11      171      167      172
     347     11      173      168      174
     348     11      175      169      176

Dihedrals

       1      1        1        2       29       30
       2      2        1        2       29       31
       3      2        1        2       29       32
       4      6        2       29       30       33
       5      6        2       29       30       34
       6      4        2       29       30       35
       7     11        3        1        2        6
       8     11        3        1        2        7
       9      3        3        1        2       29
      10     11        4        1        2        6
      11     11        4        1        2        7
      12      3        4        1        2       29
      13     11        5        1        2        6
      14     11        5        1        2        7
      15      3        5        1        2       29
      16      6        6        2       29       30
      17     12        6        2       29       31
      18     12        6        2       29       32
      19      6        7        2       29       30
      20     12        7        2       29       31
      21     12        7        2       29       32
      22      1        8        9       90       89
      23      2        8        9       90       93
      24      2        8        9       90       94
      25      4        9       90       89       84
      26      6        9       90       89       91
      27      6        9       90       89       92
      28     11       10        8        9       13
      29     11       10        8        9       14
      30      3       10        8        9       90
      31     11       11        8        9       13
      32     11       11        8        9       14
      33      3       11        8        9       90
      34     11       12        8        9       13
      35     11       12        8        9       14
      36      3       12        8        9       90
      37      6       13        9       90       89
      38     12       13        9       90       93
      39     12       13        9       90       94
      40      6       14        9       90       89
      41     12       14        9       90       93
      42     12       14        9       90       94
      43      1       15       16      126      125
      44      2       15       16      126      129
      45      2       15       16      126      130
      46      6       16      126      125      127
      47      6       16      126      125      128
      48      4       16      126      125      168
      49     11       17       15       16       20
      50     11       17       15       16       21
      51      3       17       15       16      126
      52     11       18       15       16       20
      53     11       18       15       16       21
      54      3       18       15       16      126
      55     11       19       15       16       20
      56     11       19       15       16       21
      57      3       19       15       16      126
      58      6       20       16      126      125
      59     12       20       16      126      129
      60     12       20       16      126      130
      61      6       21       16      126      125
      62     12       21       16      126      129
      63     12       21       16      126      130
      64      1       22       23      150      149
      65      2       22       23      150      153
      66      2       22       23      150      154
      67      4       23      150      149      144
      68      6       23      150      149      151
      69      6       23      150      149      152
      70     11       24       22       23       27
      71     11       24       22       23       28
      72      3       24       22       23      150
      73     11       25       22       23       27
      74     11       25       22       23       28
      75      3       25       22       23      150
      76     11       26       22       23       27
      77     11       26       22       23       28
      78      3       26       22       23      150
      79      6       27       23      150      149
      80     12       27       23      150      153
      81     12       27       23      150      154
      82      6       28       23      150      149
      83     12       28       23      150      153
      84     12       28       23      150      154
      85      4       29       30       35       36
      86      6       29       30       35       37
      87      6       29       30       35       38
      88      6       30       35       36       39
      89      6       30       35       36       40
      90      4       30       35       36       41
      91     12       31       29       30       33
      92     12       31       29       30       34
      93      6       31       29       30       35
      94     12       32       29       30       33
      95     12       32       29       30       34
      96      6       32       29       30       35
      97      6       33       30       35       36
      98     12       33       30       35       37
      99     12       33       30       35       38
     100      6       34       30       35       36
     101     12       34       30       35       37
     102     12       34       30       35       38
     103      4       35       36       41       42
     104      6       35       36       41       43
     105      6       35       36       41       44
     106      6       36       41       42       45
     107      6       36       41       42       46
     108      4       36       41       42       47
     109     12       37       35       36       39
     110     12       37       35       36       40
     111      6       37       35       36       41
     112     12       38       35       36       39
     113     12       38       35       36       40
     114      6       38       35       36       41
     115      6       39       36       41       42
     116     12       39       36       41       43
     117     12       39       36       41       44
     118      6       40       36       41       42
     119     12       40       36       41       43
     120     12       40       36       41       44
     121      4       41       42       47       48
     122      6       41       42       47       49
     123      6       41       42       47       50
     124      6       42       47       48       51
     125      6       42       47       48       52
     126      4       42       47       48       53
     127     12       43       41       42       45
     128     12       43       41       42       46
     129      6       43       41       42       47
     130     12       44       41       42       45
     131     12       44       41       42       46
     132      6       44       41       42       47
     133      6       45       42       47       48
     134     12       45       42       47       49
     135     12       45       42       47       50
     136      6       46       42       47       48
     137     12       46       42       47       49
     138     12       46       42       47       50
     139      4       47       48       53       54
     140      6       47       48       53       55
     141      6       47       48       53       56
     142      6       48       53       54       57
     143      6       48       53       54       58
     144      4       48       53       54       59
     145     12       49       47       48       51
     146     12       49       47       48       52
     147      6       49       47       48       53
     148     12       50       47       48       51
     149     12       50       47       48       52
     150      6       50       47       48       53
     151      6       51       48       53       54
     152     12       51       48       53       55
     153     12       51       48       53       56
     154      6       52       48       53       54
     155     12       52       48       53       55
     156     12       52       48       53       56
     157      4       53       54       59       60
     158      6       53       54       59       61
     159      6       53       54       59       62
     160      6       54       59       60       63
     161      6       54       59       60       64
     162      4       54       59       60       65
     163     12       55       53       54       57
     164     12       55       53       54       58
     165      6       55       53       54       59
     166     12       56       53       54       57
     167     12       56       53       54       58
     168      6       56       53       54       59
     169      6       57       54       59       60
     170     12       57       54       59       61
     171     12       57       54       59       62
     172      6       58       54       59       60
     173     12       58       54       59       61
     174     12       58       54       59       62
     175      4       59       60       65       66
     176      6       59       60       65       67
     177      6       59       60       65       68
     178      6       60       65       66       69
     179      6       60       65       66       70
     180      4       60       65       66      156
     181     12       61       59       60       63
     182     12       61       59       60       64
     183      6       61       59       60       65
     184     12       62       59       60       63
     185     12       62       59       60       64
     186      6       62       59       60       65
     187      6       63       60       65       66
     188     12       63       60       65       67
     189     12       63       60       65       68
     190      6       64       60       65       66
     191     12       64       60       65       67
     192     12       64       60       65       68
     193      5       65       66      156      155
     194      6       65       66      156      160
     195      6       65       66      156      161
     196      7       66      156      155      157
     197      7       66      156      155      158
     198      8       66      156      155      159
     199     12       67       65       66       69
     200     12       67       65       66       70
     201      6       67       65       66      156
     202     12       68       65       66       69
     203     12       68       65       66       70
     204      6       68       65       66      156
     205     10       69       66      156      155
     206     12       69       66      156      160
     207     12       69       66      156      161
     208     10       70       66      156      155
     209     12       70       66      156      160
     210     12       70       66      156      161
     211      4       71       72       77       78
     212      6       71       72       77       79
     213      6       71       72       77       80
     214      7       71      157      155      156
     215      7       71      157      155      158
     216      8       71      157      155      159
     217      5       72       71      157      155
     218      6       72       71      157      162
     219      6       72       71      157      163
     220      6       72       77       78       81
     221      6       72       77       78       82
     222      4       72       77       78       83
     223     12       73       71       72       75
     224     12       73       71       72       76
     225      6       73       71       72       77
     226     10       73       71      157      155
     227     12       73       71      157      162
     228     12       73       71      157      163
     229     12       74       71       72       75
     230     12       74       71       72       76
     231      6       74       71       72       77
     232     10       74       71      157      155
     233     12       74       71      157      162
     234     12       74       71      157      163
     235      6       75       72       71      157
     236      6       75       72       77       78
     237     12       75       72       77       79
     238     12       75       72       77       80
     239      6       76       72       71      157
     240      6       76       72       77       78
     241     12       76       72       77       79
     242     12       76       72       77       80
     243      4       77       72       71      157
     244      4       77       78       83       84
     245      6       77       78       83       85
     246      6       77       78       83       86
     247      6       78       83       84       87
     248      6       78       83       84       88
     249      4       78       83       84       89
     250     12       79       77       78       81
     251     12       79       77       78       82
     252      6       79       77       78       83
     253     12       80       77       78       81
     254     12       80       77       78       82
     255      6       80       77       78       83
     256      6       81       78       83       84
     257     12       81       78       83       85
     258     12       81       78       83       86
     259      6       82       78       83       84
     260     12       82       78       83       85
     261     12       82       78       83       86
     262      4       83       84       89       90
     263      6       83       84       89       91
     264      6       83       84       89       92
     265      6       84       89       90       93
     266      6       84       89       90       94
     267     12       85       83       84       87
     268     12       85       83       84       88
     269      6       85       83       84       89
     270     12       86       83       84       87
     271     12       86       83       84       88
     272      6       86       83       84       89
     273      6       87       84       89       90
     274     12       87       84       89       91
     275     12       87       84       89       92
     276      6       88       84       89       90
     277     12       88       84       89       91
     278     12       88       84       89       92
     279     12       91       89       90       93
     280     12       91       89       90       94
     281     12       92       89       90       93
     282     12       92       89       90       94
     283      4       95       96      101      102
     284      6       95       96      101      103
     285      6       95       96      101      104
     286      7       95      158      155      156
     287      7       95      158      155      157
     288      8       95      158      155      159
     289      5       96       95      158      155
     290      6       96       95      158      164
     291      6       96       95      158      165
     292      6       96      101      102      105
     293      6       96      101      102      106
     294      4       96      101      102      107
     295     12       97       95       96       99
     296     12       97       95       96      100
     297      6       97       95       96      101
     298     10       97       95      158      155
     299     12       97       95      158      164
     300     12       97       95      158      165
     301     12       98       95       96       99
     302     12       98       95       96      100
     303      6       98       95       96      101
     304     10       98       95      158      155
     305     12       98       95      158      164
     306     12       98       95      158      165
     307      6       99       96       95      158
     308      6       99       96      101      102
     309     12       99       96      101      103
     310     12       99       96      101      104
     311      6      100       96       95      158
     312      6      100       96      101      102
     313     12      100       96      101      103
     314     12      100       96      101      104
     315      4      101       96       95      158
     316      4      101      102      107      108
     317      6      101      102      107      109
     318      6      101      102      107      110
     319      6      102      107      108      111
     320      6      102      107      108      112
     321      4      102      107      108      113
     322     12      103      101      102      105
     323     12      103      101      102      106
     324      6      103      101      102      107
     325     12      104      101      102      105
     326     12      104      101      102      106
     327      6      104      101      102      107
     328      6      105      102      107      108
     329     12      105      102      107      109
     330     12      105      102      107      110
     331      6      106      102      107      108
     332     12      106      102      107      109
     333     12      106      102      107      110
     334      4      107      108      113      114
     335      6      107      108      113      115
     336      6      107      108      113      116
     337      6      108      113      114      117
     338      6      108      113      114      118
     339      4      108      113      114      119
     340     12      109      107      108      111
     341     12      109      107      108      112
     342      6      109      107      108      113
     343     12      110      107      108      111
     344     12      110      107      108      112
     345      6      110      107      108      113
     346      6      111      108      113      114
     347     12      111      108      113      115
     348     12      111      108      113      116
     349      6      112      108      113      114
     350     12      112      108      113      115
     351     12      112      108      113      116
     352      4      113      114      119      120
     353      6      113      114      119      121
     354      6      113      114      119      122
     355      6      114      119      120      123
     356      6      114      119      120      124
     357      4      114      119      120      167
     358     12      115      113      114      117
     359     12      115      113      114      118
     360      6      115      113      114      119
     361     12      116      113      114      117
     362     12      116      113      114      118
     363      6      116      113      114      119
     364      6      117      114      119      120
     365     12      117      114      119      121
     366     12      117      114      119      122
     367      6      118      114      119      120
     368     12      118      114      119      121
     369     12      118      114      119      122
     370      5      119      120      167      166
     371      6      119      120      167      171
     372      6      119      120      167      172
     373      7      120      167      166      168
     374      7      120      167      166      169
     375      8      120      167      166      170
     376     12      121      119      120      123
     377     12      121      119      120      124
     378      6      121      119      120      167
     379     12      122      119      120      123
     380     12      122      119      120      124
     381      6      122      119      120      167
     382     10      123      120      167      166
     383     12      123      120      167      171
     384     12      123      120      167      172
     385     10      124      120      167      166
     386     12      124      120      167      171
     387     12      124      120      167      172
     388      7      125      168      166      167
     389      7      125      168      166      169
     390      8      125      168      166      170
     391      5      126      125      168      166
     392      6      126      125      168      173
     393      6      126      125      168      174
     394     12      127      125      126      129
     395     12      127      125      126      130
     396     10      127      125      168      166
     397     12      127      125      168      173
     398     12      127      125      168      174
     399     12      128      125      126      129
     400     12      128      125      126      130
     401     10      128      125      168      166
     402     12      128      125      168      173
     403     12      128      125      168      174
     404      6      129      126      125      168
     405      6      130      126      125      168
     406      4      131      132      137      138
     407      6      131      132      137      139
     408      6      131      132      137      140
     409      7      131      169      166      167
     410      7      131      169      166      168
     411      8      131      169      166      170
     412      5      132      131      169      166
     413      6      132      131      169      175
     414      6      132      131      169      176
     415      6      132      137      138      141
     416      6      132      137      138      142
     417      4      132      137      138      143
     418     12      133      131      132      135
     419     12      133      131      132      136
     420      6      133      131      132      137
     421     10      133      131      169      166
     422     12      133      131      169      175
     423     12      133      131      169      176
     424     12      134      131      132      135
     425     12      134      131      132      136
     426      6      134      131      132      137
     427     10      134      131      169      166
     428     12      134      131      169      175
     429     12      134      131      169      176
     430      6      135      132      131      169
     431      6      135      132      137      138
     432     12      135      132      137      139
     433     12      135      132      137      140
     434      6      136      132      131      169
     435      6      136      132      137      138
     436     12      136      132      137      139
     437     12      136      132      137      140
     438      4      137      132      131      169
     439      4      137      138      143      144
     440      6      137      138      143      145
     441      6      137      138      143      146
     442      6      138      143      144      147
     443      6      138      143      144      148
     444      4      138      143      144      149
     445     12      139      137      138      141
     446     12      139      137      138      142
     447      6      139      137      138      143
     448     12      140      137      138      141
     449     12      140      137      138      142
     450      6      140      137      138      143
     451      6      141      138      143      144
     452     12      141      138      143      145
     453     12      141      138      143      146
     454      6      142      138      143      144
     455     12      142      138      143      145
     456     12      142      138      143      146
     457      4      143      144      149      150
     458      6      143      144      149      151
     459      6      143      144      149      152
     460      6      144      149      150      153
     461      6      144      149      150      154
     462     12      145      143      144      147
     463     12      145      143      144      148
     464      6      145      143      144      149
     465     12      146      143      144      147
     466     12      146      143      144      148
     467      6      146      143      144      149
     468      6      147      144      149      150
     469     12      147      144      149      151
     470     12      147      144      149      152
     471      6      148      144      149      150
     472     12      148      144      149      151
     473     12      148      144      149      152
     474     12      151      149      150      153
     475     12      151      149      150      154
     476     12      152      149      150      153
     477     12      152      149      150      154
     478      9      156      155      157      162
     479      9      156      155      157      163
     480      9      156      155      158      164
     481      9      156      155      158      165
     482      9      157      155      156      160
     483      9      157      155      156      161
     484      9      157      155      158      164
     485      9      157      155      158      165
     486      9      158      155      156      160
     487      9      158      155      156      161
     488      9      158      155      157      162
     489      9      158      155      157      163
     490     13      159      155      156      160
     491     13      159      155      156      161
     492     13      159      155      157      162
     493     13      159      155      157      163
     494     13      159      155      158      164
     495     13      159      155      158      165
     496      9      167      166      168      173
     497      9      167      166      168      174
     498      9      167      166      169      175
     499      9      167      166      169      176
     500      9      168      166      167      171
     501      9      168      166      167      172
     502      9      168      166      169      175
     503      9      168      166      169      176
     504      9      169      166      167      171
     505      9      169      166      167      172
     506      9      169      166      168      173
     507      9      169      166      168      174
     508     13      170      166      167      171
     509     13      170      166      167      172
     510     13      170      166      168      173
     511     13      170      166      168      174
     512     13      170      166      169      175
     513     13      170      166      169      176

Impropers


