LAMMPS data file generated by clean-room 1-hop pipeline

     222 atoms
     243 bonds
     396 angles
     612 dihedrals
     132 impropers

       3 atom types
       4 bond types
       8 angle types
      15 dihedral types
       5 improper types

  -30.642800    31.699000 xlo xhi
  -32.081400    31.853100 ylo yhi
  -33.671300    33.450400 zlo zhi

Masses

       1    12.011000
       2    12.011000
       3     1.008000

Pair Coeffs

       1     0.070000     3.550000
       2     0.070000     3.550000
       3     0.030000     2.420000

Bond Coeffs

       1   469.000000     1.400000
       2   469.000000     1.400000
       3   367.000000     1.080000
       4   385.000000     1.460000

Angle Coeffs

       1    63.000000   120.000000
       2    63.000000   120.000000
       3    35.000000   120.000000
       4    63.000000   120.000000
       5    63.000000   120.000000
       6    63.000000   120.000000
       7    35.000000   120.000000
       8    63.000000   120.000000

Dihedral Coeffs

       1     0.000000     7.250000     0.000000     0.000000
       2     0.000000     7.250000     0.000000     0.000000
       3     0.000000     7.250000     0.000000     0.000000
       4     0.000000     7.250000     0.000000     0.000000
       5     0.000000     7.250000     0.000000     0.000000
       6     0.000000     7.250000     0.000000     0.000000
       7     0.000000     7.250000     0.000000     0.000000
       8     0.000000     1.650000     0.000000    -0.050000
       9     0.000000     1.650000     0.000000    -0.050000
      10     0.000000     7.250000     0.000000     0.000000
      11     0.000000     7.250000     0.000000     0.000000
      12     0.000000     7.250000     0.000000     0.000000
      13     0.000000     7.250000     0.000000     0.000000
      14     0.000000     1.650000     0.000000    -0.050000
      15     0.000000     7.250000     0.000000     0.000000

Improper Coeffs

       1     2.500000   -1    2
       2     2.500000   -1    2
       3     2.500000   -1    2
       4     2.500000   -1    2
       5     2.500000   -1    2

Atoms

       1    1      2  -0.04007428    -6.624600     7.948000     1.287700
       2    1      1  -0.14833692    -5.963000     9.334900     1.206600
       3    1      1  -0.14833692    -6.807800    10.566800     0.829700
       4    1      1  -0.14833692    -8.312400    10.411000     0.536000
       5    1      1  -0.14833692    -8.975500     9.024900     0.629000
       6    1      1  -0.14833692    -8.131500     7.794700     1.008400
       7    1      3   0.16703826    -4.847700     9.448500     1.414100
       8    1      3   0.16703826    -6.318700    11.594400     0.765000
       9    1      3   0.16703826    -8.935400    11.322600     0.252600
      10    1      3   0.16703826   -10.089700     8.909300     0.417100
      11    1      3   0.16703826    -8.619900     6.766500     1.072200
      12    1      2  -0.04007428    -0.189500     7.660500    -2.724900
      13    1      1  -0.14833692    -1.116300     8.524600    -1.849800
      14    1      1  -0.14833692    -0.936900    10.055000    -1.816900
      15    1      1  -0.14833692     0.159700    10.721300    -2.668900
      16    1      1  -0.14833692     1.063800     9.859800    -3.570100
      17    1      1  -0.14833692     0.884400     8.330800    -3.603100
      18    1      3   0.16703826    -1.921500     8.030700    -1.211900
      19    1      3   0.16703826    -1.619300    10.694900    -1.165900
      20    1      3   0.16703826     0.293200    11.853100    -2.643700
      21    1      3   0.16703826     1.866700    10.353900    -4.211200
      22    1      3   0.16703826     1.564600     7.691200    -4.257400
      23    1      2  -0.04007428     8.046800     5.174200    -1.118000
      24    1      1  -0.14833692     9.116300     6.247000    -0.841200
      25    1      1  -0.14833692    10.449400     6.223900    -1.610100
      26    1      1  -0.14833692    10.709500     5.131700    -2.663300
      27    1      1  -0.14833692     9.631000     4.071200    -2.955200
      28    1      1  -0.14833692     8.296600     4.094400    -2.185200
      29    1      3   0.16703826     8.926900     7.047600    -0.052000
      30    1      3   0.16703826    11.245300     7.011700    -1.396300
      31    1      3   0.16703826    11.699000     5.109700    -3.229000
      32    1      3   0.16703826     9.821300     3.266600    -3.739900
      33    1      3   0.16703826     7.502100     3.304000    -2.394800
      34    1      2  -0.04007428     5.204900     7.112000     2.945300
      35    1      1  -0.14833692     3.998600     6.983200     3.893800
      36    1      1  -0.14833692     3.748300     8.053000     4.972400
      37    1      1  -0.14833692     4.707700     9.249900     5.105500
      38    1      1  -0.14833692     5.919800     9.374300     4.163000
      39    1      1  -0.14833692     6.169200     8.304400     3.082700
      40    1      3   0.16703826     3.287900     6.097300     3.793400
      41    1      3   0.16703826     2.852700     7.959000     5.671600
      42    1      3   0.16703826     4.521500    10.043700     5.902100
      43    1      3   0.16703826     6.631100    10.259500     4.262800
      44    1      3   0.16703826     7.063400     8.398300     2.381700
      45    1      2  -0.04007428     7.846100     3.548600     3.012400
      46    1      1  -0.14833692     8.179600     3.592100     1.510600
      47    1      1  -0.14833692     9.531900     4.158400     1.037600
      48    1      1  -0.14833692    10.548700     4.687500     2.065800
      49    1      1  -0.14833692    10.216900     4.640300     3.568800
      50    1      1  -0.14833692     8.867400     4.066800     4.041900
      51    1      3   0.16703826     7.422700     3.211300     0.747700
      52    1      3   0.16703826     9.777000     4.192100    -0.075500
      53    1      3   0.16703826    11.546200     5.113800     1.714800
      54    1      3   0.16703826    10.969000     5.031300     4.331200
      55    1      3   0.16703826     8.621200     4.032400     5.154400
      56    1      2  -0.04007428     2.558100     0.202400     9.835200
      57    1      1  -0.14833692     1.358200    -0.336200     9.038100
      58    1      1  -0.14833692     0.318700    -1.236200     9.733000
      59    1      1  -0.14833692     0.480300    -1.594500    11.222500
      60    1      1  -0.14833692     1.677700    -1.047100    12.020700
      61    1      1  -0.14833692     2.714200    -0.145500    11.327000
      62    1      3   0.16703826     1.241100    -0.073700     7.934800
      63    1      3   0.16703826    -0.571300    -1.636600     9.144200
      64    1      3   0.16703826    -0.288400    -2.262000    11.735300
      65    1      3   0.16703826     1.796800    -1.309800    13.123700
      66    1      3   0.16703826     3.603500     0.258000    11.915300
      67    1      2  -0.04007428     7.183300     2.832000    10.101800
      68    1      1  -0.14833692     8.284000     3.644700     9.392300
      69    1      1  -0.14833692     9.548600     4.071800    10.160900
      70    1      1  -0.14833692     9.713700     3.684600    11.641500
      71    1      1  -0.14833692     8.609100     2.880300    12.354000
      72    1      1  -0.14833692     7.341500     2.457800    11.586000
      73    1      3   0.16703826     8.163400     3.926700     8.294400
      74    1      3   0.16703826    10.362600     4.671400     9.633700
      75    1      3   0.16703826    10.652500     3.992500    12.210600
      76    1      3   0.16703826     8.731900     2.593900    13.450400
      77    1      3   0.16703826     6.526900     1.859600    12.113500
      78    1      2  -0.04007428    -6.316100    -0.031400     1.149100
      79    1      1  -0.14833692    -7.822300     0.121000     1.418800
      80    1      1  -0.14833692    -8.346400     0.106400     2.866500
      81    1      1  -0.14833692    -7.362700    -0.032200     4.043800
      82    1      1  -0.14833692    -5.851100    -0.138300     3.775500
      83    1      1  -0.14833692    -5.328800    -0.132800     2.328000
      84    1      3   0.16703826    -8.549900     0.220100     0.546700
      85    1      3   0.16703826    -9.462600     0.215600     3.067100
      86    1      3   0.16703826    -7.750700    -0.025200     5.115400
      87    1      3   0.16703826    -5.119000    -0.208400     4.646900
      88    1      3   0.16703826    -4.209700    -0.217400     2.127500
      89    1      2  -0.04007428    -7.259200    -1.233500    -3.928700
      90    1      1  -0.14833692    -6.768500    -1.870400    -5.240100
      91    1      1  -0.14833692    -7.707500    -1.955300    -6.457600
      92    1      1  -0.14833692    -9.124400    -1.358100    -6.379400
      93    1      1  -0.14833692    -9.600000    -0.676000    -5.083600
      94    1      1  -0.14833692    -8.667600    -0.614200    -3.859500
      95    1      3   0.16703826    -5.701600    -2.248200    -5.321500
      96    1      3   0.16703826    -7.348100    -2.447600    -7.421100
      97    1      3   0.16703826    -9.816900    -1.411500    -7.283400
      98    1      3   0.16703826   -10.642800    -0.218300    -5.030300
      99    1      3   0.16703826    -9.021500    -0.112200    -2.899000
     100    1      2  -0.04007428    -6.012100    -4.200600    -0.591000
     101    1      1  -0.14833692    -6.915500    -2.961700    -0.482700
     102    1      1  -0.14833692    -7.685700    -2.674600     0.817000
     103    1      1  -0.14833692    -7.540700    -3.620600     2.021400
     104    1      1  -0.14833692    -6.649600    -4.870700     1.910800
     105    1      1  -0.14833692    -5.897500    -5.168400     0.599700
     106    1      3   0.16703826    -7.068100    -2.294700    -1.385800
     107    1      3   0.16703826    -8.362300    -1.760800     0.889700
     108    1      3   0.16703826    -8.078600    -3.386800     2.999200
     109    1      3   0.16703826    -6.534400    -5.568900     2.804100
     110    1      3   0.16703826    -5.247300    -6.100800     0.513700
     111    1      2  -0.04007428    -5.051200    -7.965900    -4.131200
     112    1      1  -0.14833692    -5.292500    -9.016000    -3.032700
     113    1      1  -0.14833692    -5.235900   -10.516700    -3.370900
     114    1      1  -0.14833692    -4.916900   -10.970300    -4.806700
     115    1      1  -0.14833692    -4.633600    -9.922300    -5.899300
     116    1      1  -0.14833692    -4.688600    -8.420700    -5.559100
     117    1      3   0.16703826    -5.525800    -8.680800    -1.968400
     118    1      3   0.16703826    -5.429800   -11.291700    -2.557700
     119    1      3   0.16703826    -4.883800   -12.081400    -5.060000
     120    1      3   0.16703826    -4.384900   -10.258200    -6.960100
     121    1      3   0.16703826    -4.476600    -7.645600    -6.367900
     122    1      2  -0.04007428    -8.134200    -6.554100   -10.187500
     123    1      1  -0.14833692    -8.156900    -5.513100   -11.320700
     124    1      1  -0.14833692    -8.983500    -5.779200   -12.593100
     125    1      1  -0.14833692    -9.787500    -7.085900   -12.731300
     126    1      1  -0.14833692    -9.761600    -8.128300   -11.598700
     127    1      1  -0.14833692    -8.932700    -7.863500   -10.328200
     128    1      3   0.16703826    -7.564500    -4.544900   -11.216200
     129    1      3   0.16703826    -9.002500    -5.007200   -13.431600
     130    1      3   0.16703826   -10.402700    -7.279800   -13.671300
     131    1      3   0.16703826   -10.357200    -9.095000   -11.699500
     132    1      3   0.16703826    -8.913700    -8.634800    -9.488700
     133    1      2  -0.04007428    -5.779200     6.698800     1.590300
     134    1      1  -0.14833692    -6.460300     5.321400     1.624500
     135    1      1  -0.14833692    -5.604100     4.049200     1.710800
     136    1      2  -0.04007428    -4.069600     4.155200     1.750000
     137    1      1  -0.14833692    -3.395400     5.532200     1.889200
     138    1      1  -0.14833692    -4.255000     6.810800     1.798900
     139    1      3   0.16703826    -7.594800     5.243000     1.541800
     140    1      3   0.16703826    -6.103100     3.024200     1.683000
     141    1      3   0.16703826    -2.262900     5.608300     1.996000
     142    1      3   0.16703826    -3.760100     7.836500     1.847000
     143    1      2  -0.04007428     0.354600     3.289800    -1.707900
     144    1      1  -0.14833692     1.087300     3.851000    -2.939300
     145    1      1  -0.14833692     0.796300     5.288000    -3.398400
     146    1      2  -0.04007428    -0.241000     6.123100    -2.631200
     147    1      1  -0.14833692    -1.225600     5.418100    -1.674400
     148    1      1  -0.14833692    -0.948200     3.963100    -1.240000
     149    1      3   0.16703826     1.933900     3.258100    -3.419800
     150    1      3   0.16703826     1.409400     5.759400    -4.236100
     151    1      3   0.16703826    -2.104100     5.992700    -1.229800
     152    1      3   0.16703826    -1.623600     3.452300    -0.479100
     153    1      2  -0.04007428    -5.835200    -5.722600    -6.258500
     154    1      1  -0.14833692    -6.589000    -7.052400    -6.461000
     155    1      1  -0.14833692    -7.323000    -7.338900    -7.782400
     156    1      2  -0.04007428    -7.330300    -6.286600    -8.901900
     157    1      1  -0.14833692    -6.560400    -4.963900    -8.718600
     158    1      1  -0.14833692    -5.820200    -4.677800    -7.393800
     159    1      3   0.16703826    -6.634400    -7.813900    -5.614500
     160    1      3   0.16703826    -7.880600    -8.323300    -7.923800
     161    1      3   0.16703826    -6.552600    -4.189400    -9.555400
     162    1      3   0.16703826    -5.279600    -3.685000    -7.246300
     163    1      2  -0.04007428    -3.253900     2.887900     1.451400
     164    1      1  -0.14833692    -1.719100     2.878300     1.435600
     165    1      2  -0.04007428    -0.970900     1.738500     0.711600
     166    1      1  -0.14833692    -1.783000     0.590400     0.023000
     167    1      2  -0.04007428    -3.332700     0.556100     0.173100
     168    1      1  -0.14833692    -4.028000     1.667900     0.965500
     169    1      3   0.16703826    -1.137000     3.749700     1.884300
     170    1      3   0.16703826    -1.246200    -0.212400    -0.582800
     171    1      3   0.16703826    -5.161500     1.649600     1.077900
     172    1      2  -0.04007428     4.544500     3.909800     0.525700
     173    1      1  -0.14833692     5.687800     4.062300    -0.496400
     174    1      2  -0.04007428     6.765100     5.147000    -0.267700
     175    1      1  -0.14833692     6.603100     6.175500     0.868100
     176    1      2  -0.04007428     5.423100     6.057500     1.844900
     177    1      1  -0.14833692     4.441900     4.885200     1.713100
     178    1      3   0.16703826     5.771200     3.345700    -1.379100
     179    1      3   0.16703826     7.367000     7.012700     0.993700
     180    1      3   0.16703826     3.606600     4.757600     2.478400
     181    1      2  -0.04007428     4.002500     2.216900     2.894800
     182    1      1  -0.14833692     5.444000     2.549200     2.461100
     183    1      2  -0.04007428     6.484000     3.006700     3.481700
     184    1      1  -0.14833692     6.149100     2.944900     4.969800
     185    1      2  -0.04007428     4.799700     2.377600     5.441200
     186    1      1  -0.14833692     3.685800     2.036100     4.406100
     187    1      3   0.16703826     5.717300     2.532400     1.355000
     188    1      3   0.16703826     6.922300     3.279200     5.738500
     189    1      3   0.16703826     2.655800     1.689000     4.749700
     190    1      2  -0.04007428     4.683400     2.168100     6.963100
     191    1      1  -0.14833692     3.537400     1.385500     7.634800
     192    1      2  -0.04007428     3.628400     1.065600     9.146900
     193    1      1  -0.14833692     4.823800     1.566800     9.982000
     194    1      2  -0.04007428     5.944800     2.374000     9.308800
     195    1      1  -0.14833692     5.857700     2.687500     7.811400
     196    1      3   0.16703826     2.654500     1.011700     7.017800
     197    1      3   0.16703826     4.883100     1.324800    11.094700
     198    1      3   0.16703826     6.693500     3.280500     7.311800
     199    1      2  -0.04007428     0.570000     1.865000     0.576300
     200    1      2  -0.04007428     1.174600     2.426500    -0.736700
     201    1      1  -0.14833692     2.692900     2.590000    -0.864600
     202    1      2  -0.04007428     3.479200     2.799600     0.426600
     203    1      2  -0.04007428     2.968400     2.195500     1.738200
     204    1      1  -0.14833692     1.500000     1.698100     1.821300
     205    1      3   0.16703826     3.156000     2.863600    -1.869700
     206    1      3   0.16703826     1.090400     1.271500     2.795800
     207    1      2  -0.04007428    -4.303500    -0.411200    -0.560700
     208    1      2  -0.04007428    -5.805400    -0.221200    -0.290500
     209    1      1  -0.14833692    -6.787300    -0.354600    -1.461900
     210    1      2  -0.04007428    -6.337400    -1.154400    -2.694000
     211    1      2  -0.04007428    -5.039300    -1.987800    -2.571900
     212    1      1  -0.14833692    -3.913200    -1.447600    -1.639200
     213    1      3   0.16703826    -7.846800     0.060100    -1.389800
     214    1      3   0.16703826    -2.844200    -1.833700    -1.722100
     215    1      2  -0.04007428    -5.065100    -3.478600    -3.003600
     216    1      2  -0.04007428    -5.367400    -4.562900    -1.942500
     217    1      1  -0.14833692    -5.204100    -6.048100    -2.298000
     218    1      2  -0.04007428    -5.148700    -6.468000    -3.775300
     219    1      2  -0.04007428    -5.252500    -5.380200    -4.866600
     220    1      1  -0.14833692    -4.972100    -3.908900    -4.485900
     221    1      3   0.16703826    -5.227100    -6.839200    -1.477100
     222    1      3   0.16703826    -4.781900    -3.136900    -5.300200

Bonds

       1      2        1        2
       2      4        1      133
       3      1        2        3
       4      3        2        7
       5      1        3        4
       6      3        3        8
       7      1        4        5
       8      3        4        9
       9      1        5        6
      10      3        5       10
      11      2        6        1
      12      3        6       11
      13      2       12       13
      14      4       12      146
      15      1       13       14
      16      3       13       18
      17      1       14       15
      18      3       14       19
      19      1       15       16
      20      3       15       20
      21      1       16       17
      22      3       16       21
      23      2       17       12
      24      3       17       22
      25      2       23       24
      26      4       23      174
      27      1       24       25
      28      3       24       29
      29      1       25       26
      30      3       25       30
      31      1       26       27
      32      3       26       31
      33      1       27       28
      34      3       27       32
      35      2       28       23
      36      3       28       33
      37      2       34       35
      38      4       34      176
      39      1       35       36
      40      3       35       40
      41      1       36       37
      42      3       36       41
      43      1       37       38
      44      3       37       42
      45      1       38       39
      46      3       38       43
      47      2       39       34
      48      3       39       44
      49      2       45       46
      50      4       45      183
      51      1       46       47
      52      3       46       51
      53      1       47       48
      54      3       47       52
      55      1       48       49
      56      3       48       53
      57      1       49       50
      58      3       49       54
      59      2       50       45
      60      3       50       55
      61      2       56       57
      62      4       56      192
      63      1       57       58
      64      3       57       62
      65      1       58       59
      66      3       58       63
      67      1       59       60
      68      3       59       64
      69      1       60       61
      70      3       60       65
      71      2       61       56
      72      3       61       66
      73      2       67       68
      74      4       67      194
      75      1       68       69
      76      3       68       73
      77      1       69       70
      78      3       69       74
      79      1       70       71
      80      3       70       75
      81      1       71       72
      82      3       71       76
      83      2       72       67
      84      3       72       77
      85      2       78       79
      86      4       78      208
      87      1       79       80
      88      3       79       84
      89      1       80       81
      90      3       80       85
      91      1       81       82
      92      3       81       86
      93      1       82       83
      94      3       82       87
      95      2       83       78
      96      3       83       88
      97      2       89       90
      98      4       89      210
      99      1       90       91
     100      3       90       95
     101      1       91       92
     102      3       91       96
     103      1       92       93
     104      3       92       97
     105      1       93       94
     106      3       93       98
     107      2       94       89
     108      3       94       99
     109      2      100      101
     110      4      100      216
     111      1      101      102
     112      3      101      106
     113      1      102      103
     114      3      102      107
     115      1      103      104
     116      3      103      108
     117      1      104      105
     118      3      104      109
     119      2      105      100
     120      3      105      110
     121      2      111      112
     122      4      111      218
     123      1      112      113
     124      3      112      117
     125      1      113      114
     126      3      113      118
     127      1      114      115
     128      3      114      119
     129      1      115      116
     130      3      115      120
     131      2      116      111
     132      3      116      121
     133      2      122      123
     134      4      122      156
     135      1      123      124
     136      3      123      128
     137      1      124      125
     138      3      124      129
     139      1      125      126
     140      3      125      130
     141      1      126      127
     142      3      126      131
     143      2      127      122
     144      3      127      132
     145      2      133      134
     146      1      134      135
     147      3      134      139
     148      2      135      136
     149      3      135      140
     150      2      136      137
     151      4      136      163
     152      1      137      138
     153      3      137      141
     154      2      138      133
     155      3      138      142
     156      2      143      144
     157      4      143      200
     158      1      144      145
     159      3      144      149
     160      2      145      146
     161      3      145      150
     162      2      146      147
     163      1      147      148
     164      3      147      151
     165      2      148      143
     166      3      148      152
     167      2      153      154
     168      4      153      219
     169      1      154      155
     170      3      154      159
     171      2      155      156
     172      3      155      160
     173      2      156      157
     174      1      157      158
     175      3      157      161
     176      2      158      153
     177      3      158      162
     178      2      163      164
     179      2      164      165
     180      3      164      169
     181      2      165      166
     182      4      165      199
     183      2      166      167
     184      3      166      170
     185      2      167      168
     186      4      167      207
     187      2      168      163
     188      3      168      171
     189      2      172      173
     190      4      172      202
     191      2      173      174
     192      3      173      178
     193      2      174      175
     194      2      175      176
     195      3      175      179
     196      2      176      177
     197      2      177      172
     198      3      177      180
     199      2      181      182
     200      4      181      203
     201      2      182      183
     202      3      182      187
     203      2      183      184
     204      2      184      185
     205      3      184      188
     206      2      185      186
     207      4      185      190
     208      2      186      181
     209      3      186      189
     210      2      190      191
     211      2      191      192
     212      3      191      196
     213      2      192      193
     214      2      193      194
     215      3      193      197
     216      2      194      195
     217      2      195      190
     218      3      195      198
     219      4      199      200
     220      2      200      201
     221      2      201      202
     222      3      201      205
     223      4      202      203
     224      2      203      204
     225      2      204      199
     226      3      204      206
     227      4      207      208
     228      2      208      209
     229      2      209      210
     230      3      209      213
     231      4      210      211
     232      2      211      212
     233      4      211      215
     234      2      212      207
     235      3      212      214
     236      4      215      216
     237      2      216      217
     238      2      217      218
     239      3      217      221
     240      4      218      219
     241      2      219      220
     242      2      220      215
     243      3      220      222

Angles

       1      2        1        2        3
       2      7        1        2        7
       3      2        1        6        5
       4      7        1        6       11
       5      5        1      133      134
       6      5        1      133      138
       7      4        2        1        6
       8      5        2        1      133
       9      1        2        3        4
      10      3        2        3        8
      11      3        3        2        7
      12      1        3        4        5
      13      3        3        4        9
      14      3        4        3        8
      15      1        4        5        6
      16      3        4        5       10
      17      3        5        4        9
      18      3        5        6       11
      19      5        6        1      133
      20      3        6        5       10
      21      2       12       13       14
      22      7       12       13       18
      23      2       12       17       16
      24      7       12       17       22
      25      5       12      146      145
      26      5       12      146      147
      27      4       13       12       17
      28      5       13       12      146
      29      1       13       14       15
      30      3       13       14       19
      31      3       14       13       18
      32      1       14       15       16
      33      3       14       15       20
      34      3       15       14       19
      35      1       15       16       17
      36      3       15       16       21
      37      3       16       15       20
      38      3       16       17       22
      39      5       17       12      146
      40      3       17       16       21
      41      2       23       24       25
      42      7       23       24       29
      43      2       23       28       27
      44      7       23       28       33
      45      5       23      174      173
      46      5       23      174      175
      47      4       24       23       28
      48      5       24       23      174
      49      1       24       25       26
      50      3       24       25       30
      51      3       25       24       29
      52      1       25       26       27
      53      3       25       26       31
      54      3       26       25       30
      55      1       26       27       28
      56      3       26       27       32
      57      3       27       26       31
      58      3       27       28       33
      59      5       28       23      174
      60      3       28       27       32
      61      2       34       35       36
      62      7       34       35       40
      63      2       34       39       38
      64      7       34       39       44
      65      5       34      176      175
      66      5       34      176      177
      67      4       35       34       39
      68      5       35       34      176
      69      1       35       36       37
      70      3       35       36       41
      71      3       36       35       40
      72      1       36       37       38
      73      3       36       37       42
      74      3       37       36       41
      75      1       37       38       39
      76      3       37       38       43
      77      3       38       37       42
      78      3       38       39       44
      79      5       39       34      176
      80      3       39       38       43
      81      2       45       46       47
      82      7       45       46       51
      83      2       45       50       49
      84      7       45       50       55
      85      5       45      183      182
      86      5       45      183      184
      87      4       46       45       50
      88      5       46       45      183
      89      1       46       47       48
      90      3       46       47       52
      91      3       47       46       51
      92      1       47       48       49
      93      3       47       48       53
      94      3       48       47       52
      95      1       48       49       50
      96      3       48       49       54
      97      3       49       48       53
      98      3       49       50       55
      99      5       50       45      183
     100      3       50       49       54
     101      2       56       57       58
     102      7       56       57       62
     103      2       56       61       60
     104      7       56       61       66
     105      5       56      192      191
     106      5       56      192      193
     107      4       57       56       61
     108      5       57       56      192
     109      1       57       58       59
     110      3       57       58       63
     111      3       58       57       62
     112      1       58       59       60
     113      3       58       59       64
     114      3       59       58       63
     115      1       59       60       61
     116      3       59       60       65
     117      3       60       59       64
     118      3       60       61       66
     119      5       61       56      192
     120      3       61       60       65
     121      2       67       68       69
     122      7       67       68       73
     123      2       67       72       71
     124      7       67       72       77
     125      5       67      194      193
     126      5       67      194      195
     127      4       68       67       72
     128      5       68       67      194
     129      1       68       69       70
     130      3       68       69       74
     131      3       69       68       73
     132      1       69       70       71
     133      3       69       70       75
     134      3       70       69       74
     135      1       70       71       72
     136      3       70       71       76
     137      3       71       70       75
     138      3       71       72       77
     139      5       72       67      194
     140      3       72       71       76
     141      2       78       79       80
     142      7       78       79       84
     143      2       78       83       82
     144      7       78       83       88
     145      8       78      208      207
     146      5       78      208      209
     147      4       79       78       83
     148      5       79       78      208
     149      1       79       80       81
     150      3       79       80       85
     151      3       80       79       84
     152      1       80       81       82
     153      3       80       81       86
     154      3       81       80       85
     155      1       81       82       83
     156      3       81       82       87
     157      3       82       81       86
     158      3       82       83       88
     159      5       83       78      208
     160      3       83       82       87
     161      2       89       90       91
     162      7       89       90       95
     163      2       89       94       93
     164      7       89       94       99
     165      5       89      210      209
     166      8       89      210      211
     167      4       90       89       94
     168      5       90       89      210
     169      1       90       91       92
     170      3       90       91       96
     171      3       91       90       95
     172      1       91       92       93
     173      3       91       92       97
     174      3       92       91       96
     175      1       92       93       94
     176      3       92       93       98
     177      3       93       92       97
     178      3       93       94       99
     179      5       94       89      210
     180      3       94       93       98
     181      2      100      101      102
     182      7      100      101      106
     183      2      100      105      104
     184      7      100      105      110
     185      8      100      216      215
     186      5      100      216      217
     187      4      101      100      105
     188      5      101      100      216
     189      1      101      102      103
     190      3      101      102      107
     191      3      102      101      106
     192      1      102      103      104
     193      3      102      103      108
     194      3      103      102      107
     195      1      103      104      105
     196      3      103      104      109
     197      3      104      103      108
     198      3      104      105      110
     199      5      105      100      216
     200      3      105      104      109
     201      2      111      112      113
     202      7      111      112      117
     203      2      111      116      115
     204      7      111      116      121
     205      5      111      218      217
     206      8      111      218      219
     207      4      112      111      116
     208      5      112      111      218
     209      1      112      113      114
     210      3      112      113      118
     211      3      113      112      117
     212      1      113      114      115
     213      3      113      114      119
     214      3      114      113      118
     215      1      114      115      116
     216      3      114      115      120
     217      3      115      114      119
     218      3      115      116      121
     219      5      116      111      218
     220      3      116      115      120
     221      2      122      123      124
     222      7      122      123      128
     223      2      122      127      126
     224      7      122      127      132
     225      5      122      156      155
     226      5      122      156      157
     227      4      123      122      127
     228      5      123      122      156
     229      1      123      124      125
     230      3      123      124      129
     231      3      124      123      128
     232      1      124      125      126
     233      3      124      125      130
     234      3      125      124      129
     235      1      125      126      127
     236      3      125      126      131
     237      3      126      125      130
     238      3      126      127      132
     239      5      127      122      156
     240      3      127      126      131
     241      2      133      134      135
     242      7      133      134      139
     243      2      133      138      137
     244      7      133      138      142
     245      4      134      133      138
     246      2      134      135      136
     247      3      134      135      140
     248      3      135      134      139
     249      4      135      136      137
     250      5      135      136      163
     251      7      136      135      140
     252      2      136      137      138
     253      7      136      137      141
     254      5      136      163      164
     255      5      136      163      168
     256      5      137      136      163
     257      3      137      138      142
     258      3      138      137      141
     259      2      143      144      145
     260      7      143      144      149
     261      2      143      148      147
     262      7      143      148      152
     263      8      143      200      199
     264      5      143      200      201
     265      4      144      143      148
     266      5      144      143      200
     267      2      144      145      146
     268      3      144      145      150
     269      3      145      144      149
     270      4      145      146      147
     271      7      146      145      150
     272      2      146      147      148
     273      7      146      147      151
     274      3      147      148      152
     275      5      148      143      200
     276      3      148      147      151
     277      2      153      154      155
     278      7      153      154      159
     279      2      153      158      157
     280      7      153      158      162
     281      8      153      219      218
     282      5      153      219      220
     283      4      154      153      158
     284      5      154      153      219
     285      2      154      155      156
     286      3      154      155      160
     287      3      155      154      159
     288      4      155      156      157
     289      7      156      155      160
     290      2      156      157      158
     291      7      156      157      161
     292      3      157      158      162
     293      5      158      153      219
     294      3      158      157      161
     295      6      163      164      165
     296      7      163      164      169
     297      6      163      168      167
     298      7      163      168      171
     299      4      164      163      168
     300      4      164      165      166
     301      5      164      165      199
     302      7      165      164      169
     303      6      165      166      167
     304      7      165      166      170
     305      8      165      199      200
     306      5      165      199      204
     307      5      166      165      199
     308      4      166      167      168
     309      5      166      167      207
     310      7      167      166      170
     311      7      167      168      171
     312      8      167      207      208
     313      5      167      207      212
     314      5      168      167      207
     315      6      172      173      174
     316      7      172      173      178
     317      6      172      177      176
     318      7      172      177      180
     319      5      172      202      201
     320      8      172      202      203
     321      4      173      172      177
     322      5      173      172      202
     323      4      173      174      175
     324      7      174      173      178
     325      6      174      175      176
     326      7      174      175      179
     327      4      175      176      177
     328      7      176      175      179
     329      7      176      177      180
     330      5      177      172      202
     331      6      181      182      183
     332      7      181      182      187
     333      6      181      186      185
     334      7      181      186      189
     335      8      181      203      202
     336      5      181      203      204
     337      4      182      181      186
     338      5      182      181      203
     339      4      182      183      184
     340      7      183      182      187
     341      6      183      184      185
     342      7      183      184      188
     343      4      184      185      186
     344      5      184      185      190
     345      7      185      184      188
     346      7      185      186      189
     347      5      185      190      191
     348      5      185      190      195
     349      5      186      181      203
     350      5      186      185      190
     351      6      190      191      192
     352      7      190      191      196
     353      6      190      195      194
     354      7      190      195      198
     355      4      191      190      195
     356      4      191      192      193
     357      7      192      191      196
     358      6      192      193      194
     359      7      192      193      197
     360      4      193      194      195
     361      7      194      193      197
     362      7      194      195      198
     363      5      199      200      201
     364      6      199      204      203
     365      7      199      204      206
     366      5      200      199      204
     367      6      200      201      202
     368      7      200      201      205
     369      5      201      202      203
     370      7      202      201      205
     371      5      202      203      204
     372      7      203      204      206
     373      5      207      208      209
     374      6      207      212      211
     375      7      207      212      214
     376      5      208      207      212
     377      6      208      209      210
     378      7      208      209      213
     379      5      209      210      211
     380      7      210      209      213
     381      5      210      211      212
     382      8      210      211      215
     383      7      211      212      214
     384      8      211      215      216
     385      5      211      215      220
     386      5      212      211      215
     387      5      215      216      217
     388      6      215      220      219
     389      7      215      220      222
     390      5      216      215      220
     391      6      216      217      218
     392      7      216      217      221
     393      5      217      218      219
     394      7      218      217      221
     395      5      218      219      220
     396      7      219      220      222

Dihedrals

       1      2        1        2        3        4
       2     11        1        2        3        8
       3      2        1        6        5        4
       4     11        1        6        5       10
       5      5        1      133      134      135
       6     13        1      133      134      139
       7      5        1      133      138      137
       8     13        1      133      138      142
       9      4        2        1        6        5
      10      7        2        1        6       11
      11      8        2        1      133      134
      12      8        2        1      133      138
      13      1        2        3        4        5
      14      3        2        3        4        9
      15      4        3        2        1        6
      16      5        3        2        1      133
      17      1        3        4        5        6
      18      3        3        4        5       10
      19      3        4        3        2        7
      20      3        4        5        6       11
      21      3        5        4        3        8
      22      5        5        6        1      133
      23      7        6        1        2        7
      24      8        6        1      133      134
      25      8        6        1      133      138
      26      3        6        5        4        9
      27     13        7        2        1      133
      28     15        7        2        3        8
      29     15        8        3        4        9
      30     15        9        4        5       10
      31     15       10        5        6       11
      32     13       11        6        1      133
      33      2       12       13       14       15
      34     11       12       13       14       19
      35      2       12       17       16       15
      36     11       12       17       16       21
      37      5       12      146      145      144
      38     13       12      146      145      150
      39      5       12      146      147      148
      40     13       12      146      147      151
      41      4       13       12       17       16
      42      7       13       12       17       22
      43      8       13       12      146      145
      44      8       13       12      146      147
      45      1       13       14       15       16
      46      3       13       14       15       20
      47      4       14       13       12       17
      48      5       14       13       12      146
      49      1       14       15       16       17
      50      3       14       15       16       21
      51      3       15       14       13       18
      52      3       15       16       17       22
      53      3       16       15       14       19
      54      5       16       17       12      146
      55      7       17       12       13       18
      56      8       17       12      146      145
      57      8       17       12      146      147
      58      3       17       16       15       20
      59     13       18       13       12      146
      60     15       18       13       14       19
      61     15       19       14       15       20
      62     15       20       15       16       21
      63     15       21       16       17       22
      64     13       22       17       12      146
      65      2       23       24       25       26
      66     11       23       24       25       30
      67      2       23       28       27       26
      68     11       23       28       27       32
      69     12       23      174      173      172
      70     13       23      174      173      178
      71     12       23      174      175      176
      72     13       23      174      175      179
      73      4       24       23       28       27
      74      7       24       23       28       33
      75      8       24       23      174      173
      76      8       24       23      174      175
      77      1       24       25       26       27
      78      3       24       25       26       31
      79      4       25       24       23       28
      80      5       25       24       23      174
      81      1       25       26       27       28
      82      3       25       26       27       32
      83      3       26       25       24       29
      84      3       26       27       28       33
      85      3       27       26       25       30
      86      5       27       28       23      174
      87      7       28       23       24       29
      88      8       28       23      174      173
      89      8       28       23      174      175
      90      3       28       27       26       31
      91     13       29       24       23      174
      92     15       29       24       25       30
      93     15       30       25       26       31
      94     15       31       26       27       32
      95     15       32       27       28       33
      96     13       33       28       23      174
      97      2       34       35       36       37
      98     11       34       35       36       41
      99      2       34       39       38       37
     100     11       34       39       38       43
     101     12       34      176      175      174
     102     13       34      176      175      179
     103     12       34      176      177      172
     104     13       34      176      177      180
     105      4       35       34       39       38
     106      7       35       34       39       44
     107      8       35       34      176      175
     108      8       35       34      176      177
     109      1       35       36       37       38
     110      3       35       36       37       42
     111      4       36       35       34       39
     112      5       36       35       34      176
     113      1       36       37       38       39
     114      3       36       37       38       43
     115      3       37       36       35       40
     116      3       37       38       39       44
     117      3       38       37       36       41
     118      5       38       39       34      176
     119      7       39       34       35       40
     120      8       39       34      176      175
     121      8       39       34      176      177
     122      3       39       38       37       42
     123     13       40       35       34      176
     124     15       40       35       36       41
     125     15       41       36       37       42
     126     15       42       37       38       43
     127     15       43       38       39       44
     128     13       44       39       34      176
     129      2       45       46       47       48
     130     11       45       46       47       52
     131      2       45       50       49       48
     132     11       45       50       49       54
     133     12       45      183      182      181
     134     13       45      183      182      187
     135     12       45      183      184      185
     136     13       45      183      184      188
     137      4       46       45       50       49
     138      7       46       45       50       55
     139      8       46       45      183      182
     140      8       46       45      183      184
     141      1       46       47       48       49
     142      3       46       47       48       53
     143      4       47       46       45       50
     144      5       47       46       45      183
     145      1       47       48       49       50
     146      3       47       48       49       54
     147      3       48       47       46       51
     148      3       48       49       50       55
     149      3       49       48       47       52
     150      5       49       50       45      183
     151      7       50       45       46       51
     152      8       50       45      183      182
     153      8       50       45      183      184
     154      3       50       49       48       53
     155     13       51       46       45      183
     156     15       51       46       47       52
     157     15       52       47       48       53
     158     15       53       48       49       54
     159     15       54       49       50       55
     160     13       55       50       45      183
     161      2       56       57       58       59
     162     11       56       57       58       63
     163      2       56       61       60       59
     164     11       56       61       60       65
     165     12       56      192      191      190
     166     13       56      192      191      196
     167     12       56      192      193      194
     168     13       56      192      193      197
     169      4       57       56       61       60
     170      7       57       56       61       66
     171      8       57       56      192      191
     172      8       57       56      192      193
     173      1       57       58       59       60
     174      3       57       58       59       64
     175      4       58       57       56       61
     176      5       58       57       56      192
     177      1       58       59       60       61
     178      3       58       59       60       65
     179      3       59       58       57       62
     180      3       59       60       61       66
     181      3       60       59       58       63
     182      5       60       61       56      192
     183      7       61       56       57       62
     184      8       61       56      192      191
     185      8       61       56      192      193
     186      3       61       60       59       64
     187     13       62       57       56      192
     188     15       62       57       58       63
     189     15       63       58       59       64
     190     15       64       59       60       65
     191     15       65       60       61       66
     192     13       66       61       56      192
     193      2       67       68       69       70
     194     11       67       68       69       74
     195      2       67       72       71       70
     196     11       67       72       71       76
     197     12       67      194      193      192
     198     13       67      194      193      197
     199     12       67      194      195      190
     200     13       67      194      195      198
     201      4       68       67       72       71
     202      7       68       67       72       77
     203      8       68       67      194      193
     204      8       68       67      194      195
     205      1       68       69       70       71
     206      3       68       69       70       75
     207      4       69       68       67       72
     208      5       69       68       67      194
     209      1       69       70       71       72
     210      3       69       70       71       76
     211      3       70       69       68       73
     212      3       70       71       72       77
     213      3       71       70       69       74
     214      5       71       72       67      194
     215      7       72       67       68       73
     216      8       72       67      194      193
     217      8       72       67      194      195
     218      3       72       71       70       75
     219     13       73       68       67      194
     220     15       73       68       69       74
     221     15       74       69       70       75
     222     15       75       70       71       76
     223     15       76       71       72       77
     224     13       77       72       67      194
     225      2       78       79       80       81
     226     11       78       79       80       85
     227      2       78       83       82       81
     228     11       78       83       82       87
     229     14       78      208      207      167
     230      9       78      208      207      212
     231     12       78      208      209      210
     232     13       78      208      209      213
     233      4       79       78       83       82
     234      7       79       78       83       88
     235      9       79       78      208      207
     236      8       79       78      208      209
     237      1       79       80       81       82
     238      3       79       80       81       86
     239      4       80       79       78       83
     240      5       80       79       78      208
     241      1       80       81       82       83
     242      3       80       81       82       87
     243      3       81       80       79       84
     244      3       81       82       83       88
     245      3       82       81       80       85
     246      5       82       83       78      208
     247      7       83       78       79       84
     248      9       83       78      208      207
     249      8       83       78      208      209
     250      3       83       82       81       86
     251     13       84       79       78      208
     252     15       84       79       80       85
     253     15       85       80       81       86
     254     15       86       81       82       87
     255     15       87       82       83       88
     256     13       88       83       78      208
     257      2       89       90       91       92
     258     11       89       90       91       96
     259      2       89       94       93       92
     260     11       89       94       93       98
     261     12       89      210      209      208
     262     13       89      210      209      213
     263      9       89      210      211      212
     264     14       89      210      211      215
     265      4       90       89       94       93
     266      7       90       89       94       99
     267      8       90       89      210      209
     268      9       90       89      210      211
     269      1       90       91       92       93
     270      3       90       91       92       97
     271      4       91       90       89       94
     272      5       91       90       89      210
     273      1       91       92       93       94
     274      3       91       92       93       98
     275      3       92       91       90       95
     276      3       92       93       94       99
     277      3       93       92       91       96
     278      5       93       94       89      210
     279      7       94       89       90       95
     280      8       94       89      210      209
     281      9       94       89      210      211
     282      3       94       93       92       97
     283     13       95       90       89      210
     284     15       95       90       91       96
     285     15       96       91       92       97
     286     15       97       92       93       98
     287     15       98       93       94       99
     288     13       99       94       89      210
     289      2      100      101      102      103
     290     11      100      101      102      107
     291      2      100      105      104      103
     292     11      100      105      104      109
     293     14      100      216      215      211
     294      9      100      216      215      220
     295     12      100      216      217      218
     296     13      100      216      217      221
     297      4      101      100      105      104
     298      7      101      100      105      110
     299      9      101      100      216      215
     300      8      101      100      216      217
     301      1      101      102      103      104
     302      3      101      102      103      108
     303      4      102      101      100      105
     304      5      102      101      100      216
     305      1      102      103      104      105
     306      3      102      103      104      109
     307      3      103      102      101      106
     308      3      103      104      105      110
     309      3      104      103      102      107
     310      5      104      105      100      216
     311      7      105      100      101      106
     312      9      105      100      216      215
     313      8      105      100      216      217
     314      3      105      104      103      108
     315     13      106      101      100      216
     316     15      106      101      102      107
     317     15      107      102      103      108
     318     15      108      103      104      109
     319     15      109      104      105      110
     320     13      110      105      100      216
     321      2      111      112      113      114
     322     11      111      112      113      118
     323      2      111      116      115      114
     324     11      111      116      115      120
     325     12      111      218      217      216
     326     13      111      218      217      221
     327     14      111      218      219      153
     328      9      111      218      219      220
     329      4      112      111      116      115
     330      7      112      111      116      121
     331      8      112      111      218      217
     332      9      112      111      218      219
     333      1      112      113      114      115
     334      3      112      113      114      119
     335      4      113      112      111      116
     336      5      113      112      111      218
     337      1      113      114      115      116
     338      3      113      114      115      120
     339      3      114      113      112      117
     340      3      114      115      116      121
     341      3      115      114      113      118
     342      5      115      116      111      218
     343      7      116      111      112      117
     344      8      116      111      218      217
     345      9      116      111      218      219
     346      3      116      115      114      119
     347     13      117      112      111      218
     348     15      117      112      113      118
     349     15      118      113      114      119
     350     15      119      114      115      120
     351     15      120      115      116      121
     352     13      121      116      111      218
     353      2      122      123      124      125
     354     11      122      123      124      129
     355      2      122      127      126      125
     356     11      122      127      126      131
     357      5      122      156      155      154
     358     13      122      156      155      160
     359      5      122      156      157      158
     360     13      122      156      157      161
     361      4      123      122      127      126
     362      7      123      122      127      132
     363      8      123      122      156      155
     364      8      123      122      156      157
     365      1      123      124      125      126
     366      3      123      124      125      130
     367      4      124      123      122      127
     368      5      124      123      122      156
     369      1      124      125      126      127
     370      3      124      125      126      131
     371      3      125      124      123      128
     372      3      125      126      127      132
     373      3      126      125      124      129
     374      5      126      127      122      156
     375      7      127      122      123      128
     376      8      127      122      156      155
     377      8      127      122      156      157
     378      3      127      126      125      130
     379     13      128      123      122      156
     380     15      128      123      124      129
     381     15      129      124      125      130
     382     15      130      125      126      131
     383     15      131      126      127      132
     384     13      132      127      122      156
     385     10      133      134      135      136
     386     11      133      134      135      140
     387     10      133      138      137      136
     388     11      133      138      137      141
     389      4      134      133      138      137
     390      7      134      133      138      142
     391      4      134      135      136      137
     392      5      134      135      136      163
     393      4      135      134      133      138
     394      4      135      136      137      138
     395      7      135      136      137      141
     396      8      135      136      163      164
     397      8      135      136      163      168
     398     11      136      135      134      139
     399     11      136      137      138      142
     400     12      136      163      164      165
     401     13      136      163      164      169
     402     12      136      163      168      167
     403     13      136      163      168      171
     404      7      137      136      135      140
     405      8      137      136      163      164
     406      8      137      136      163      168
     407      7      138      133      134      139
     408      5      138      137      136      163
     409     15      139      134      135      140
     410     13      140      135      136      163
     411     13      141      137      136      163
     412     15      141      137      138      142
     413     10      143      144      145      146
     414     11      143      144      145      150
     415     10      143      148      147      146
     416     11      143      148      147      151
     417     14      143      200      199      165
     418      9      143      200      199      204
     419     12      143      200      201      202
     420     13      143      200      201      205
     421      4      144      143      148      147
     422      7      144      143      148      152
     423      9      144      143      200      199
     424      8      144      143      200      201
     425      4      144      145      146      147
     426      4      145      144      143      148
     427      5      145      144      143      200
     428      4      145      146      147      148
     429      7      145      146      147      151
     430     11      146      145      144      149
     431     11      146      147      148      152
     432      7      147      146      145      150
     433      5      147      148      143      200
     434      7      148      143      144      149
     435      9      148      143      200      199
     436      8      148      143      200      201
     437     13      149      144      143      200
     438     15      149      144      145      150
     439     15      151      147      148      152
     440     13      152      148      143      200
     441     10      153      154      155      156
     442     11      153      154      155      160
     443     10      153      158      157      156
     444     11      153      158      157      161
     445      9      153      219      218      217
     446     12      153      219      220      215
     447     13      153      219      220      222
     448      4      154      153      158      157
     449      7      154      153      158      162
     450      9      154      153      219      218
     451      8      154      153      219      220
     452      4      154      155      156      157
     453      4      155      154      153      158
     454      5      155      154      153      219
     455      4      155      156      157      158
     456      7      155      156      157      161
     457     11      156      155      154      159
     458     11      156      157      158      162
     459      7      157      156      155      160
     460      5      157      158      153      219
     461      7      158      153      154      159
     462      9      158      153      219      218
     463      8      158      153      219      220
     464     13      159      154      153      219
     465     15      159      154      155      160
     466     15      161      157      158      162
     467     13      162      158      153      219
     468      6      163      164      165      166
     469     12      163      164      165      199
     470      6      163      168      167      166
     471     12      163      168      167      207
     472      6      164      163      168      167
     473      7      164      163      168      171
     474      6      164      165      166      167
     475      7      164      165      166      170
     476      9      164      165      199      200
     477      8      164      165      199      204
     478      6      165      164      163      168
     479      6      165      166      167      168
     480     12      165      166      167      207
     481      9      165      199      200      201
     482     12      165      199      204      203
     483     13      165      199      204      206
     484      7      166      165      164      169
     485      9      166      165      199      200
     486      8      166      165      199      204
     487      7      166      167      168      171
     488      9      166      167      207      208
     489      8      166      167      207      212
     490     12      167      166      165      199
     491      9      167      207      208      209
     492     12      167      207      212      211
     493     13      167      207      212      214
     494      7      168      163      164      169
     495      7      168      167      166      170
     496      9      168      167      207      208
     497      8      168      167      207      212
     498     13      169      164      165      199
     499     13      170      166      165      199
     500     13      170      166      167      207
     501     13      171      168      167      207
     502      6      172      173      174      175
     503      6      172      177      176      175
     504     12      172      202      201      200
     505     13      172      202      201      205
     506     14      172      202      203      181
     507      9      172      202      203      204
     508      6      173      172      177      176
     509      7      173      172      177      180
     510      8      173      172      202      201
     511      9      173      172      202      203
     512      6      173      174      175      176
     513      7      173      174      175      179
     514      6      174      173      172      177
     515     12      174      173      172      202
     516      6      174      175      176      177
     517      7      175      174      173      178
     518      7      175      176      177      180
     519     12      176      177      172      202
     520      7      177      172      173      178
     521      8      177      172      202      201
     522      9      177      172      202      203
     523      7      177      176      175      179
     524     13      178      173      172      202
     525     13      180      177      172      202
     526      6      181      182      183      184
     527      6      181      186      185      184
     528     12      181      186      185      190
     529      9      181      203      202      201
     530     12      181      203      204      199
     531     13      181      203      204      206
     532      6      182      181      186      185
     533      7      182      181      186      189
     534      9      182      181      203      202
     535      8      182      181      203      204
     536      6      182      183      184      185
     537      7      182      183      184      188
     538      6      183      182      181      186
     539     12      183      182      181      203
     540      6      183      184      185      186
     541     12      183      184      185      190
     542      7      184      183      182      187
     543      7      184      185      186      189
     544      8      184      185      190      191
     545      8      184      185      190      195
     546     12      185      186      181      203
     547     12      185      190      191      192
     548     13      185      190      191      196
     549     12      185      190      195      194
     550     13      185      190      195      198
     551      7      186      181      182      187
     552      9      186      181      203      202
     553      8      186      181      203      204
     554      7      186      185      184      188
     555      8      186      185      190      191
     556      8      186      185      190      195
     557     13      187      182      181      203
     558     13      188      184      185      190
     559     13      189      186      181      203
     560     13      189      186      185      190
     561      6      190      191      192      193
     562      6      190      195      194      193
     563      6      191      190      195      194
     564      7      191      190      195      198
     565      6      191      192      193      194
     566      7      191      192      193      197
     567      6      192      191      190      195
     568      6      192      193      194      195
     569      7      193      192      191      196
     570      7      193      194      195      198
     571      7      195      190      191      196
     572      7      195      194      193      197
     573     12      199      200      201      202
     574     13      199      200      201      205
     575     12      199      204      203      202
     576     12      200      199      204      203
     577     13      200      199      204      206
     578     12      200      201      202      203
     579      8      201      200      199      204
     580      8      201      202      203      204
     581     13      202      203      204      206
     582     13      203      202      201      205
     583     12      207      208      209      210
     584     13      207      208      209      213
     585     12      207      212      211      210
     586     12      207      212      211      215
     587     12      208      207      212      211
     588     13      208      207      212      214
     589     12      208      209      210      211
     590      8      209      208      207      212
     591      8      209      210      211      212
     592      9      209      210      211      215
     593     13      210      211      212      214
     594     14      210      211      215      216
     595      9      210      211      215      220
     596     13      211      210      209      213
     597      9      211      215      216      217
     598     12      211      215      220      219
     599     13      211      215      220      222
     600      9      212      211      215      216
     601      8      212      211      215      220
     602     13      214      212      211      215
     603     12      215      216      217      218
     604     13      215      216      217      221
     605     12      215      220      219      218
     606     12      216      215      220      219
     607     13      216      215      220      222
     608     12      216      217      218      219
     609      8      217      216      215      220
     610      8      217      218      219      220
     611     13      218      219      220      222
     612     13      219      218      217      221

Impropers

       1      4        2        1        6      133
       2      2        1        2        3        7
       3      1        2        3        4        8
       4      1        3        4        5        9
       5      1        4        5        6       10
       6      2        1        6        5       11
       7      4       13       12       17      146
       8      2       12       13       14       18
       9      1       13       14       15       19
      10      1       14       15       16       20
      11      1       15       16       17       21
      12      2       12       17       16       22
      13      4       24       23       28      174
      14      2       23       24       25       29
      15      1       24       25       26       30
      16      1       25       26       27       31
      17      1       26       27       28       32
      18      2       23       28       27       33
      19      4       35       34       39      176
      20      2       34       35       36       40
      21      1       35       36       37       41
      22      1       36       37       38       42
      23      1       37       38       39       43
      24      2       34       39       38       44
      25      4       46       45       50      183
      26      2       45       46       47       51
      27      1       46       47       48       52
      28      1       47       48       49       53
      29      1       48       49       50       54
      30      2       45       50       49       55
      31      4       57       56       61      192
      32      2       56       57       58       62
      33      1       57       58       59       63
      34      1       58       59       60       64
      35      1       59       60       61       65
      36      2       56       61       60       66
      37      4       68       67       72      194
      38      2       67       68       69       73
      39      1       68       69       70       74
      40      1       69       70       71       75
      41      1       70       71       72       76
      42      2       67       72       71       77
      43      4       79       78       83      208
      44      2       78       79       80       84
      45      1       79       80       81       85
      46      1       80       81       82       86
      47      1       81       82       83       87
      48      2       78       83       82       88
      49      4       90       89       94      210
      50      2       89       90       91       95
      51      1       90       91       92       96
      52      1       91       92       93       97
      53      1       92       93       94       98
      54      2       89       94       93       99
      55      4      101      100      105      216
      56      2      100      101      102      106
      57      1      101      102      103      107
      58      1      102      103      104      108
      59      1      103      104      105      109
      60      2      100      105      104      110
      61      4      112      111      116      218
      62      2      111      112      113      117
      63      1      112      113      114      118
      64      1      113      114      115      119
      65      1      114      115      116      120
      66      2      111      116      115      121
      67      4      123      122      127      156
      68      2      122      123      124      128
      69      1      123      124      125      129
      70      1      124      125      126      130
      71      1      125      126      127      131
      72      2      122      127      126      132
      73      4        1      133      134      138
      74      2      133      134      135      139
      75      2      134      135      136      140
      76      4      135      136      137      163
      77      2      136      137      138      141
      78      2      133      138      137      142
      79      4      144      143      148      200
      80      2      143      144      145      149
      81      2      144      145      146      150
      82      4       12      146      145      147
      83      2      146      147      148      151
      84      2      143      148      147      152
      85      4      154      153      158      219
      86      2      153      154      155      159
      87      2      154      155      156      160
      88      4      122      156      155      157
      89      2      156      157      158      161
      90      2      153      158      157      162
      91      4      136      163      164      168
      92      3      163      164      165      169
      93      4      164      165      166      199
      94      3      165      166      167      170
      95      4      166      167      168      207
      96      3      163      168      167      171
      97      4      173      172      177      202
      98      3      172      173      174      178
      99      4       23      174      173      175
     100      3      174      175      176      179
     101      4       34      176      175      177
     102      3      172      177      176      180
     103      4      182      181      186      203
     104      3      181      182      183      187
     105      4       45      183      182      184
     106      3      183      184      185      188
     107      4      184      185      186      190
     108      3      181      186      185      189
     109      4      185      190      191      195
     110      3      190      191      192      196
     111      4       56      192      191      193
     112      3      192      193      194      197
     113      4       67      194      193      195
     114      3      190      195      194      198
     115      5      165      199      200      204
     116      5      143      200      199      201
     117      3      200      201      202      205
     118      5      172      202      201      203
     119      5      181      203      202      204
     120      3      199      204      203      206
     121      5      167      207      208      212
     122      5       78      208      207      209
     123      3      208      209      210      213
     124      5       89      210      209      211
     125      5      210      211      212      215
     126      3      207      212      211      214
     127      5      211      215      216      220
     128      5      100      216      215      217
     129      3      216      217      218      221
     130      5      111      218      217      219
     131      5      153      219      218      220
     132      3      215      220      219      222

