LAMMPS data file generated by clean-room 1-hop pipeline

     272 atoms
     271 bonds
     540 angles
     801 dihedrals
       0 impropers

       5 atom types
       7 bond types
      14 angle types
      21 dihedral types
       0 improper types

  -36.698000    36.033600 xlo xhi
  -30.018600    30.838100 ylo yhi
  -28.521600    28.545500 zlo zhi

Masses

       1    12.011000
       2    12.011000
       3    12.011000
       4    12.011000
       5     1.008000

Pair Coeffs

       1     0.066000     3.500000
       2     0.066000     3.500000
       3     0.066000     3.500000
       4     0.066000     3.500000
       5     0.030000     2.500000

Bond Coeffs

       1   268.000000     1.529000
       2   340.000000     1.090000
       3   268.000000     1.529000
       4   268.000000     1.529000
       5   268.000000     1.529000
       6   340.000000     1.090000
       7   340.000000     1.090000

Angle Coeffs

       1    58.350000   112.700000
       2    37.500000   110.700000
       3    37.500000   110.700000
       4    58.350000   112.700000
       5    58.350000   112.700000
       6    58.350000   112.700000
       7    37.500000   110.700000
       8    58.350000   112.700000
       9    37.500000   110.700000
      10    58.350000   112.700000
      11    37.500000   110.700000
      12    37.500000   110.700000
      13    33.000000   107.800000
      14    33.000000   107.800000

Dihedral Coeffs

       1     0.850000    -0.200000     0.200000     0.000000
       2     0.850000    -0.200000     0.200000     0.000000
       3     0.850000    -0.200000     0.200000     0.000000
       4     0.000000     0.000000     0.300000     0.000000
       5     0.000000     0.000000     0.300000     0.000000
       6     0.850000    -0.200000     0.200000     0.000000
       7     0.850000    -0.200000     0.200000     0.000000
       8     0.850000    -0.200000     0.200000     0.000000
       9     0.000000     0.000000     0.300000     0.000000
      10     0.850000    -0.200000     0.200000     0.000000
      11     0.000000     0.000000     0.300000     0.000000
      12     0.850000    -0.200000     0.200000     0.000000
      13     0.000000     0.000000     0.300000     0.000000
      14     0.000000     0.000000     0.300000     0.000000
      15     0.850000    -0.200000     0.200000     0.000000
      16     0.000000     0.000000     0.300000     0.000000
      17     0.850000    -0.200000     0.200000     0.000000
      18     0.000000     0.000000     0.300000     0.000000
      19     0.000000     0.000000     0.300000     0.000000
      20     0.000000     0.000000     0.300000     0.000000
      21     0.000000     0.000000     0.300000     0.000000

Improper Coeffs


Atoms

       1    1      1  -0.26486517    15.248400     6.182500    -2.783500
       2    1      2  -0.19421380    14.838600     5.014600    -3.701900
       3    1      5   0.09699579    16.033600     6.821500    -3.307400
       4    1      5   0.09699579    14.331800     6.819400    -2.550300
       5    1      5   0.09699579    15.680200     5.770800    -1.812200
       6    1      5   0.09699579    15.749200     4.370500    -3.936400
       7    1      5   0.09699579    14.404900     5.431500    -4.670100
       8    1      1  -0.26486517    12.821000     7.099200     1.158500
       9    1      2  -0.19421380    12.040600     5.976100     0.451800
      10    1      5   0.09699579    13.558200     7.568200     0.426300
      11    1      5   0.09699579    12.089700     7.893400     1.525600
      12    1      5   0.09699579    13.389500     6.666600     2.046800
      13    1      5   0.09699579    11.290600     5.520600     1.179800
      14    1      5   0.09699579    12.760500     5.167600     0.094500
      15    1      1  -0.26486517    10.267900     4.089300     2.513900
      16    1      2  -0.19421380     9.801600     2.839500     1.749900
      17    1      5   0.09699579    10.007800     5.008500     1.898700
      18    1      5   0.09699579     9.752900     4.140700     3.529200
      19    1      5   0.09699579    11.397800     4.047500     2.656400
      20    1      5   0.09699579    10.134700     1.924100     2.342500
      21    1      5   0.09699579    10.307300     2.822700     0.728300
      22    1      1  -0.26486517     8.819900     9.988700     1.869300
      23    1      2  -0.19421380     7.867600     8.924800     1.286400
      24    1      5   0.09699579     9.474600    10.399300     1.031400
      25    1      5   0.09699579     8.207200    10.838100     2.319200
      26    1      5   0.09699579     9.489900     9.539000     2.671700
      27    1      5   0.09699579     7.163000     8.504100     2.077700
      28    1      5   0.09699579     7.259800     9.437900     0.469900
      29    1      1  -0.26486517     9.955900     8.634700     4.997200
      30    1      2  -0.19421380     9.149400     8.008500     3.845100
      31    1      5   0.09699579    10.628900     7.841900     5.464200
      32    1      5   0.09699579    10.595800     9.486800     4.592100
      33    1      5   0.09699579     9.240000     9.039100     5.786800
      34    1      5   0.09699579     8.506400     7.157300     4.247600
      35    1      5   0.09699579     8.469200     8.796800     3.385700
      36    1      1  -0.26486517     9.801600    -0.270600     0.254400
      37    1      2  -0.19421380     8.274900    -0.097300     0.155000
      38    1      5   0.09699579    10.204900    -0.659400    -0.738600
      39    1      5   0.09699579    10.279400     0.737600     0.490300
      40    1      5   0.09699579    10.049400    -1.012800     1.083200
      41    1      5   0.09699579     7.867900     0.300600     1.142900
      42    1      5   0.09699579     7.782200    -1.095800    -0.088100
      43    1      1  -0.26486517     8.182300    -2.654200    -5.204600
      44    1      2  -0.19421380     7.093100    -2.594800    -6.295200
      45    1      5   0.09699579     9.192400    -2.867300    -5.687200
      46    1      5   0.09699579     8.225000    -1.650400    -4.666500
      47    1      5   0.09699579     7.950000    -3.466100    -4.442800
      48    1      5   0.09699579     7.043200    -3.561300    -6.895400
      49    1      5   0.09699579     7.360200    -1.730200    -6.986600
      50    1      1  -0.26486517     7.882300    -5.866800    -3.636600
      51    1      2  -0.19421380     6.986100    -5.141500    -4.656200
      52    1      5   0.09699579     8.578100    -6.585900    -4.182000
      53    1      5   0.09699579     8.499800    -5.100200    -3.062400
      54    1      5   0.09699579     7.226800    -6.449400    -2.908800
      55    1      5   0.09699579     6.357800    -5.907500    -5.219400
      56    1      5   0.09699579     7.628800    -4.564400    -5.397300
      57    1      1  -0.26486517     4.078400    -6.412500    -4.415800
      58    1      2  -0.19421380     3.147300    -6.890800    -3.287800
      59    1      5   0.09699579     4.519300    -7.315500    -4.952600
      60    1      5   0.09699579     3.492300    -5.776000    -5.156800
      61    1      5   0.09699579     4.922400    -5.797100    -3.964800
      62    1      5   0.09699579     3.744300    -7.506100    -2.536700
      63    1      5   0.09699579     2.323100    -7.537300    -3.738000
      64    1      1  -0.26486517     3.574100    -9.310100     2.465900
      65    1      2  -0.19421380     2.922900    -8.206400     1.612200
      66    1      5   0.09699579     4.155500   -10.018600     1.787900
      67    1      5   0.09699579     4.284900    -8.837400     3.221300
      68    1      5   0.09699579     2.764200    -9.892900     3.017400
      69    1      5   0.09699579     2.338900    -7.493300     2.283000
      70    1      5   0.09699579     2.212500    -8.688000     0.861900
      71    1      1  -0.26486517    -0.515300    -4.846700    -4.609800
      72    1      2  -0.19421380    -0.941000    -3.497300    -4.002500
      73    1      5   0.09699579    -1.363600    -5.260800    -5.248700
      74    1      5   0.09699579     0.410800    -4.695900    -5.257200
      75    1      5   0.09699579    -0.275800    -5.581100    -3.771400
      76    1      5   0.09699579    -1.863300    -3.642600    -3.350100
      77    1      5   0.09699579    -1.175800    -2.752600    -4.833100
      78    1      1  -0.26486517    -1.728200    -0.309100    -7.694100
      79    1      2  -0.19421380    -1.084900    -0.852000    -6.405500
      80    1      5   0.09699579    -2.580800    -0.996400    -8.010900
      81    1      5   0.09699579    -2.134800     0.738600    -7.503300
      82    1      5   0.09699579    -0.945100    -0.269300    -8.521600
      83    1      5   0.09699579    -0.685000    -1.902300    -6.596500
      84    1      5   0.09699579    -1.866100    -0.892800    -5.576100
      85    1      1  -0.26486517    -6.407600    -4.262600    -1.634400
      86    1      2  -0.19421380    -5.194600    -4.414600    -2.569100
      87    1      5   0.09699579    -6.769500    -3.182400    -1.652600
      88    1      5   0.09699579    -7.248700    -4.941400    -1.995900
      89    1      5   0.09699579    -6.112100    -4.552500    -0.572200
      90    1      5   0.09699579    -4.917400    -5.519900    -2.589800
      91    1      5   0.09699579    -5.524700    -4.103700    -3.615200
      92    1      1  -0.26486517    -9.047900    -1.010500    -6.005300
      93    1      2  -0.19421380    -8.465600    -1.582100    -4.699000
      94    1      5   0.09699579    -8.577200    -1.543400    -6.896200
      95    1      5   0.09699579   -10.176500    -1.167800    -6.021000
      96    1      5   0.09699579    -8.818600     0.104400    -6.066100
      97    1      5   0.09699579    -8.939400    -1.054200    -3.806600
      98    1      5   0.09699579    -8.680700    -2.699900    -4.640100
      99    1      1  -0.26486517   -13.280900    -0.486000     7.584300
     100    1      2  -0.19421380   -13.480200    -1.709700     6.671000
     101    1      5   0.09699579   -12.174500    -0.377300     7.836000
     102    1      5   0.09699579   -13.643500     0.452600     7.048700
     103    1      5   0.09699579   -13.876600    -0.629800     8.545500
     104    1      5   0.09699579   -14.585500    -1.822700     6.414900
     105    1      5   0.09699579   -13.119700    -2.645400     7.213300
     106    1      1  -0.26486517   -16.086700    -4.246100     2.912300
     107    1      2  -0.19421380   -14.591100    -4.153100     3.267500
     108    1      5   0.09699579   -16.698000    -4.343500     3.869300
     109    1      5   0.09699579   -16.402700    -3.303600     2.354600
     110    1      5   0.09699579   -16.266100    -5.157100     2.251500
     111    1      5   0.09699579   -14.266300    -5.095800     3.819100
     112    1      5   0.09699579   -13.978700    -4.039200     2.312900
     113    1      2  -0.19421380    13.771000     4.167200    -2.985700
     114    1      2  -0.19421380    12.589200     5.096100    -2.659000
     115    1      5   0.09699579    13.427800     3.307200    -3.650700
     116    1      5   0.09699579    14.207300     3.754600    -2.016600
     117    1      5   0.09699579    12.131600     5.504000    -3.620100
     118    1      5   0.09699579    12.989800     5.963600    -2.036700
     119    1      2  -0.19421380     3.324100    -6.380700    -0.049200
     120    1      2  -0.19421380     4.009800    -7.426100     0.848500
     121    1      5   0.09699579     2.602200    -6.930200    -0.739300
     122    1      5   0.09699579     2.742500    -5.630500     0.582100
     123    1      5   0.09699579     4.594100    -8.152000     0.191900
     124    1      5   0.09699579     4.720200    -6.915000     1.579000
     125    1      2  -0.19421380     0.660900    -0.573900    -4.691700
     126    1      2  -0.19421380     0.077100     0.058800    -5.965500
     127    1      5   0.09699579     0.996600    -1.634300    -4.942800
     128    1      5   0.09699579     1.540400     0.032500    -4.297000
     129    1      5   0.09699579    -0.306700     1.109300    -5.745600
     130    1      5   0.09699579     0.871700     0.098500    -6.781700
     131    1      2  -0.19421380    -6.320200    -1.901800    -3.394300
     132    1      2  -0.19421380    -6.944800    -1.344900    -4.687000
     133    1      5   0.09699579    -6.508900    -3.022600    -3.331200
     134    1      5   0.09699579    -6.785300    -1.376000    -2.497500
     135    1      5   0.09699579    -6.740400    -0.225300    -4.749200
     136    1      5   0.09699579    -6.474000    -1.864900    -5.585500
     137    1      2  -0.19421380    -5.755500    -1.959300    -0.457400
     138    1      2  -0.19421380    -6.248900    -1.473100     0.915400
     139    1      5   0.09699579    -5.688300    -3.090100    -0.377700
     140    1      5   0.09699579    -6.529300    -1.670000    -1.240700
     141    1      5   0.09699579    -6.293600    -0.335500     0.968100
     142    1      5   0.09699579    -5.571800    -1.881800     1.736600
     143    1      2  -0.19421380    -7.669600    -2.061500     1.008800
     144    1      2  -0.19421380    -8.351800    -1.848000     2.372300
     145    1      5   0.09699579    -7.621000    -3.183300     0.813600
     146    1      5   0.09699579    -8.300800    -1.573200     0.195100
     147    1      5   0.09699579    -8.363600    -0.743300     2.650900
     148    1      5   0.09699579    -7.798200    -2.444600     3.169700
     149    1      2  -0.19421380    -9.800700    -2.348900     2.207800
     150    1      2  -0.19421380   -10.594500    -2.336600     3.527700
     151    1      5   0.09699579    -9.791500    -3.416200     1.808800
     152    1      5   0.09699579   -10.319600    -1.673600     1.451000
     153    1      5   0.09699579   -10.555100    -1.303900     4.008100
     154    1      5   0.09699579   -10.152200    -3.107600     4.240900
     155    1      3  -0.12796042    10.487400     5.429300    -1.422600
     156    1      2  -0.19421380    11.518600     4.362700    -1.829400
     157    1      2  -0.19421380    11.294000     6.559500    -0.761400
     158    1      2  -0.19421380     9.515500     4.957500    -0.327200
     159    1      5   0.09699579     9.929300     5.843400    -2.325800
     160    1      5   0.09699579    12.015600     3.959400    -0.885800
     161    1      5   0.09699579    11.036500     3.508400    -2.410100
     162    1      5   0.09699579    10.582800     7.380300    -0.416000
     163    1      5   0.09699579    12.044500     6.988200    -1.504600
     164    1      5   0.09699579     8.990400     5.893200     0.036400
     165    1      5   0.09699579    10.134600     4.517900     0.519100
     166    1      3  -0.12796042     9.323900     6.799600     1.646300
     167    1      2  -0.19421380     8.230000     5.932900     2.303700
     168    1      2  -0.19421380     8.685000     7.787700     0.646600
     169    1      2  -0.19421380    10.123000     7.445800     2.791000
     170    1      5   0.09699579    10.037600     6.140600     1.057800
     171    1      5   0.09699579     7.582600     6.667900     2.887200
     172    1      5   0.09699579     8.711900     5.223500     3.053200
     173    1      5   0.09699579     8.006400     7.166800    -0.027200
     174    1      5   0.09699579     9.496500     8.268600     0.006400
     175    1      5   0.09699579    10.734000     6.632700     3.306300
     176    1      5   0.09699579    10.826000     8.243800     2.379900
     177    1      3  -0.12796042     6.458900     1.127000    -1.087800
     178    1      2  -0.19421380     5.880600     1.764600     0.186500
     179    1      2  -0.19421380     7.978400     0.914300    -0.964800
     180    1      2  -0.19421380     5.802400    -0.255400    -1.284700
     181    1      5   0.09699579     6.219100     1.788500    -1.984500
     182    1      5   0.09699579     4.746800     1.668600     0.114500
     183    1      5   0.09699579     6.239300     1.156900     1.081900
     184    1      5   0.09699579     8.491900     1.890700    -0.708100
     185    1      5   0.09699579     8.385900     0.505100    -1.947500
     186    1      5   0.09699579     5.993000    -0.924300    -0.381400
     187    1      5   0.09699579     6.264400    -0.733500    -2.210800
     188    1      3  -0.12796042     5.097300    -3.492200    -4.880600
     189    1      2  -0.19421380     3.954100    -2.913300    -4.036200
     190    1      2  -0.19421380     5.728700    -2.305100    -5.640700
     191    1      2  -0.19421380     6.052000    -4.185300    -3.891100
     192    1      5   0.09699579     4.689200    -4.273000    -5.603700
     193    1      5   0.09699579     3.414200    -3.753200    -3.496300
     194    1      5   0.09699579     3.194900    -2.348800    -4.672200
     195    1      5   0.09699579     4.981500    -1.988700    -6.440100
     196    1      5   0.09699579     5.884400    -1.436500    -4.919800
     197    1      5   0.09699579     5.437400    -4.827300    -3.178100
     198    1      5   0.09699579     6.628600    -3.408200    -3.288300
     199    1      3  -0.12796042     3.545200    -4.777700    -1.901200
     200    1      2  -0.19421380     2.739900    -3.686800    -1.169800
     201    1      2  -0.19421380     2.499900    -5.693000    -2.567700
     202    1      2  -0.19421380     4.355200    -5.645100    -0.924800
     203    1      5   0.09699579     4.238000    -4.324300    -2.680500
     204    1      5   0.09699579     2.290400    -4.180700    -0.245600
     205    1      5   0.09699579     1.889700    -3.333700    -1.842200
     206    1      5   0.09699579     1.805100    -6.094800    -1.758100
     207    1      5   0.09699579     1.891000    -5.083100    -3.314300
     208    1      5   0.09699579     5.070900    -5.015800    -0.299500
     209    1      5   0.09699579     4.940000    -6.417500    -1.525400
     210    1      3  -0.12796042   -12.873200    -2.790000     4.508100
     211    1      2  -0.19421380   -12.063300    -2.673100     3.204900
     212    1      2  -0.19421380   -12.671200    -1.534200     5.372600
     213    1      2  -0.19421380   -14.368700    -2.925800     4.169200
     214    1      5   0.09699579   -12.514800    -3.701700     5.091300
     215    1      5   0.09699579   -12.489400    -1.834600     2.561000
     216    1      5   0.09699579   -12.134100    -3.659100     2.636900
     217    1      5   0.09699579   -13.033000    -0.612100     4.808500
     218    1      5   0.09699579   -11.564400    -1.421300     5.621700
     219    1      5   0.09699579   -14.709800    -1.990400     3.614500
     220    1      5   0.09699579   -14.970500    -3.036100     5.130900
     221    1      4  -0.05448664     7.589200     3.798900     0.662400
     222    1      2  -0.19421380     8.350100     4.022000    -0.669200
     223    1      2  -0.19421380     8.274200     2.737600     1.551900
     224    1      2  -0.19421380     7.255300     5.114700     1.418400
     225    1      2  -0.19421380     6.155800     3.266300     0.438000
     226    1      5   0.09699579     8.707500     3.056600    -1.145100
     227    1      5   0.09699579     7.678000     4.578400    -1.401400
     228    1      5   0.09699579     7.745600     2.699600     2.561400
     229    1      5   0.09699579     8.109800     1.741300     1.025800
     230    1      5   0.09699579     6.469500     4.773300     2.170500
     231    1      5   0.09699579     6.744700     5.826700     0.689100
     232    1      5   0.09699579     5.666600     3.894100    -0.378100
     233    1      5   0.09699579     5.608500     3.476600     1.415600
     234    1      4  -0.05448664     3.705300    -1.458700    -1.959700
     235    1      2  -0.19421380     4.287500    -0.097300    -1.531700
     236    1      2  -0.19421380     4.656400    -1.953900    -3.060400
     237    1      2  -0.19421380     3.520100    -2.419400    -0.761800
     238    1      2  -0.19421380     2.321400    -1.385400    -2.625900
     239    1      5   0.09699579     4.176000     0.613100    -2.416200
     240    1      5   0.09699579     3.739300     0.333700    -0.629800
     241    1      5   0.09699579     5.001200    -1.069200    -3.691300
     242    1      5   0.09699579     5.565600    -2.432900    -2.566700
     243    1      5   0.09699579     4.501000    -2.669700    -0.237700
     244    1      5   0.09699579     2.845600    -1.856000    -0.035400
     245    1      5   0.09699579     2.184800    -2.415000    -3.092000
     246    1      5   0.09699579     2.324300    -0.605200    -3.453400
     247    1      4  -0.05448664    -0.131500    -1.592100    -2.493900
     248    1      2  -0.19421380     1.121900    -1.220500    -1.672200
     249    1      2  -0.19421380     0.207600    -2.951900    -3.139300
     250    1      2  -0.19421380    -0.471100    -0.635200    -3.652600
     251    1      2  -0.19421380    -1.411000    -1.756600    -1.645700
     252    1      5   0.09699579     1.061400    -0.174900    -1.222300
     253    1      5   0.09699579     1.230300    -1.993200    -0.840900
     254    1      5   0.09699579     1.120700    -2.825100    -3.808900
     255    1      5   0.09699579     0.447800    -3.703400    -2.316300
     256    1      5   0.09699579    -0.733500     0.408700    -3.277400
     257    1      5   0.09699579    -1.375600    -1.078600    -4.186200
     258    1      5   0.09699579    -1.382100    -2.770700    -1.126000
     259    1      5   0.09699579    -1.530500    -0.921400    -0.879300
     260    1      4  -0.05448664    -3.972100    -2.086500    -2.254800
     261    1      2  -0.19421380    -2.562800    -1.622600    -2.661000
     262    1      2  -0.19421380    -3.905900    -3.630700    -2.226400
     263    1      2  -0.19421380    -4.810600    -1.607300    -3.458400
     264    1      2  -0.19421380    -4.377800    -1.448300    -0.905600
     265    1      5   0.09699579    -2.311500    -2.220300    -3.594800
     266    1      5   0.09699579    -2.607900    -0.522800    -2.955900
     267    1      5   0.09699579    -3.453300    -3.974000    -1.238200
     268    1      5   0.09699579    -3.189900    -3.920300    -3.064100
     269    1      5   0.09699579    -4.388200    -2.096600    -4.397500
     270    1      5   0.09699579    -4.683000    -0.478100    -3.546100
     271    1      5   0.09699579    -3.609700    -1.747900    -0.117900
     272    1      5   0.09699579    -4.394100    -0.312900    -1.004900

Bonds

       1      1        1        2
       2      2        1        3
       3      2        1        4
       4      2        1        5
       5      6        2        6
       6      6        2        7
       7      3        2      113
       8      1        8        9
       9      2        8       10
      10      2        8       11
      11      2        8       12
      12      6        9       13
      13      6        9       14
      14      3        9      157
      15      1       15       16
      16      2       15       17
      17      2       15       18
      18      2       15       19
      19      6       16       20
      20      6       16       21
      21      3       16      223
      22      1       22       23
      23      2       22       24
      24      2       22       25
      25      2       22       26
      26      6       23       27
      27      6       23       28
      28      3       23      168
      29      1       29       30
      30      2       29       31
      31      2       29       32
      32      2       29       33
      33      6       30       34
      34      6       30       35
      35      3       30      169
      36      1       36       37
      37      2       36       38
      38      2       36       39
      39      2       36       40
      40      6       37       41
      41      6       37       42
      42      3       37      179
      43      1       43       44
      44      2       43       45
      45      2       43       46
      46      2       43       47
      47      6       44       48
      48      6       44       49
      49      3       44      190
      50      1       50       51
      51      2       50       52
      52      2       50       53
      53      2       50       54
      54      6       51       55
      55      6       51       56
      56      3       51      191
      57      1       57       58
      58      2       57       59
      59      2       57       60
      60      2       57       61
      61      6       58       62
      62      6       58       63
      63      3       58      201
      64      1       64       65
      65      2       64       66
      66      2       64       67
      67      2       64       68
      68      6       65       69
      69      6       65       70
      70      3       65      120
      71      1       71       72
      72      2       71       73
      73      2       71       74
      74      2       71       75
      75      6       72       76
      76      6       72       77
      77      3       72      249
      78      1       78       79
      79      2       78       80
      80      2       78       81
      81      2       78       82
      82      6       79       83
      83      6       79       84
      84      3       79      126
      85      1       85       86
      86      2       85       87
      87      2       85       88
      88      2       85       89
      89      6       86       90
      90      6       86       91
      91      3       86      262
      92      1       92       93
      93      2       92       94
      94      2       92       95
      95      2       92       96
      96      6       93       97
      97      6       93       98
      98      3       93      132
      99      1       99      100
     100      2       99      101
     101      2       99      102
     102      2       99      103
     103      6      100      104
     104      6      100      105
     105      3      100      212
     106      1      106      107
     107      2      106      108
     108      2      106      109
     109      2      106      110
     110      6      107      111
     111      6      107      112
     112      3      107      213
     113      3      113      114
     114      6      113      115
     115      6      113      116
     116      6      114      117
     117      6      114      118
     118      3      114      156
     119      3      119      120
     120      6      119      121
     121      6      119      122
     122      3      119      202
     123      6      120      123
     124      6      120      124
     125      3      125      126
     126      6      125      127
     127      6      125      128
     128      3      125      250
     129      6      126      129
     130      6      126      130
     131      3      131      132
     132      6      131      133
     133      6      131      134
     134      3      131      263
     135      6      132      135
     136      6      132      136
     137      3      137      138
     138      6      137      139
     139      6      137      140
     140      3      137      264
     141      6      138      141
     142      6      138      142
     143      3      138      143
     144      3      143      144
     145      6      143      145
     146      6      143      146
     147      6      144      147
     148      6      144      148
     149      3      144      149
     150      3      149      150
     151      6      149      151
     152      6      149      152
     153      6      150      153
     154      6      150      154
     155      3      150      211
     156      4      155      156
     157      4      155      157
     158      4      155      158
     159      7      155      159
     160      6      156      160
     161      6      156      161
     162      6      157      162
     163      6      157      163
     164      6      158      164
     165      6      158      165
     166      3      158      222
     167      4      166      167
     168      4      166      168
     169      4      166      169
     170      7      166      170
     171      6      167      171
     172      6      167      172
     173      3      167      224
     174      6      168      173
     175      6      168      174
     176      6      169      175
     177      6      169      176
     178      4      177      178
     179      4      177      179
     180      4      177      180
     181      7      177      181
     182      6      178      182
     183      6      178      183
     184      3      178      225
     185      6      179      184
     186      6      179      185
     187      6      180      186
     188      6      180      187
     189      3      180      235
     190      4      188      189
     191      4      188      190
     192      4      188      191
     193      7      188      192
     194      6      189      193
     195      6      189      194
     196      3      189      236
     197      6      190      195
     198      6      190      196
     199      6      191      197
     200      6      191      198
     201      4      199      200
     202      4      199      201
     203      4      199      202
     204      7      199      203
     205      6      200      204
     206      6      200      205
     207      3      200      237
     208      6      201      206
     209      6      201      207
     210      6      202      208
     211      6      202      209
     212      4      210      211
     213      4      210      212
     214      4      210      213
     215      7      210      214
     216      6      211      215
     217      6      211      216
     218      6      212      217
     219      6      212      218
     220      6      213      219
     221      6      213      220
     222      5      221      222
     223      5      221      223
     224      5      221      224
     225      5      221      225
     226      6      222      226
     227      6      222      227
     228      6      223      228
     229      6      223      229
     230      6      224      230
     231      6      224      231
     232      6      225      232
     233      6      225      233
     234      5      234      235
     235      5      234      236
     236      5      234      237
     237      5      234      238
     238      6      235      239
     239      6      235      240
     240      6      236      241
     241      6      236      242
     242      6      237      243
     243      6      237      244
     244      6      238      245
     245      6      238      246
     246      3      238      248
     247      5      247      248
     248      5      247      249
     249      5      247      250
     250      5      247      251
     251      6      248      252
     252      6      248      253
     253      6      249      254
     254      6      249      255
     255      6      250      256
     256      6      250      257
     257      6      251      258
     258      6      251      259
     259      3      251      261
     260      5      260      261
     261      5      260      262
     262      5      260      263
     263      5      260      264
     264      6      261      265
     265      6      261      266
     266      6      262      267
     267      6      262      268
     268      6      263      269
     269      6      263      270
     270      6      264      271
     271      6      264      272

Angles

       1      2        1        2        6
       2      2        1        2        7
       3      1        1        2      113
       4      3        2        1        3
       5      3        2        1        4
       6      3        2        1        5
       7      4        2      113      114
       8      7        2      113      115
       9      7        2      113      116
      10     13        3        1        4
      11     13        3        1        5
      12     13        4        1        5
      13     14        6        2        7
      14      7        6        2      113
      15      7        7        2      113
      16      2        8        9       13
      17      2        8        9       14
      18      1        8        9      157
      19      3        9        8       10
      20      3        9        8       11
      21      3        9        8       12
      22      5        9      157      155
      23      7        9      157      162
      24      7        9      157      163
      25     13       10        8       11
      26     13       10        8       12
      27     13       11        8       12
      28     14       13        9       14
      29      7       13        9      157
      30      7       14        9      157
      31      2       15       16       20
      32      2       15       16       21
      33      1       15       16      223
      34      3       16       15       17
      35      3       16       15       18
      36      3       16       15       19
      37      6       16      223      221
      38      7       16      223      228
      39      7       16      223      229
      40     13       17       15       18
      41     13       17       15       19
      42     13       18       15       19
      43     14       20       16       21
      44      7       20       16      223
      45      7       21       16      223
      46      2       22       23       27
      47      2       22       23       28
      48      1       22       23      168
      49      3       23       22       24
      50      3       23       22       25
      51      3       23       22       26
      52      5       23      168      166
      53      7       23      168      173
      54      7       23      168      174
      55     13       24       22       25
      56     13       24       22       26
      57     13       25       22       26
      58     14       27       23       28
      59      7       27       23      168
      60      7       28       23      168
      61      2       29       30       34
      62      2       29       30       35
      63      1       29       30      169
      64      3       30       29       31
      65      3       30       29       32
      66      3       30       29       33
      67      5       30      169      166
      68      7       30      169      175
      69      7       30      169      176
      70     13       31       29       32
      71     13       31       29       33
      72     13       32       29       33
      73     14       34       30       35
      74      7       34       30      169
      75      7       35       30      169
      76      2       36       37       41
      77      2       36       37       42
      78      1       36       37      179
      79      3       37       36       38
      80      3       37       36       39
      81      3       37       36       40
      82      5       37      179      177
      83      7       37      179      184
      84      7       37      179      185
      85     13       38       36       39
      86     13       38       36       40
      87     13       39       36       40
      88     14       41       37       42
      89      7       41       37      179
      90      7       42       37      179
      91      2       43       44       48
      92      2       43       44       49
      93      1       43       44      190
      94      3       44       43       45
      95      3       44       43       46
      96      3       44       43       47
      97      5       44      190      188
      98      7       44      190      195
      99      7       44      190      196
     100     13       45       43       46
     101     13       45       43       47
     102     13       46       43       47
     103     14       48       44       49
     104      7       48       44      190
     105      7       49       44      190
     106      2       50       51       55
     107      2       50       51       56
     108      1       50       51      191
     109      3       51       50       52
     110      3       51       50       53
     111      3       51       50       54
     112      5       51      191      188
     113      7       51      191      197
     114      7       51      191      198
     115     13       52       50       53
     116     13       52       50       54
     117     13       53       50       54
     118     14       55       51       56
     119      7       55       51      191
     120      7       56       51      191
     121      2       57       58       62
     122      2       57       58       63
     123      1       57       58      201
     124      3       58       57       59
     125      3       58       57       60
     126      3       58       57       61
     127      5       58      201      199
     128      7       58      201      206
     129      7       58      201      207
     130     13       59       57       60
     131     13       59       57       61
     132     13       60       57       61
     133     14       62       58       63
     134      7       62       58      201
     135      7       63       58      201
     136      2       64       65       69
     137      2       64       65       70
     138      1       64       65      120
     139      3       65       64       66
     140      3       65       64       67
     141      3       65       64       68
     142      4       65      120      119
     143      7       65      120      123
     144      7       65      120      124
     145     13       66       64       67
     146     13       66       64       68
     147     13       67       64       68
     148     14       69       65       70
     149      7       69       65      120
     150      7       70       65      120
     151      2       71       72       76
     152      2       71       72       77
     153      1       71       72      249
     154      3       72       71       73
     155      3       72       71       74
     156      3       72       71       75
     157      6       72      249      247
     158      7       72      249      254
     159      7       72      249      255
     160     13       73       71       74
     161     13       73       71       75
     162     13       74       71       75
     163     14       76       72       77
     164      7       76       72      249
     165      7       77       72      249
     166      2       78       79       83
     167      2       78       79       84
     168      1       78       79      126
     169      3       79       78       80
     170      3       79       78       81
     171      3       79       78       82
     172      4       79      126      125
     173      7       79      126      129
     174      7       79      126      130
     175     13       80       78       81
     176     13       80       78       82
     177     13       81       78       82
     178     14       83       79       84
     179      7       83       79      126
     180      7       84       79      126
     181      2       85       86       90
     182      2       85       86       91
     183      1       85       86      262
     184      3       86       85       87
     185      3       86       85       88
     186      3       86       85       89
     187      6       86      262      260
     188      7       86      262      267
     189      7       86      262      268
     190     13       87       85       88
     191     13       87       85       89
     192     13       88       85       89
     193     14       90       86       91
     194      7       90       86      262
     195      7       91       86      262
     196      2       92       93       97
     197      2       92       93       98
     198      1       92       93      132
     199      3       93       92       94
     200      3       93       92       95
     201      3       93       92       96
     202      4       93      132      131
     203      7       93      132      135
     204      7       93      132      136
     205     13       94       92       95
     206     13       94       92       96
     207     13       95       92       96
     208     14       97       93       98
     209      7       97       93      132
     210      7       98       93      132
     211      2       99      100      104
     212      2       99      100      105
     213      1       99      100      212
     214      3      100       99      101
     215      3      100       99      102
     216      3      100       99      103
     217      5      100      212      210
     218      7      100      212      217
     219      7      100      212      218
     220     13      101       99      102
     221     13      101       99      103
     222     13      102       99      103
     223     14      104      100      105
     224      7      104      100      212
     225      7      105      100      212
     226      2      106      107      111
     227      2      106      107      112
     228      1      106      107      213
     229      3      107      106      108
     230      3      107      106      109
     231      3      107      106      110
     232      5      107      213      210
     233      7      107      213      219
     234      7      107      213      220
     235     13      108      106      109
     236     13      108      106      110
     237     13      109      106      110
     238     14      111      107      112
     239      7      111      107      213
     240      7      112      107      213
     241      7      113      114      117
     242      7      113      114      118
     243      4      113      114      156
     244      7      114      113      115
     245      7      114      113      116
     246      5      114      156      155
     247      7      114      156      160
     248      7      114      156      161
     249     14      115      113      116
     250     14      117      114      118
     251      7      117      114      156
     252      7      118      114      156
     253      7      119      120      123
     254      7      119      120      124
     255      5      119      202      199
     256      7      119      202      208
     257      7      119      202      209
     258      7      120      119      121
     259      7      120      119      122
     260      4      120      119      202
     261     14      121      119      122
     262      7      121      119      202
     263      7      122      119      202
     264     14      123      120      124
     265      7      125      126      129
     266      7      125      126      130
     267      6      125      250      247
     268      7      125      250      256
     269      7      125      250      257
     270      7      126      125      127
     271      7      126      125      128
     272      4      126      125      250
     273     14      127      125      128
     274      7      127      125      250
     275      7      128      125      250
     276     14      129      126      130
     277      7      131      132      135
     278      7      131      132      136
     279      6      131      263      260
     280      7      131      263      269
     281      7      131      263      270
     282      7      132      131      133
     283      7      132      131      134
     284      4      132      131      263
     285     14      133      131      134
     286      7      133      131      263
     287      7      134      131      263
     288     14      135      132      136
     289      7      137      138      141
     290      7      137      138      142
     291      4      137      138      143
     292      6      137      264      260
     293      7      137      264      271
     294      7      137      264      272
     295      7      138      137      139
     296      7      138      137      140
     297      4      138      137      264
     298      4      138      143      144
     299      7      138      143      145
     300      7      138      143      146
     301     14      139      137      140
     302      7      139      137      264
     303      7      140      137      264
     304     14      141      138      142
     305      7      141      138      143
     306      7      142      138      143
     307      7      143      144      147
     308      7      143      144      148
     309      4      143      144      149
     310      7      144      143      145
     311      7      144      143      146
     312      4      144      149      150
     313      7      144      149      151
     314      7      144      149      152
     315     14      145      143      146
     316     14      147      144      148
     317      7      147      144      149
     318      7      148      144      149
     319      7      149      150      153
     320      7      149      150      154
     321      4      149      150      211
     322      7      150      149      151
     323      7      150      149      152
     324      5      150      211      210
     325      7      150      211      215
     326      7      150      211      216
     327     14      151      149      152
     328     14      153      150      154
     329      7      153      150      211
     330      7      154      150      211
     331     11      155      156      160
     332     11      155      156      161
     333     11      155      157      162
     334     11      155      157      163
     335     11      155      158      164
     336     11      155      158      165
     337      5      155      158      222
     338      8      156      155      157
     339      8      156      155      158
     340      9      156      155      159
     341      8      157      155      158
     342      9      157      155      159
     343      9      158      155      159
     344      6      158      222      221
     345      7      158      222      226
     346      7      158      222      227
     347     14      160      156      161
     348     14      162      157      163
     349     14      164      158      165
     350      7      164      158      222
     351      7      165      158      222
     352     11      166      167      171
     353     11      166      167      172
     354      5      166      167      224
     355     11      166      168      173
     356     11      166      168      174
     357     11      166      169      175
     358     11      166      169      176
     359      8      167      166      168
     360      8      167      166      169
     361      9      167      166      170
     362      6      167      224      221
     363      7      167      224      230
     364      7      167      224      231
     365      8      168      166      169
     366      9      168      166      170
     367      9      169      166      170
     368     14      171      167      172
     369      7      171      167      224
     370      7      172      167      224
     371     14      173      168      174
     372     14      175      169      176
     373     11      177      178      182
     374     11      177      178      183
     375      5      177      178      225
     376     11      177      179      184
     377     11      177      179      185
     378     11      177      180      186
     379     11      177      180      187
     380      5      177      180      235
     381      8      178      177      179
     382      8      178      177      180
     383      9      178      177      181
     384      6      178      225      221
     385      7      178      225      232
     386      7      178      225      233
     387      8      179      177      180
     388      9      179      177      181
     389      9      180      177      181
     390      6      180      235      234
     391      7      180      235      239
     392      7      180      235      240
     393     14      182      178      183
     394      7      182      178      225
     395      7      183      178      225
     396     14      184      179      185
     397     14      186      180      187
     398      7      186      180      235
     399      7      187      180      235
     400     11      188      189      193
     401     11      188      189      194
     402      5      188      189      236
     403     11      188      190      195
     404     11      188      190      196
     405     11      188      191      197
     406     11      188      191      198
     407      8      189      188      190
     408      8      189      188      191
     409      9      189      188      192
     410      6      189      236      234
     411      7      189      236      241
     412      7      189      236      242
     413      8      190      188      191
     414      9      190      188      192
     415      9      191      188      192
     416     14      193      189      194
     417      7      193      189      236
     418      7      194      189      236
     419     14      195      190      196
     420     14      197      191      198
     421     11      199      200      204
     422     11      199      200      205
     423      5      199      200      237
     424     11      199      201      206
     425     11      199      201      207
     426     11      199      202      208
     427     11      199      202      209
     428      8      200      199      201
     429      8      200      199      202
     430      9      200      199      203
     431      6      200      237      234
     432      7      200      237      243
     433      7      200      237      244
     434      8      201      199      202
     435      9      201      199      203
     436      9      202      199      203
     437     14      204      200      205
     438      7      204      200      237
     439      7      205      200      237
     440     14      206      201      207
     441     14      208      202      209
     442     11      210      211      215
     443     11      210      211      216
     444     11      210      212      217
     445     11      210      212      218
     446     11      210      213      219
     447     11      210      213      220
     448      8      211      210      212
     449      8      211      210      213
     450      9      211      210      214
     451      8      212      210      213
     452      9      212      210      214
     453      9      213      210      214
     454     14      215      211      216
     455     14      217      212      218
     456     14      219      213      220
     457     12      221      222      226
     458     12      221      222      227
     459     12      221      223      228
     460     12      221      223      229
     461     12      221      224      230
     462     12      221      224      231
     463     12      221      225      232
     464     12      221      225      233
     465     10      222      221      223
     466     10      222      221      224
     467     10      222      221      225
     468     10      223      221      224
     469     10      223      221      225
     470     10      224      221      225
     471     14      226      222      227
     472     14      228      223      229
     473     14      230      224      231
     474     14      232      225      233
     475     12      234      235      239
     476     12      234      235      240
     477     12      234      236      241
     478     12      234      236      242
     479     12      234      237      243
     480     12      234      237      244
     481     12      234      238      245
     482     12      234      238      246
     483      6      234      238      248
     484     10      235      234      236
     485     10      235      234      237
     486     10      235      234      238
     487     10      236      234      237
     488     10      236      234      238
     489     10      237      234      238
     490      6      238      248      247
     491      7      238      248      252
     492      7      238      248      253
     493     14      239      235      240
     494     14      241      236      242
     495     14      243      237      244
     496     14      245      238      246
     497      7      245      238      248
     498      7      246      238      248
     499     12      247      248      252
     500     12      247      248      253
     501     12      247      249      254
     502     12      247      249      255
     503     12      247      250      256
     504     12      247      250      257
     505     12      247      251      258
     506     12      247      251      259
     507      6      247      251      261
     508     10      248      247      249
     509     10      248      247      250
     510     10      248      247      251
     511     10      249      247      250
     512     10      249      247      251
     513     10      250      247      251
     514      6      251      261      260
     515      7      251      261      265
     516      7      251      261      266
     517     14      252      248      253
     518     14      254      249      255
     519     14      256      250      257
     520     14      258      251      259
     521      7      258      251      261
     522      7      259      251      261
     523     12      260      261      265
     524     12      260      261      266
     525     12      260      262      267
     526     12      260      262      268
     527     12      260      263      269
     528     12      260      263      270
     529     12      260      264      271
     530     12      260      264      272
     531     10      261      260      262
     532     10      261      260      263
     533     10      261      260      264
     534     10      262      260      263
     535     10      262      260      264
     536     10      263      260      264
     537     14      265      261      266
     538     14      267      262      268
     539     14      269      263      270
     540     14      271      264      272

Dihedrals

       1      1        1        2      113      114
       2      4        1        2      113      115
       3      4        1        2      113      116
       4      9        2      113      114      117
       5      9        2      113      114      118
       6      6        2      113      114      156
       7     19        3        1        2        6
       8     19        3        1        2        7
       9      5        3        1        2      113
      10     19        4        1        2        6
      11     19        4        1        2        7
      12      5        4        1        2      113
      13     19        5        1        2        6
      14     19        5        1        2        7
      15      5        5        1        2      113
      16      9        6        2      113      114
      17     20        6        2      113      115
      18     20        6        2      113      116
      19      9        7        2      113      114
      20     20        7        2      113      115
      21     20        7        2      113      116
      22      2        8        9      157      155
      23      4        8        9      157      162
      24      4        8        9      157      163
      25     10        9      157      155      156
      26     10        9      157      155      158
      27     11        9      157      155      159
      28     19       10        8        9       13
      29     19       10        8        9       14
      30      5       10        8        9      157
      31     19       11        8        9       13
      32     19       11        8        9       14
      33      5       11        8        9      157
      34     19       12        8        9       13
      35     19       12        8        9       14
      36      5       12        8        9      157
      37     16       13        9      157      155
      38     20       13        9      157      162
      39     20       13        9      157      163
      40     16       14        9      157      155
      41     20       14        9      157      162
      42     20       14        9      157      163
      43      3       15       16      223      221
      44      4       15       16      223      228
      45      4       15       16      223      229
      46     12       16      223      221      222
      47     12       16      223      221      224
      48     12       16      223      221      225
      49     19       17       15       16       20
      50     19       17       15       16       21
      51      5       17       15       16      223
      52     19       18       15       16       20
      53     19       18       15       16       21
      54      5       18       15       16      223
      55     19       19       15       16       20
      56     19       19       15       16       21
      57      5       19       15       16      223
      58     18       20       16      223      221
      59     20       20       16      223      228
      60     20       20       16      223      229
      61     18       21       16      223      221
      62     20       21       16      223      228
      63     20       21       16      223      229
      64      2       22       23      168      166
      65      4       22       23      168      173
      66      4       22       23      168      174
      67     10       23      168      166      167
      68     10       23      168      166      169
      69     11       23      168      166      170
      70     19       24       22       23       27
      71     19       24       22       23       28
      72      5       24       22       23      168
      73     19       25       22       23       27
      74     19       25       22       23       28
      75      5       25       22       23      168
      76     19       26       22       23       27
      77     19       26       22       23       28
      78      5       26       22       23      168
      79     16       27       23      168      166
      80     20       27       23      168      173
      81     20       27       23      168      174
      82     16       28       23      168      166
      83     20       28       23      168      173
      84     20       28       23      168      174
      85      2       29       30      169      166
      86      4       29       30      169      175
      87      4       29       30      169      176
      88     10       30      169      166      167
      89     10       30      169      166      168
      90     11       30      169      166      170
      91     19       31       29       30       34
      92     19       31       29       30       35
      93      5       31       29       30      169
      94     19       32       29       30       34
      95     19       32       29       30       35
      96      5       32       29       30      169
      97     19       33       29       30       34
      98     19       33       29       30       35
      99      5       33       29       30      169
     100     16       34       30      169      166
     101     20       34       30      169      175
     102     20       34       30      169      176
     103     16       35       30      169      166
     104     20       35       30      169      175
     105     20       35       30      169      176
     106      2       36       37      179      177
     107      4       36       37      179      184
     108      4       36       37      179      185
     109     10       37      179      177      178
     110     10       37      179      177      180
     111     11       37      179      177      181
     112     19       38       36       37       41
     113     19       38       36       37       42
     114      5       38       36       37      179
     115     19       39       36       37       41
     116     19       39       36       37       42
     117      5       39       36       37      179
     118     19       40       36       37       41
     119     19       40       36       37       42
     120      5       40       36       37      179
     121     16       41       37      179      177
     122     20       41       37      179      184
     123     20       41       37      179      185
     124     16       42       37      179      177
     125     20       42       37      179      184
     126     20       42       37      179      185
     127      2       43       44      190      188
     128      4       43       44      190      195
     129      4       43       44      190      196
     130     10       44      190      188      189
     131     10       44      190      188      191
     132     11       44      190      188      192
     133     19       45       43       44       48
     134     19       45       43       44       49
     135      5       45       43       44      190
     136     19       46       43       44       48
     137     19       46       43       44       49
     138      5       46       43       44      190
     139     19       47       43       44       48
     140     19       47       43       44       49
     141      5       47       43       44      190
     142     16       48       44      190      188
     143     20       48       44      190      195
     144     20       48       44      190      196
     145     16       49       44      190      188
     146     20       49       44      190      195
     147     20       49       44      190      196
     148      2       50       51      191      188
     149      4       50       51      191      197
     150      4       50       51      191      198
     151     10       51      191      188      189
     152     10       51      191      188      190
     153     11       51      191      188      192
     154     19       52       50       51       55
     155     19       52       50       51       56
     156      5       52       50       51      191
     157     19       53       50       51       55
     158     19       53       50       51       56
     159      5       53       50       51      191
     160     19       54       50       51       55
     161     19       54       50       51       56
     162      5       54       50       51      191
     163     16       55       51      191      188
     164     20       55       51      191      197
     165     20       55       51      191      198
     166     16       56       51      191      188
     167     20       56       51      191      197
     168     20       56       51      191      198
     169      2       57       58      201      199
     170      4       57       58      201      206
     171      4       57       58      201      207
     172     10       58      201      199      200
     173     10       58      201      199      202
     174     11       58      201      199      203
     175     19       59       57       58       62
     176     19       59       57       58       63
     177      5       59       57       58      201
     178     19       60       57       58       62
     179     19       60       57       58       63
     180      5       60       57       58      201
     181     19       61       57       58       62
     182     19       61       57       58       63
     183      5       61       57       58      201
     184     16       62       58      201      199
     185     20       62       58      201      206
     186     20       62       58      201      207
     187     16       63       58      201      199
     188     20       63       58      201      206
     189     20       63       58      201      207
     190      1       64       65      120      119
     191      4       64       65      120      123
     192      4       64       65      120      124
     193      9       65      120      119      121
     194      9       65      120      119      122
     195      6       65      120      119      202
     196     19       66       64       65       69
     197     19       66       64       65       70
     198      5       66       64       65      120
     199     19       67       64       65       69
     200     19       67       64       65       70
     201      5       67       64       65      120
     202     19       68       64       65       69
     203     19       68       64       65       70
     204      5       68       64       65      120
     205      9       69       65      120      119
     206     20       69       65      120      123
     207     20       69       65      120      124
     208      9       70       65      120      119
     209     20       70       65      120      123
     210     20       70       65      120      124
     211      3       71       72      249      247
     212      4       71       72      249      254
     213      4       71       72      249      255
     214     12       72      249      247      248
     215     12       72      249      247      250
     216     12       72      249      247      251
     217     19       73       71       72       76
     218     19       73       71       72       77
     219      5       73       71       72      249
     220     19       74       71       72       76
     221     19       74       71       72       77
     222      5       74       71       72      249
     223     19       75       71       72       76
     224     19       75       71       72       77
     225      5       75       71       72      249
     226     18       76       72      249      247
     227     20       76       72      249      254
     228     20       76       72      249      255
     229     18       77       72      249      247
     230     20       77       72      249      254
     231     20       77       72      249      255
     232      1       78       79      126      125
     233      4       78       79      126      129
     234      4       78       79      126      130
     235      9       79      126      125      127
     236      9       79      126      125      128
     237      6       79      126      125      250
     238     19       80       78       79       83
     239     19       80       78       79       84
     240      5       80       78       79      126
     241     19       81       78       79       83
     242     19       81       78       79       84
     243      5       81       78       79      126
     244     19       82       78       79       83
     245     19       82       78       79       84
     246      5       82       78       79      126
     247      9       83       79      126      125
     248     20       83       79      126      129
     249     20       83       79      126      130
     250      9       84       79      126      125
     251     20       84       79      126      129
     252     20       84       79      126      130
     253      3       85       86      262      260
     254      4       85       86      262      267
     255      4       85       86      262      268
     256     12       86      262      260      261
     257     12       86      262      260      263
     258     12       86      262      260      264
     259     19       87       85       86       90
     260     19       87       85       86       91
     261      5       87       85       86      262
     262     19       88       85       86       90
     263     19       88       85       86       91
     264      5       88       85       86      262
     265     19       89       85       86       90
     266     19       89       85       86       91
     267      5       89       85       86      262
     268     18       90       86      262      260
     269     20       90       86      262      267
     270     20       90       86      262      268
     271     18       91       86      262      260
     272     20       91       86      262      267
     273     20       91       86      262      268
     274      1       92       93      132      131
     275      4       92       93      132      135
     276      4       92       93      132      136
     277      9       93      132      131      133
     278      9       93      132      131      134
     279      6       93      132      131      263
     280     19       94       92       93       97
     281     19       94       92       93       98
     282      5       94       92       93      132
     283     19       95       92       93       97
     284     19       95       92       93       98
     285      5       95       92       93      132
     286     19       96       92       93       97
     287     19       96       92       93       98
     288      5       96       92       93      132
     289      9       97       93      132      131
     290     20       97       93      132      135
     291     20       97       93      132      136
     292      9       98       93      132      131
     293     20       98       93      132      135
     294     20       98       93      132      136
     295      2       99      100      212      210
     296      4       99      100      212      217
     297      4       99      100      212      218
     298     10      100      212      210      211
     299     10      100      212      210      213
     300     11      100      212      210      214
     301     19      101       99      100      104
     302     19      101       99      100      105
     303      5      101       99      100      212
     304     19      102       99      100      104
     305     19      102       99      100      105
     306      5      102       99      100      212
     307     19      103       99      100      104
     308     19      103       99      100      105
     309      5      103       99      100      212
     310     16      104      100      212      210
     311     20      104      100      212      217
     312     20      104      100      212      218
     313     16      105      100      212      210
     314     20      105      100      212      217
     315     20      105      100      212      218
     316      2      106      107      213      210
     317      4      106      107      213      219
     318      4      106      107      213      220
     319     10      107      213      210      211
     320     10      107      213      210      212
     321     11      107      213      210      214
     322     19      108      106      107      111
     323     19      108      106      107      112
     324      5      108      106      107      213
     325     19      109      106      107      111
     326     19      109      106      107      112
     327      5      109      106      107      213
     328     19      110      106      107      111
     329     19      110      106      107      112
     330      5      110      106      107      213
     331     16      111      107      213      210
     332     20      111      107      213      219
     333     20      111      107      213      220
     334     16      112      107      213      210
     335     20      112      107      213      219
     336     20      112      107      213      220
     337      7      113      114      156      155
     338      9      113      114      156      160
     339      9      113      114      156      161
     340     10      114      156      155      157
     341     10      114      156      155      158
     342     11      114      156      155      159
     343     20      115      113      114      117
     344     20      115      113      114      118
     345      9      115      113      114      156
     346     20      116      113      114      117
     347     20      116      113      114      118
     348      9      116      113      114      156
     349     16      117      114      156      155
     350     20      117      114      156      160
     351     20      117      114      156      161
     352     16      118      114      156      155
     353     20      118      114      156      160
     354     20      118      114      156      161
     355     10      119      202      199      200
     356     10      119      202      199      201
     357     11      119      202      199      203
     358      7      120      119      202      199
     359      9      120      119      202      208
     360      9      120      119      202      209
     361     20      121      119      120      123
     362     20      121      119      120      124
     363     16      121      119      202      199
     364     20      121      119      202      208
     365     20      121      119      202      209
     366     20      122      119      120      123
     367     20      122      119      120      124
     368     16      122      119      202      199
     369     20      122      119      202      208
     370     20      122      119      202      209
     371      9      123      120      119      202
     372      9      124      120      119      202
     373     12      125      250      247      248
     374     12      125      250      247      249
     375     12      125      250      247      251
     376      8      126      125      250      247
     377      9      126      125      250      256
     378      9      126      125      250      257
     379     20      127      125      126      129
     380     20      127      125      126      130
     381     18      127      125      250      247
     382     20      127      125      250      256
     383     20      127      125      250      257
     384     20      128      125      126      129
     385     20      128      125      126      130
     386     18      128      125      250      247
     387     20      128      125      250      256
     388     20      128      125      250      257
     389      9      129      126      125      250
     390      9      130      126      125      250
     391     12      131      263      260      261
     392     12      131      263      260      262
     393     12      131      263      260      264
     394      8      132      131      263      260
     395      9      132      131      263      269
     396      9      132      131      263      270
     397     20      133      131      132      135
     398     20      133      131      132      136
     399     18      133      131      263      260
     400     20      133      131      263      269
     401     20      133      131      263      270
     402     20      134      131      132      135
     403     20      134      131      132      136
     404     18      134      131      263      260
     405     20      134      131      263      269
     406     20      134      131      263      270
     407      9      135      132      131      263
     408      9      136      132      131      263
     409      6      137      138      143      144
     410      9      137      138      143      145
     411      9      137      138      143      146
     412     12      137      264      260      261
     413     12      137      264      260      262
     414     12      137      264      260      263
     415      8      138      137      264      260
     416      9      138      137      264      271
     417      9      138      137      264      272
     418      9      138      143      144      147
     419      9      138      143      144      148
     420      6      138      143      144      149
     421     20      139      137      138      141
     422     20      139      137      138      142
     423      9      139      137      138      143
     424     18      139      137      264      260
     425     20      139      137      264      271
     426     20      139      137      264      272
     427     20      140      137      138      141
     428     20      140      137      138      142
     429      9      140      137      138      143
     430     18      140      137      264      260
     431     20      140      137      264      271
     432     20      140      137      264      272
     433      9      141      138      137      264
     434      9      141      138      143      144
     435     20      141      138      143      145
     436     20      141      138      143      146
     437      9      142      138      137      264
     438      9      142      138      143      144
     439     20      142      138      143      145
     440     20      142      138      143      146
     441      6      143      138      137      264
     442      6      143      144      149      150
     443      9      143      144      149      151
     444      9      143      144      149      152
     445      9      144      149      150      153
     446      9      144      149      150      154
     447      6      144      149      150      211
     448     20      145      143      144      147
     449     20      145      143      144      148
     450      9      145      143      144      149
     451     20      146      143      144      147
     452     20      146      143      144      148
     453      9      146      143      144      149
     454      9      147      144      149      150
     455     20      147      144      149      151
     456     20      147      144      149      152
     457      9      148      144      149      150
     458     20      148      144      149      151
     459     20      148      144      149      152
     460      7      149      150      211      210
     461      9      149      150      211      215
     462      9      149      150      211      216
     463     10      150      211      210      212
     464     10      150      211      210      213
     465     11      150      211      210      214
     466     20      151      149      150      153
     467     20      151      149      150      154
     468      9      151      149      150      211
     469     20      152      149      150      153
     470     20      152      149      150      154
     471      9      152      149      150      211
     472     16      153      150      211      210
     473     20      153      150      211      215
     474     20      153      150      211      216
     475     16      154      150      211      210
     476     20      154      150      211      215
     477     20      154      150      211      216
     478     15      155      158      222      221
     479     16      155      158      222      226
     480     16      155      158      222      227
     481     13      156      155      157      162
     482     13      156      155      157      163
     483     13      156      155      158      164
     484     13      156      155      158      165
     485     10      156      155      158      222
     486     13      157      155      156      160
     487     13      157      155      156      161
     488     13      157      155      158      164
     489     13      157      155      158      165
     490     10      157      155      158      222
     491     13      158      155      156      160
     492     13      158      155      156      161
     493     13      158      155      157      162
     494     13      158      155      157      163
     495     12      158      222      221      223
     496     12      158      222      221      224
     497     12      158      222      221      225
     498     21      159      155      156      160
     499     21      159      155      156      161
     500     21      159      155      157      162
     501     21      159      155      157      163
     502     21      159      155      158      164
     503     21      159      155      158      165
     504     11      159      155      158      222
     505     18      164      158      222      221
     506     20      164      158      222      226
     507     20      164      158      222      227
     508     18      165      158      222      221
     509     20      165      158      222      226
     510     20      165      158      222      227
     511     15      166      167      224      221
     512     16      166      167      224      230
     513     16      166      167      224      231
     514     13      167      166      168      173
     515     13      167      166      168      174
     516     13      167      166      169      175
     517     13      167      166      169      176
     518     12      167      224      221      222
     519     12      167      224      221      223
     520     12      167      224      221      225
     521     13      168      166      167      171
     522     13      168      166      167      172
     523     10      168      166      167      224
     524     13      168      166      169      175
     525     13      168      166      169      176
     526     13      169      166      167      171
     527     13      169      166      167      172
     528     10      169      166      167      224
     529     13      169      166      168      173
     530     13      169      166      168      174
     531     21      170      166      167      171
     532     21      170      166      167      172
     533     11      170      166      167      224
     534     21      170      166      168      173
     535     21      170      166      168      174
     536     21      170      166      169      175
     537     21      170      166      169      176
     538     18      171      167      224      221
     539     20      171      167      224      230
     540     20      171      167      224      231
     541     18      172      167      224      221
     542     20      172      167      224      230
     543     20      172      167      224      231
     544     15      177      178      225      221
     545     16      177      178      225      232
     546     16      177      178      225      233
     547     15      177      180      235      234
     548     16      177      180      235      239
     549     16      177      180      235      240
     550     13      178      177      179      184
     551     13      178      177      179      185
     552     13      178      177      180      186
     553     13      178      177      180      187
     554     10      178      177      180      235
     555     12      178      225      221      222
     556     12      178      225      221      223
     557     12      178      225      221      224
     558     13      179      177      178      182
     559     13      179      177      178      183
     560     10      179      177      178      225
     561     13      179      177      180      186
     562     13      179      177      180      187
     563     10      179      177      180      235
     564     13      180      177      178      182
     565     13      180      177      178      183
     566     10      180      177      178      225
     567     13      180      177      179      184
     568     13      180      177      179      185
     569     12      180      235      234      236
     570     12      180      235      234      237
     571     12      180      235      234      238
     572     21      181      177      178      182
     573     21      181      177      178      183
     574     11      181      177      178      225
     575     21      181      177      179      184
     576     21      181      177      179      185
     577     21      181      177      180      186
     578     21      181      177      180      187
     579     11      181      177      180      235
     580     18      182      178      225      221
     581     20      182      178      225      232
     582     20      182      178      225      233
     583     18      183      178      225      221
     584     20      183      178      225      232
     585     20      183      178      225      233
     586     18      186      180      235      234
     587     20      186      180      235      239
     588     20      186      180      235      240
     589     18      187      180      235      234
     590     20      187      180      235      239
     591     20      187      180      235      240
     592     15      188      189      236      234
     593     16      188      189      236      241
     594     16      188      189      236      242
     595     13      189      188      190      195
     596     13      189      188      190      196
     597     13      189      188      191      197
     598     13      189      188      191      198
     599     12      189      236      234      235
     600     12      189      236      234      237
     601     12      189      236      234      238
     602     13      190      188      189      193
     603     13      190      188      189      194
     604     10      190      188      189      236
     605     13      190      188      191      197
     606     13      190      188      191      198
     607     13      191      188      189      193
     608     13      191      188      189      194
     609     10      191      188      189      236
     610     13      191      188      190      195
     611     13      191      188      190      196
     612     21      192      188      189      193
     613     21      192      188      189      194
     614     11      192      188      189      236
     615     21      192      188      190      195
     616     21      192      188      190      196
     617     21      192      188      191      197
     618     21      192      188      191      198
     619     18      193      189      236      234
     620     20      193      189      236      241
     621     20      193      189      236      242
     622     18      194      189      236      234
     623     20      194      189      236      241
     624     20      194      189      236      242
     625     15      199      200      237      234
     626     16      199      200      237      243
     627     16      199      200      237      244
     628     13      200      199      201      206
     629     13      200      199      201      207
     630     13      200      199      202      208
     631     13      200      199      202      209
     632     12      200      237      234      235
     633     12      200      237      234      236
     634     12      200      237      234      238
     635     13      201      199      200      204
     636     13      201      199      200      205
     637     10      201      199      200      237
     638     13      201      199      202      208
     639     13      201      199      202      209
     640     13      202      199      200      204
     641     13      202      199      200      205
     642     10      202      199      200      237
     643     13      202      199      201      206
     644     13      202      199      201      207
     645     21      203      199      200      204
     646     21      203      199      200      205
     647     11      203      199      200      237
     648     21      203      199      201      206
     649     21      203      199      201      207
     650     21      203      199      202      208
     651     21      203      199      202      209
     652     18      204      200      237      234
     653     20      204      200      237      243
     654     20      204      200      237      244
     655     18      205      200      237      234
     656     20      205      200      237      243
     657     20      205      200      237      244
     658     13      211      210      212      217
     659     13      211      210      212      218
     660     13      211      210      213      219
     661     13      211      210      213      220
     662     13      212      210      211      215
     663     13      212      210      211      216
     664     13      212      210      213      219
     665     13      212      210      213      220
     666     13      213      210      211      215
     667     13      213      210      211      216
     668     13      213      210      212      217
     669     13      213      210      212      218
     670     21      214      210      211      215
     671     21      214      210      211      216
     672     21      214      210      212      217
     673     21      214      210      212      218
     674     21      214      210      213      219
     675     21      214      210      213      220
     676     14      222      221      223      228
     677     14      222      221      223      229
     678     14      222      221      224      230
     679     14      222      221      224      231
     680     14      222      221      225      232
     681     14      222      221      225      233
     682     14      223      221      222      226
     683     14      223      221      222      227
     684     14      223      221      224      230
     685     14      223      221      224      231
     686     14      223      221      225      232
     687     14      223      221      225      233
     688     14      224      221      222      226
     689     14      224      221      222      227
     690     14      224      221      223      228
     691     14      224      221      223      229
     692     14      224      221      225      232
     693     14      224      221      225      233
     694     14      225      221      222      226
     695     14      225      221      222      227
     696     14      225      221      223      228
     697     14      225      221      223      229
     698     14      225      221      224      230
     699     14      225      221      224      231
     700     17      234      238      248      247
     701     18      234      238      248      252
     702     18      234      238      248      253
     703     14      235      234      236      241
     704     14      235      234      236      242
     705     14      235      234      237      243
     706     14      235      234      237      244
     707     14      235      234      238      245
     708     14      235      234      238      246
     709     12      235      234      238      248
     710     14      236      234      235      239
     711     14      236      234      235      240
     712     14      236      234      237      243
     713     14      236      234      237      244
     714     14      236      234      238      245
     715     14      236      234      238      246
     716     12      236      234      238      248
     717     14      237      234      235      239
     718     14      237      234      235      240
     719     14      237      234      236      241
     720     14      237      234      236      242
     721     14      237      234      238      245
     722     14      237      234      238      246
     723     12      237      234      238      248
     724     14      238      234      235      239
     725     14      238      234      235      240
     726     14      238      234      236      241
     727     14      238      234      236      242
     728     14      238      234      237      243
     729     14      238      234      237      244
     730     12      238      248      247      249
     731     12      238      248      247      250
     732     12      238      248      247      251
     733     18      245      238      248      247
     734     20      245      238      248      252
     735     20      245      238      248      253
     736     18      246      238      248      247
     737     20      246      238      248      252
     738     20      246      238      248      253
     739     17      247      251      261      260
     740     18      247      251      261      265
     741     18      247      251      261      266
     742     14      248      247      249      254
     743     14      248      247      249      255
     744     14      248      247      250      256
     745     14      248      247      250      257
     746     14      248      247      251      258
     747     14      248      247      251      259
     748     12      248      247      251      261
     749     14      249      247      248      252
     750     14      249      247      248      253
     751     14      249      247      250      256
     752     14      249      247      250      257
     753     14      249      247      251      258
     754     14      249      247      251      259
     755     12      249      247      251      261
     756     14      250      247      248      252
     757     14      250      247      248      253
     758     14      250      247      249      254
     759     14      250      247      249      255
     760     14      250      247      251      258
     761     14      250      247      251      259
     762     12      250      247      251      261
     763     14      251      247      248      252
     764     14      251      247      248      253
     765     14      251      247      249      254
     766     14      251      247      249      255
     767     14      251      247      250      256
     768     14      251      247      250      257
     769     12      251      261      260      262
     770     12      251      261      260      263
     771     12      251      261      260      264
     772     18      258      251      261      260
     773     20      258      251      261      265
     774     20      258      251      261      266
     775     18      259      251      261      260
     776     20      259      251      261      265
     777     20      259      251      261      266
     778     14      261      260      262      267
     779     14      261      260      262      268
     780     14      261      260      263      269
     781     14      261      260      263      270
     782     14      261      260      264      271
     783     14      261      260      264      272
     784     14      262      260      261      265
     785     14      262      260      261      266
     786     14      262      260      263      269
     787     14      262      260      263      270
     788     14      262      260      264      271
     789     14      262      260      264      272
     790     14      263      260      261      265
     791     14      263      260      261      266
     792     14      263      260      262      267
     793     14      263      260      262      268
     794     14      263      260      264      271
     795     14      263      260      264      272
     796     14      264      260      261      265
     797     14      264      260      261      266
     798     14      264      260      262      267
     799     14      264      260      262      268
     800     14      264      260      263      269
     801     14      264      260      263      270

Impropers


