LAMMPS data file generated by clean-room 1-hop pipeline

     192 atoms
     192 bonds
     384 angles
     576 dihedrals
       0 impropers

       2 atom types
       2 bond types
       3 angle types
       3 dihedral types
       0 improper types

  -31.505300    32.877300 xlo xhi
  -33.171200    32.877900 ylo yhi
  -25.514500    25.240900 zlo zhi

Masses

       1    12.011000
       2     1.008000

Pair Coeffs

       1     0.066000     3.500000
       2     0.030000     2.500000

Bond Coeffs

       1   268.000000     1.529000
       2   340.000000     1.090000

Angle Coeffs

       1    58.350000   112.700000
       2    37.500000   110.700000
       3    33.000000   107.800000

Dihedral Coeffs

       1     0.850000    -0.200000     0.200000     0.000000
       2     0.000000     0.000000     0.300000     0.000000
       3     0.000000     0.000000     0.300000     0.000000

Improper Coeffs


Atoms

       1    1      1  -0.19413973     7.035000    -9.260000    -0.101000
       2    1      1  -0.19413973     7.165600    -9.294300    -1.635100
       3    1      2   0.09706986     6.006400    -8.841700     0.157300
       4    1      2   0.09706986     7.109900   -10.326800     0.293800
       5    1      2   0.09706986     6.908900    -8.274400    -2.075200
       6    1      2   0.09706986     8.223900    -9.594200    -1.934900
       7    1      1  -0.19413973     8.129600    -8.438600     0.608000
       8    1      1  -0.19413973     8.256400    -6.988700     0.108900
       9    1      2   0.09706986     7.885500    -8.425500     1.721400
      10    1      2   0.09706986     9.138100    -8.948300     0.456600
      11    1      2   0.09706986     7.252900    -6.451600     0.173100
      12    1      2   0.09706986     8.630500    -6.987400    -0.968100
      13    1      1  -0.19413973     9.261700    -6.294800     1.049700
      14    1      1  -0.19413973     9.554600    -4.854800     0.591700
      15    1      2   0.09706986     8.805200    -6.273400     2.094200
      16    1      2   0.09706986    10.241700    -6.876900     1.078300
      17    1      2   0.09706986     8.573000    -4.291100     0.455900
      18    1      2   0.09706986    10.120300    -4.879300    -0.397800
      19    1      1  -0.19413973    10.379500    -4.135700     1.676500
      20    1      1  -0.19413973    10.700700    -2.717900     1.173100
      21    1      2   0.09706986     9.745500    -4.075500     2.622200
      22    1      2   0.09706986    11.348100    -4.693600     1.900700
      23    1      2   0.09706986     9.731700    -2.230600     0.822000
      24    1      2   0.09706986    11.425000    -2.782300     0.295100
      25    1      1  -0.19413973    11.280700    -1.830200     2.289300
      26    1      1  -0.19413973    11.528800    -0.457500     1.639300
      27    1      2   0.09706986    10.497700    -1.733700     3.112500
      28    1      2   0.09706986    12.247900    -2.252900     2.720300
      29    1      2   0.09706986    10.580900    -0.168100     1.075700
      30    1      2   0.09706986    12.391000    -0.535700     0.897100
      31    1      1  -0.19413973    11.790600     0.665300     2.659100
      32    1      1  -0.19413973    11.904800     1.938800     1.802200
      33    1      2   0.09706986    10.880300     0.742300     3.341800
      34    1      2   0.09706986    12.732300     0.493400     3.279000
      35    1      2   0.09706986    11.027400     1.930100     1.074000
      36    1      2   0.09706986    12.877300     1.926300     1.206800
      37    1      1  -0.19413973    11.771000     3.237500     2.614700
      38    1      1  -0.19413973    11.727600     4.357700     1.559800
      39    1      2   0.09706986    10.769900     3.201100     3.159400
      40    1      2   0.09706986    12.615700     3.388400     3.365700
      41    1      2   0.09706986    12.753100     4.512400     1.086000
      42    1      2   0.09706986    10.994400     4.025900     0.751900
      43    1      1  -0.19413973    11.157900     5.664200     2.135800
      44    1      1  -0.19413973    10.942100     6.616600     0.944800
      45    1      2   0.09706986    10.137400     5.417700     2.581100
      46    1      2   0.09706986    11.823400     6.128300     2.936900
      47    1      2   0.09706986    11.932100     7.020000     0.547800
      48    1      2   0.09706986    10.418400     6.023900     0.123100
      49    1      1  -0.19413973     9.972600     7.737200     1.360000
      50    1      1  -0.19413973     9.557300     8.544300     0.116200
      51    1      2   0.09706986     9.035800     7.223800     1.759400
      52    1      2   0.09706986    10.408000     8.412300     2.169400
      53    1      2   0.09706986    10.401000     9.215000    -0.256300
      54    1      2   0.09706986     9.261600     7.807000    -0.702100
      55    1      1  -0.19413973     8.293800     9.332700     0.502700
      56    1      1  -0.19413973     7.646200    10.019700    -0.712700
      57    1      2   0.09706986     7.545500     8.566800     0.894400
      58    1      2   0.09706986     8.512100    10.091100     1.325700
      59    1      2   0.09706986     8.260600    10.909400    -1.074700
      60    1      2   0.09706986     7.531200     9.259500    -1.554800
      61    1      1  -0.19413973     6.237900    10.419500    -0.237000
      62    1      1  -0.19413973     5.348900    10.995300    -1.353300
      63    1      2   0.09706986     5.737100     9.464200     0.132900
      64    1      2   0.09706986     6.302300    11.159600     0.627900
      65    1      2   0.09706986     5.709200    12.026500    -1.680200
      66    1      2   0.09706986     5.337800    10.283600    -2.244200
      67    1      1  -0.19413973     3.937600    11.034800    -0.739000
      68    1      1  -0.19413973     2.849100    11.510600    -1.717500
      69    1      2   0.09706986     3.680000     9.969400    -0.424300
      70    1      2   0.09706986     3.933500    11.704900     0.183400
      71    1      2   0.09706986     2.992800    12.611300    -1.978300
      72    1      2   0.09706986     2.875200    10.876800    -2.665000
      73    1      1  -0.19413973     1.512300    11.273200    -0.990300
      74    1      1  -0.19413973     0.297400    11.686100    -1.841200
      75    1      2   0.09706986     1.431500    10.159100    -0.761300
      76    1      2   0.09706986     1.501600    11.858400    -0.011800
      77    1      2   0.09706986     0.319400    11.138300    -2.840900
      78    1      2   0.09706986     0.312400    12.812400    -2.018200
      79    1      1  -0.19413973    -0.966700    11.271300    -1.064600
      80    1      1  -0.19413973    -2.234700    11.681500    -1.833900
      81    1      2   0.09706986    -0.956700    10.139400    -0.928100
      82    1      2   0.09706986    -0.974700    11.773100    -0.040800
      83    1      2   0.09706986    -2.227500    11.215700    -2.874400
      84    1      2   0.09706986    -2.266500    12.817500    -1.925800
      85    1      1  -0.19413973    -3.469000    11.180900    -1.060700
      86    1      1  -0.19413973    -3.447000    11.738200     0.374600
      87    1      2   0.09706986    -3.454900    10.041800    -1.012400
      88    1      2   0.09706986    -4.415800    11.525000    -1.594200
      89    1      2   0.09706986    -3.444200    12.877900     0.346900
      90    1      2   0.09706986    -2.509700    11.367400     0.907700
      91    1      1  -0.19413973    -4.701500    11.247100     1.121800
      92    1      1  -0.19413973    -4.739800     9.707300     1.135900
      93    1      2   0.09706986    -5.629800    11.635900     0.586300
      94    1      2   0.09706986    -4.687900    11.639500     2.192200
      95    1      2   0.09706986    -4.746700     9.321800     0.062900
      96    1      2   0.09706986    -3.820900     9.306000     1.678500
      97    1      1  -0.19413973    -6.018300     9.238500     1.858000
      98    1      1  -0.19413973    -6.077000     7.699800     1.867700
      99    1      2   0.09706986    -6.930600     9.647400     1.310300
     100    1      2   0.09706986    -6.014800     9.625000     2.930600
     101    1      2   0.09706986    -6.074800     7.315200     0.794500
     102    1      2   0.09706986    -5.166100     7.291000     2.418000
     103    1      1  -0.19413973    -7.359900     7.218500     2.574500
     104    1      1  -0.19413973    -7.364900     5.678600     2.564800
     105    1      2   0.09706986    -8.274200     7.612800     2.019300
     106    1      2   0.09706986    -7.372000     7.595200     3.650500
     107    1      2   0.09706986    -7.333700     5.313700     1.485200
     108    1      2   0.09706986    -6.440000     5.302000     3.114900
     109    1      1  -0.19413973    -8.621000     5.101300     3.246900
     110    1      1  -0.19413973    -8.481500     3.570300     3.179900
     111    1      2   0.09706986    -9.557400     5.436800     2.689900
     112    1      2   0.09706986    -8.670500     5.443800     4.333100
     113    1      2   0.09706986    -8.390400     3.265500     2.085200
     114    1      2   0.09706986    -7.528800     3.268100     3.728300
     115    1      1  -0.19413973    -9.667000     2.807100     3.802300
     116    1      1  -0.19413973    -9.299300     1.323900     3.622800
     117    1      2   0.09706986   -10.630500     3.051600     3.244000
     118    1      2   0.09706986    -9.778500     3.060700     4.908300
     119    1      2   0.09706986    -9.136400     1.135200     2.510400
     120    1      2   0.09706986    -8.320400     1.129800     4.174000
     121    1      1  -0.19413973   -10.348800     0.311500     4.119800
     122    1      1  -0.19413973    -9.701500    -1.042600     3.782400
     123    1      2   0.09706986   -11.325800     0.442900     3.547200
     124    1      2   0.09706986   -10.529100     0.413100     5.240900
     125    1      2   0.09706986    -9.468700    -1.039500     2.666400
     126    1      2   0.09706986    -8.720300    -1.122100     4.357400
     127    1      1  -0.19413973   -10.539500    -2.301900     4.069500
     128    1      1  -0.19413973    -9.615800    -3.423900     3.562600
     129    1      2   0.09706986   -11.505300    -2.276100     3.464300
     130    1      2   0.09706986   -10.767300    -2.419900     5.180400
     131    1      2   0.09706986    -9.355800    -3.176600     2.480500
     132    1      2   0.09706986    -8.657100    -3.407800     4.179400
     133    1      1  -0.19413973   -10.183800    -4.854800     3.569300
     134    1      1  -0.19413973    -9.038100    -5.657900     2.927400
     135    1      2   0.09706986   -11.116200    -4.905700     2.915300
     136    1      2   0.09706986   -10.416800    -5.218400     4.624500
     137    1      2   0.09706986    -8.799000    -5.157500     1.931200
     138    1      2   0.09706986    -8.119300    -5.586800     3.598500
     139    1      1  -0.19413973    -9.321600    -7.139400     2.624400
     140    1      1  -0.19413973    -8.035300    -7.591700     1.909700
     141    1      2   0.09706986   -10.211200    -7.224300     1.916600
     142    1      2   0.09706986    -9.510800    -7.742100     3.573400
     143    1      2   0.09706986    -7.862300    -6.873400     1.041400
     144    1      2   0.09706986    -7.160300    -7.505600     2.635400
     145    1      1  -0.19413973    -8.066200    -9.010500     1.313700
     146    1      1  -0.19413973    -6.714800    -9.130100     0.585100
     147    1      2   0.09706986    -8.920400    -9.084600     0.562300
     148    1      2   0.09706986    -8.178000    -9.809800     2.119000
     149    1      2   0.09706986    -6.632400    -8.243200    -0.126500
     150    1      2   0.09706986    -5.870600    -9.068500     1.348900
     151    1      1  -0.19413973    -6.557500   -10.406500    -0.261400
     152    1      1  -0.19413973    -5.197500   -10.252100    -0.968800
     153    1      2   0.09706986    -7.390300   -10.444500    -1.039200
     154    1      2   0.09706986    -6.584200   -11.345600     0.384700
     155    1      2   0.09706986    -5.202100    -9.253100    -1.518300
     156    1      2   0.09706986    -4.360600   -10.246200    -0.194600
     157    1      1  -0.19413973    -4.937300   -11.350900    -2.015000
     158    1      1  -0.19413973    -3.600600   -11.004600    -2.700900
     159    1      2   0.09706986    -5.775100   -11.329400    -2.788100
     160    1      2   0.09706986    -4.887300   -12.380300    -1.527300
     161    1      2   0.09706986    -3.666500    -9.939500    -3.102400
     162    1      2   0.09706986    -2.747100   -11.070700    -1.947600
     163    1      1  -0.19413973    -3.329000   -11.937900    -3.893900
     164    1      1  -0.19413973    -2.023300   -11.489100    -4.577600
     165    1      2   0.09706986    -4.190600   -11.842000    -4.634400
     166    1      2   0.09706986    -3.241200   -13.020000    -3.545900
     167    1      2   0.09706986    -2.106300   -10.389400    -4.866600
     168    1      2   0.09706986    -1.854200   -12.116200    -5.514500
     169    1      1  -0.19413973    -0.831200   -11.699100    -3.625600
     170    1      1  -0.19413973     0.472500   -11.235800    -4.306300
     171    1      2   0.09706986    -0.758200   -12.813100    -3.394500
     172    1      2   0.09706986    -0.985300   -11.119700    -2.655700
     173    1      2   0.09706986     0.459900   -10.105700    -4.456800
     174    1      2   0.09706986     0.566100   -11.755200    -5.316900
     175    1      1  -0.19413973     1.665600   -11.669500    -3.433000
     176    1      1  -0.19413973     3.014300   -11.308500    -4.088700
     177    1      2   0.09706986     1.612100   -12.804400    -3.338500
     178    1      2   0.09706986     1.601100   -11.204000    -2.394100
     179    1      2   0.09706986     3.188400   -10.181800    -4.082500
     180    1      2   0.09706986     3.018700   -11.693900    -5.161600
     181    1      1  -0.19413973     4.100000   -12.067700    -3.304400
     182    1      1  -0.19413973     5.510200   -11.927500    -3.909900
     183    1      2   0.09706986     3.819100   -13.171200    -3.358000
     184    1      2   0.09706986     4.114200   -11.743000    -2.211600
     185    1      2   0.09706986     5.477500   -12.150200    -5.027300
     186    1      2   0.09706986     6.172000   -12.702900    -3.399700
     187    1      1  -0.19413973     6.197400   -10.394600    -2.111900
     188    1      1  -0.19413973     6.169500   -10.562100    -3.642700
     189    1      2   0.09706986     5.137700   -10.195300    -1.741500
     190    1      2   0.09706986     6.572400   -11.369300    -1.654800
     191    1      2   0.09706986     5.607400    -9.699700    -4.132700
     192    1      2   0.09706986     7.235500   -10.608600    -4.044000

Bonds

       1      1        1        2
       2      2        1        3
       3      2        1        4
       4      1        1        7
       5      2        2        5
       6      2        2        6
       7      1        2      187
       8      1        7        8
       9      2        7        9
      10      2        7       10
      11      2        8       11
      12      2        8       12
      13      1        8       13
      14      1       13       14
      15      2       13       15
      16      2       13       16
      17      2       14       17
      18      2       14       18
      19      1       14       19
      20      1       19       20
      21      2       19       21
      22      2       19       22
      23      2       20       23
      24      2       20       24
      25      1       20       25
      26      1       25       26
      27      2       25       27
      28      2       25       28
      29      2       26       29
      30      2       26       30
      31      1       26       31
      32      1       31       32
      33      2       31       33
      34      2       31       34
      35      2       32       35
      36      2       32       36
      37      1       32       37
      38      1       37       38
      39      2       37       39
      40      2       37       40
      41      2       38       41
      42      2       38       42
      43      1       38       43
      44      1       43       44
      45      2       43       45
      46      2       43       46
      47      2       44       47
      48      2       44       48
      49      1       44       49
      50      1       49       50
      51      2       49       51
      52      2       49       52
      53      2       50       53
      54      2       50       54
      55      1       50       55
      56      1       55       56
      57      2       55       57
      58      2       55       58
      59      2       56       59
      60      2       56       60
      61      1       56       61
      62      1       61       62
      63      2       61       63
      64      2       61       64
      65      2       62       65
      66      2       62       66
      67      1       62       67
      68      1       67       68
      69      2       67       69
      70      2       67       70
      71      2       68       71
      72      2       68       72
      73      1       68       73
      74      1       73       74
      75      2       73       75
      76      2       73       76
      77      2       74       77
      78      2       74       78
      79      1       74       79
      80      1       79       80
      81      2       79       81
      82      2       79       82
      83      2       80       83
      84      2       80       84
      85      1       80       85
      86      1       85       86
      87      2       85       87
      88      2       85       88
      89      2       86       89
      90      2       86       90
      91      1       86       91
      92      1       91       92
      93      2       91       93
      94      2       91       94
      95      2       92       95
      96      2       92       96
      97      1       92       97
      98      1       97       98
      99      2       97       99
     100      2       97      100
     101      2       98      101
     102      2       98      102
     103      1       98      103
     104      1      103      104
     105      2      103      105
     106      2      103      106
     107      2      104      107
     108      2      104      108
     109      1      104      109
     110      1      109      110
     111      2      109      111
     112      2      109      112
     113      2      110      113
     114      2      110      114
     115      1      110      115
     116      1      115      116
     117      2      115      117
     118      2      115      118
     119      2      116      119
     120      2      116      120
     121      1      116      121
     122      1      121      122
     123      2      121      123
     124      2      121      124
     125      2      122      125
     126      2      122      126
     127      1      122      127
     128      1      127      128
     129      2      127      129
     130      2      127      130
     131      2      128      131
     132      2      128      132
     133      1      128      133
     134      1      133      134
     135      2      133      135
     136      2      133      136
     137      2      134      137
     138      2      134      138
     139      1      134      139
     140      1      139      140
     141      2      139      141
     142      2      139      142
     143      2      140      143
     144      2      140      144
     145      1      140      145
     146      1      145      146
     147      2      145      147
     148      2      145      148
     149      2      146      149
     150      2      146      150
     151      1      146      151
     152      1      151      152
     153      2      151      153
     154      2      151      154
     155      2      152      155
     156      2      152      156
     157      1      152      157
     158      1      157      158
     159      2      157      159
     160      2      157      160
     161      2      158      161
     162      2      158      162
     163      1      158      163
     164      1      163      164
     165      2      163      165
     166      2      163      166
     167      2      164      167
     168      2      164      168
     169      1      164      169
     170      1      169      170
     171      2      169      171
     172      2      169      172
     173      2      170      173
     174      2      170      174
     175      1      170      175
     176      1      175      176
     177      2      175      177
     178      2      175      178
     179      2      176      179
     180      2      176      180
     181      1      176      181
     182      1      181      182
     183      2      181      183
     184      2      181      184
     185      2      182      185
     186      2      182      186
     187      1      182      188
     188      1      187      188
     189      2      187      189
     190      2      187      190
     191      2      188      191
     192      2      188      192

Angles

       1      2        1        2        5
       2      2        1        2        6
       3      1        1        2      187
       4      1        1        7        8
       5      2        1        7        9
       6      2        1        7       10
       7      2        2        1        3
       8      2        2        1        4
       9      1        2        1        7
      10      1        2      187      188
      11      2        2      187      189
      12      2        2      187      190
      13      3        3        1        4
      14      2        3        1        7
      15      2        4        1        7
      16      3        5        2        6
      17      2        5        2      187
      18      2        6        2      187
      19      2        7        8       11
      20      2        7        8       12
      21      1        7        8       13
      22      2        8        7        9
      23      2        8        7       10
      24      1        8       13       14
      25      2        8       13       15
      26      2        8       13       16
      27      3        9        7       10
      28      3       11        8       12
      29      2       11        8       13
      30      2       12        8       13
      31      2       13       14       17
      32      2       13       14       18
      33      1       13       14       19
      34      2       14       13       15
      35      2       14       13       16
      36      1       14       19       20
      37      2       14       19       21
      38      2       14       19       22
      39      3       15       13       16
      40      3       17       14       18
      41      2       17       14       19
      42      2       18       14       19
      43      2       19       20       23
      44      2       19       20       24
      45      1       19       20       25
      46      2       20       19       21
      47      2       20       19       22
      48      1       20       25       26
      49      2       20       25       27
      50      2       20       25       28
      51      3       21       19       22
      52      3       23       20       24
      53      2       23       20       25
      54      2       24       20       25
      55      2       25       26       29
      56      2       25       26       30
      57      1       25       26       31
      58      2       26       25       27
      59      2       26       25       28
      60      1       26       31       32
      61      2       26       31       33
      62      2       26       31       34
      63      3       27       25       28
      64      3       29       26       30
      65      2       29       26       31
      66      2       30       26       31
      67      2       31       32       35
      68      2       31       32       36
      69      1       31       32       37
      70      2       32       31       33
      71      2       32       31       34
      72      1       32       37       38
      73      2       32       37       39
      74      2       32       37       40
      75      3       33       31       34
      76      3       35       32       36
      77      2       35       32       37
      78      2       36       32       37
      79      2       37       38       41
      80      2       37       38       42
      81      1       37       38       43
      82      2       38       37       39
      83      2       38       37       40
      84      1       38       43       44
      85      2       38       43       45
      86      2       38       43       46
      87      3       39       37       40
      88      3       41       38       42
      89      2       41       38       43
      90      2       42       38       43
      91      2       43       44       47
      92      2       43       44       48
      93      1       43       44       49
      94      2       44       43       45
      95      2       44       43       46
      96      1       44       49       50
      97      2       44       49       51
      98      2       44       49       52
      99      3       45       43       46
     100      3       47       44       48
     101      2       47       44       49
     102      2       48       44       49
     103      2       49       50       53
     104      2       49       50       54
     105      1       49       50       55
     106      2       50       49       51
     107      2       50       49       52
     108      1       50       55       56
     109      2       50       55       57
     110      2       50       55       58
     111      3       51       49       52
     112      3       53       50       54
     113      2       53       50       55
     114      2       54       50       55
     115      2       55       56       59
     116      2       55       56       60
     117      1       55       56       61
     118      2       56       55       57
     119      2       56       55       58
     120      1       56       61       62
     121      2       56       61       63
     122      2       56       61       64
     123      3       57       55       58
     124      3       59       56       60
     125      2       59       56       61
     126      2       60       56       61
     127      2       61       62       65
     128      2       61       62       66
     129      1       61       62       67
     130      2       62       61       63
     131      2       62       61       64
     132      1       62       67       68
     133      2       62       67       69
     134      2       62       67       70
     135      3       63       61       64
     136      3       65       62       66
     137      2       65       62       67
     138      2       66       62       67
     139      2       67       68       71
     140      2       67       68       72
     141      1       67       68       73
     142      2       68       67       69
     143      2       68       67       70
     144      1       68       73       74
     145      2       68       73       75
     146      2       68       73       76
     147      3       69       67       70
     148      3       71       68       72
     149      2       71       68       73
     150      2       72       68       73
     151      2       73       74       77
     152      2       73       74       78
     153      1       73       74       79
     154      2       74       73       75
     155      2       74       73       76
     156      1       74       79       80
     157      2       74       79       81
     158      2       74       79       82
     159      3       75       73       76
     160      3       77       74       78
     161      2       77       74       79
     162      2       78       74       79
     163      2       79       80       83
     164      2       79       80       84
     165      1       79       80       85
     166      2       80       79       81
     167      2       80       79       82
     168      1       80       85       86
     169      2       80       85       87
     170      2       80       85       88
     171      3       81       79       82
     172      3       83       80       84
     173      2       83       80       85
     174      2       84       80       85
     175      2       85       86       89
     176      2       85       86       90
     177      1       85       86       91
     178      2       86       85       87
     179      2       86       85       88
     180      1       86       91       92
     181      2       86       91       93
     182      2       86       91       94
     183      3       87       85       88
     184      3       89       86       90
     185      2       89       86       91
     186      2       90       86       91
     187      2       91       92       95
     188      2       91       92       96
     189      1       91       92       97
     190      2       92       91       93
     191      2       92       91       94
     192      1       92       97       98
     193      2       92       97       99
     194      2       92       97      100
     195      3       93       91       94
     196      3       95       92       96
     197      2       95       92       97
     198      2       96       92       97
     199      2       97       98      101
     200      2       97       98      102
     201      1       97       98      103
     202      2       98       97       99
     203      2       98       97      100
     204      1       98      103      104
     205      2       98      103      105
     206      2       98      103      106
     207      3       99       97      100
     208      3      101       98      102
     209      2      101       98      103
     210      2      102       98      103
     211      2      103      104      107
     212      2      103      104      108
     213      1      103      104      109
     214      2      104      103      105
     215      2      104      103      106
     216      1      104      109      110
     217      2      104      109      111
     218      2      104      109      112
     219      3      105      103      106
     220      3      107      104      108
     221      2      107      104      109
     222      2      108      104      109
     223      2      109      110      113
     224      2      109      110      114
     225      1      109      110      115
     226      2      110      109      111
     227      2      110      109      112
     228      1      110      115      116
     229      2      110      115      117
     230      2      110      115      118
     231      3      111      109      112
     232      3      113      110      114
     233      2      113      110      115
     234      2      114      110      115
     235      2      115      116      119
     236      2      115      116      120
     237      1      115      116      121
     238      2      116      115      117
     239      2      116      115      118
     240      1      116      121      122
     241      2      116      121      123
     242      2      116      121      124
     243      3      117      115      118
     244      3      119      116      120
     245      2      119      116      121
     246      2      120      116      121
     247      2      121      122      125
     248      2      121      122      126
     249      1      121      122      127
     250      2      122      121      123
     251      2      122      121      124
     252      1      122      127      128
     253      2      122      127      129
     254      2      122      127      130
     255      3      123      121      124
     256      3      125      122      126
     257      2      125      122      127
     258      2      126      122      127
     259      2      127      128      131
     260      2      127      128      132
     261      1      127      128      133
     262      2      128      127      129
     263      2      128      127      130
     264      1      128      133      134
     265      2      128      133      135
     266      2      128      133      136
     267      3      129      127      130
     268      3      131      128      132
     269      2      131      128      133
     270      2      132      128      133
     271      2      133      134      137
     272      2      133      134      138
     273      1      133      134      139
     274      2      134      133      135
     275      2      134      133      136
     276      1      134      139      140
     277      2      134      139      141
     278      2      134      139      142
     279      3      135      133      136
     280      3      137      134      138
     281      2      137      134      139
     282      2      138      134      139
     283      2      139      140      143
     284      2      139      140      144
     285      1      139      140      145
     286      2      140      139      141
     287      2      140      139      142
     288      1      140      145      146
     289      2      140      145      147
     290      2      140      145      148
     291      3      141      139      142
     292      3      143      140      144
     293      2      143      140      145
     294      2      144      140      145
     295      2      145      146      149
     296      2      145      146      150
     297      1      145      146      151
     298      2      146      145      147
     299      2      146      145      148
     300      1      146      151      152
     301      2      146      151      153
     302      2      146      151      154
     303      3      147      145      148
     304      3      149      146      150
     305      2      149      146      151
     306      2      150      146      151
     307      2      151      152      155
     308      2      151      152      156
     309      1      151      152      157
     310      2      152      151      153
     311      2      152      151      154
     312      1      152      157      158
     313      2      152      157      159
     314      2      152      157      160
     315      3      153      151      154
     316      3      155      152      156
     317      2      155      152      157
     318      2      156      152      157
     319      2      157      158      161
     320      2      157      158      162
     321      1      157      158      163
     322      2      158      157      159
     323      2      158      157      160
     324      1      158      163      164
     325      2      158      163      165
     326      2      158      163      166
     327      3      159      157      160
     328      3      161      158      162
     329      2      161      158      163
     330      2      162      158      163
     331      2      163      164      167
     332      2      163      164      168
     333      1      163      164      169
     334      2      164      163      165
     335      2      164      163      166
     336      1      164      169      170
     337      2      164      169      171
     338      2      164      169      172
     339      3      165      163      166
     340      3      167      164      168
     341      2      167      164      169
     342      2      168      164      169
     343      2      169      170      173
     344      2      169      170      174
     345      1      169      170      175
     346      2      170      169      171
     347      2      170      169      172
     348      1      170      175      176
     349      2      170      175      177
     350      2      170      175      178
     351      3      171      169      172
     352      3      173      170      174
     353      2      173      170      175
     354      2      174      170      175
     355      2      175      176      179
     356      2      175      176      180
     357      1      175      176      181
     358      2      176      175      177
     359      2      176      175      178
     360      1      176      181      182
     361      2      176      181      183
     362      2      176      181      184
     363      3      177      175      178
     364      3      179      176      180
     365      2      179      176      181
     366      2      180      176      181
     367      2      181      182      185
     368      2      181      182      186
     369      1      181      182      188
     370      2      182      181      183
     371      2      182      181      184
     372      1      182      188      187
     373      2      182      188      191
     374      2      182      188      192
     375      3      183      181      184
     376      3      185      182      186
     377      2      185      182      188
     378      2      186      182      188
     379      2      187      188      191
     380      2      187      188      192
     381      2      188      187      189
     382      2      188      187      190
     383      3      189      187      190
     384      3      191      188      192

Dihedrals

       1      1        1        2      187      188
       2      2        1        2      187      189
       3      2        1        2      187      190
       4      2        1        7        8       11
       5      2        1        7        8       12
       6      1        1        7        8       13
       7      1        2        1        7        8
       8      2        2        1        7        9
       9      2        2        1        7       10
      10      1        2      187      188      182
      11      2        2      187      188      191
      12      2        2      187      188      192
      13      3        3        1        2        5
      14      3        3        1        2        6
      15      2        3        1        2      187
      16      2        3        1        7        8
      17      3        3        1        7        9
      18      3        3        1        7       10
      19      3        4        1        2        5
      20      3        4        1        2        6
      21      2        4        1        2      187
      22      2        4        1        7        8
      23      3        4        1        7        9
      24      3        4        1        7       10
      25      2        5        2        1        7
      26      2        5        2      187      188
      27      3        5        2      187      189
      28      3        5        2      187      190
      29      2        6        2        1        7
      30      2        6        2      187      188
      31      3        6        2      187      189
      32      3        6        2      187      190
      33      1        7        1        2      187
      34      1        7        8       13       14
      35      2        7        8       13       15
      36      2        7        8       13       16
      37      2        8       13       14       17
      38      2        8       13       14       18
      39      1        8       13       14       19
      40      3        9        7        8       11
      41      3        9        7        8       12
      42      2        9        7        8       13
      43      3       10        7        8       11
      44      3       10        7        8       12
      45      2       10        7        8       13
      46      2       11        8       13       14
      47      3       11        8       13       15
      48      3       11        8       13       16
      49      2       12        8       13       14
      50      3       12        8       13       15
      51      3       12        8       13       16
      52      1       13       14       19       20
      53      2       13       14       19       21
      54      2       13       14       19       22
      55      2       14       19       20       23
      56      2       14       19       20       24
      57      1       14       19       20       25
      58      3       15       13       14       17
      59      3       15       13       14       18
      60      2       15       13       14       19
      61      3       16       13       14       17
      62      3       16       13       14       18
      63      2       16       13       14       19
      64      2       17       14       19       20
      65      3       17       14       19       21
      66      3       17       14       19       22
      67      2       18       14       19       20
      68      3       18       14       19       21
      69      3       18       14       19       22
      70      1       19       20       25       26
      71      2       19       20       25       27
      72      2       19       20       25       28
      73      2       20       25       26       29
      74      2       20       25       26       30
      75      1       20       25       26       31
      76      3       21       19       20       23
      77      3       21       19       20       24
      78      2       21       19       20       25
      79      3       22       19       20       23
      80      3       22       19       20       24
      81      2       22       19       20       25
      82      2       23       20       25       26
      83      3       23       20       25       27
      84      3       23       20       25       28
      85      2       24       20       25       26
      86      3       24       20       25       27
      87      3       24       20       25       28
      88      1       25       26       31       32
      89      2       25       26       31       33
      90      2       25       26       31       34
      91      2       26       31       32       35
      92      2       26       31       32       36
      93      1       26       31       32       37
      94      3       27       25       26       29
      95      3       27       25       26       30
      96      2       27       25       26       31
      97      3       28       25       26       29
      98      3       28       25       26       30
      99      2       28       25       26       31
     100      2       29       26       31       32
     101      3       29       26       31       33
     102      3       29       26       31       34
     103      2       30       26       31       32
     104      3       30       26       31       33
     105      3       30       26       31       34
     106      1       31       32       37       38
     107      2       31       32       37       39
     108      2       31       32       37       40
     109      2       32       37       38       41
     110      2       32       37       38       42
     111      1       32       37       38       43
     112      3       33       31       32       35
     113      3       33       31       32       36
     114      2       33       31       32       37
     115      3       34       31       32       35
     116      3       34       31       32       36
     117      2       34       31       32       37
     118      2       35       32       37       38
     119      3       35       32       37       39
     120      3       35       32       37       40
     121      2       36       32       37       38
     122      3       36       32       37       39
     123      3       36       32       37       40
     124      1       37       38       43       44
     125      2       37       38       43       45
     126      2       37       38       43       46
     127      2       38       43       44       47
     128      2       38       43       44       48
     129      1       38       43       44       49
     130      3       39       37       38       41
     131      3       39       37       38       42
     132      2       39       37       38       43
     133      3       40       37       38       41
     134      3       40       37       38       42
     135      2       40       37       38       43
     136      2       41       38       43       44
     137      3       41       38       43       45
     138      3       41       38       43       46
     139      2       42       38       43       44
     140      3       42       38       43       45
     141      3       42       38       43       46
     142      1       43       44       49       50
     143      2       43       44       49       51
     144      2       43       44       49       52
     145      2       44       49       50       53
     146      2       44       49       50       54
     147      1       44       49       50       55
     148      3       45       43       44       47
     149      3       45       43       44       48
     150      2       45       43       44       49
     151      3       46       43       44       47
     152      3       46       43       44       48
     153      2       46       43       44       49
     154      2       47       44       49       50
     155      3       47       44       49       51
     156      3       47       44       49       52
     157      2       48       44       49       50
     158      3       48       44       49       51
     159      3       48       44       49       52
     160      1       49       50       55       56
     161      2       49       50       55       57
     162      2       49       50       55       58
     163      2       50       55       56       59
     164      2       50       55       56       60
     165      1       50       55       56       61
     166      3       51       49       50       53
     167      3       51       49       50       54
     168      2       51       49       50       55
     169      3       52       49       50       53
     170      3       52       49       50       54
     171      2       52       49       50       55
     172      2       53       50       55       56
     173      3       53       50       55       57
     174      3       53       50       55       58
     175      2       54       50       55       56
     176      3       54       50       55       57
     177      3       54       50       55       58
     178      1       55       56       61       62
     179      2       55       56       61       63
     180      2       55       56       61       64
     181      2       56       61       62       65
     182      2       56       61       62       66
     183      1       56       61       62       67
     184      3       57       55       56       59
     185      3       57       55       56       60
     186      2       57       55       56       61
     187      3       58       55       56       59
     188      3       58       55       56       60
     189      2       58       55       56       61
     190      2       59       56       61       62
     191      3       59       56       61       63
     192      3       59       56       61       64
     193      2       60       56       61       62
     194      3       60       56       61       63
     195      3       60       56       61       64
     196      1       61       62       67       68
     197      2       61       62       67       69
     198      2       61       62       67       70
     199      2       62       67       68       71
     200      2       62       67       68       72
     201      1       62       67       68       73
     202      3       63       61       62       65
     203      3       63       61       62       66
     204      2       63       61       62       67
     205      3       64       61       62       65
     206      3       64       61       62       66
     207      2       64       61       62       67
     208      2       65       62       67       68
     209      3       65       62       67       69
     210      3       65       62       67       70
     211      2       66       62       67       68
     212      3       66       62       67       69
     213      3       66       62       67       70
     214      1       67       68       73       74
     215      2       67       68       73       75
     216      2       67       68       73       76
     217      2       68       73       74       77
     218      2       68       73       74       78
     219      1       68       73       74       79
     220      3       69       67       68       71
     221      3       69       67       68       72
     222      2       69       67       68       73
     223      3       70       67       68       71
     224      3       70       67       68       72
     225      2       70       67       68       73
     226      2       71       68       73       74
     227      3       71       68       73       75
     228      3       71       68       73       76
     229      2       72       68       73       74
     230      3       72       68       73       75
     231      3       72       68       73       76
     232      1       73       74       79       80
     233      2       73       74       79       81
     234      2       73       74       79       82
     235      2       74       79       80       83
     236      2       74       79       80       84
     237      1       74       79       80       85
     238      3       75       73       74       77
     239      3       75       73       74       78
     240      2       75       73       74       79
     241      3       76       73       74       77
     242      3       76       73       74       78
     243      2       76       73       74       79
     244      2       77       74       79       80
     245      3       77       74       79       81
     246      3       77       74       79       82
     247      2       78       74       79       80
     248      3       78       74       79       81
     249      3       78       74       79       82
     250      1       79       80       85       86
     251      2       79       80       85       87
     252      2       79       80       85       88
     253      2       80       85       86       89
     254      2       80       85       86       90
     255      1       80       85       86       91
     256      3       81       79       80       83
     257      3       81       79       80       84
     258      2       81       79       80       85
     259      3       82       79       80       83
     260      3       82       79       80       84
     261      2       82       79       80       85
     262      2       83       80       85       86
     263      3       83       80       85       87
     264      3       83       80       85       88
     265      2       84       80       85       86
     266      3       84       80       85       87
     267      3       84       80       85       88
     268      1       85       86       91       92
     269      2       85       86       91       93
     270      2       85       86       91       94
     271      2       86       91       92       95
     272      2       86       91       92       96
     273      1       86       91       92       97
     274      3       87       85       86       89
     275      3       87       85       86       90
     276      2       87       85       86       91
     277      3       88       85       86       89
     278      3       88       85       86       90
     279      2       88       85       86       91
     280      2       89       86       91       92
     281      3       89       86       91       93
     282      3       89       86       91       94
     283      2       90       86       91       92
     284      3       90       86       91       93
     285      3       90       86       91       94
     286      1       91       92       97       98
     287      2       91       92       97       99
     288      2       91       92       97      100
     289      2       92       97       98      101
     290      2       92       97       98      102
     291      1       92       97       98      103
     292      3       93       91       92       95
     293      3       93       91       92       96
     294      2       93       91       92       97
     295      3       94       91       92       95
     296      3       94       91       92       96
     297      2       94       91       92       97
     298      2       95       92       97       98
     299      3       95       92       97       99
     300      3       95       92       97      100
     301      2       96       92       97       98
     302      3       96       92       97       99
     303      3       96       92       97      100
     304      1       97       98      103      104
     305      2       97       98      103      105
     306      2       97       98      103      106
     307      2       98      103      104      107
     308      2       98      103      104      108
     309      1       98      103      104      109
     310      3       99       97       98      101
     311      3       99       97       98      102
     312      2       99       97       98      103
     313      3      100       97       98      101
     314      3      100       97       98      102
     315      2      100       97       98      103
     316      2      101       98      103      104
     317      3      101       98      103      105
     318      3      101       98      103      106
     319      2      102       98      103      104
     320      3      102       98      103      105
     321      3      102       98      103      106
     322      1      103      104      109      110
     323      2      103      104      109      111
     324      2      103      104      109      112
     325      2      104      109      110      113
     326      2      104      109      110      114
     327      1      104      109      110      115
     328      3      105      103      104      107
     329      3      105      103      104      108
     330      2      105      103      104      109
     331      3      106      103      104      107
     332      3      106      103      104      108
     333      2      106      103      104      109
     334      2      107      104      109      110
     335      3      107      104      109      111
     336      3      107      104      109      112
     337      2      108      104      109      110
     338      3      108      104      109      111
     339      3      108      104      109      112
     340      1      109      110      115      116
     341      2      109      110      115      117
     342      2      109      110      115      118
     343      2      110      115      116      119
     344      2      110      115      116      120
     345      1      110      115      116      121
     346      3      111      109      110      113
     347      3      111      109      110      114
     348      2      111      109      110      115
     349      3      112      109      110      113
     350      3      112      109      110      114
     351      2      112      109      110      115
     352      2      113      110      115      116
     353      3      113      110      115      117
     354      3      113      110      115      118
     355      2      114      110      115      116
     356      3      114      110      115      117
     357      3      114      110      115      118
     358      1      115      116      121      122
     359      2      115      116      121      123
     360      2      115      116      121      124
     361      2      116      121      122      125
     362      2      116      121      122      126
     363      1      116      121      122      127
     364      3      117      115      116      119
     365      3      117      115      116      120
     366      2      117      115      116      121
     367      3      118      115      116      119
     368      3      118      115      116      120
     369      2      118      115      116      121
     370      2      119      116      121      122
     371      3      119      116      121      123
     372      3      119      116      121      124
     373      2      120      116      121      122
     374      3      120      116      121      123
     375      3      120      116      121      124
     376      1      121      122      127      128
     377      2      121      122      127      129
     378      2      121      122      127      130
     379      2      122      127      128      131
     380      2      122      127      128      132
     381      1      122      127      128      133
     382      3      123      121      122      125
     383      3      123      121      122      126
     384      2      123      121      122      127
     385      3      124      121      122      125
     386      3      124      121      122      126
     387      2      124      121      122      127
     388      2      125      122      127      128
     389      3      125      122      127      129
     390      3      125      122      127      130
     391      2      126      122      127      128
     392      3      126      122      127      129
     393      3      126      122      127      130
     394      1      127      128      133      134
     395      2      127      128      133      135
     396      2      127      128      133      136
     397      2      128      133      134      137
     398      2      128      133      134      138
     399      1      128      133      134      139
     400      3      129      127      128      131
     401      3      129      127      128      132
     402      2      129      127      128      133
     403      3      130      127      128      131
     404      3      130      127      128      132
     405      2      130      127      128      133
     406      2      131      128      133      134
     407      3      131      128      133      135
     408      3      131      128      133      136
     409      2      132      128      133      134
     410      3      132      128      133      135
     411      3      132      128      133      136
     412      1      133      134      139      140
     413      2      133      134      139      141
     414      2      133      134      139      142
     415      2      134      139      140      143
     416      2      134      139      140      144
     417      1      134      139      140      145
     418      3      135      133      134      137
     419      3      135      133      134      138
     420      2      135      133      134      139
     421      3      136      133      134      137
     422      3      136      133      134      138
     423      2      136      133      134      139
     424      2      137      134      139      140
     425      3      137      134      139      141
     426      3      137      134      139      142
     427      2      138      134      139      140
     428      3      138      134      139      141
     429      3      138      134      139      142
     430      1      139      140      145      146
     431      2      139      140      145      147
     432      2      139      140      145      148
     433      2      140      145      146      149
     434      2      140      145      146      150
     435      1      140      145      146      151
     436      3      141      139      140      143
     437      3      141      139      140      144
     438      2      141      139      140      145
     439      3      142      139      140      143
     440      3      142      139      140      144
     441      2      142      139      140      145
     442      2      143      140      145      146
     443      3      143      140      145      147
     444      3      143      140      145      148
     445      2      144      140      145      146
     446      3      144      140      145      147
     447      3      144      140      145      148
     448      1      145      146      151      152
     449      2      145      146      151      153
     450      2      145      146      151      154
     451      2      146      151      152      155
     452      2      146      151      152      156
     453      1      146      151      152      157
     454      3      147      145      146      149
     455      3      147      145      146      150
     456      2      147      145      146      151
     457      3      148      145      146      149
     458      3      148      145      146      150
     459      2      148      145      146      151
     460      2      149      146      151      152
     461      3      149      146      151      153
     462      3      149      146      151      154
     463      2      150      146      151      152
     464      3      150      146      151      153
     465      3      150      146      151      154
     466      1      151      152      157      158
     467      2      151      152      157      159
     468      2      151      152      157      160
     469      2      152      157      158      161
     470      2      152      157      158      162
     471      1      152      157      158      163
     472      3      153      151      152      155
     473      3      153      151      152      156
     474      2      153      151      152      157
     475      3      154      151      152      155
     476      3      154      151      152      156
     477      2      154      151      152      157
     478      2      155      152      157      158
     479      3      155      152      157      159
     480      3      155      152      157      160
     481      2      156      152      157      158
     482      3      156      152      157      159
     483      3      156      152      157      160
     484      1      157      158      163      164
     485      2      157      158      163      165
     486      2      157      158      163      166
     487      2      158      163      164      167
     488      2      158      163      164      168
     489      1      158      163      164      169
     490      3      159      157      158      161
     491      3      159      157      158      162
     492      2      159      157      158      163
     493      3      160      157      158      161
     494      3      160      157      158      162
     495      2      160      157      158      163
     496      2      161      158      163      164
     497      3      161      158      163      165
     498      3      161      158      163      166
     499      2      162      158      163      164
     500      3      162      158      163      165
     501      3      162      158      163      166
     502      1      163      164      169      170
     503      2      163      164      169      171
     504      2      163      164      169      172
     505      2      164      169      170      173
     506      2      164      169      170      174
     507      1      164      169      170      175
     508      3      165      163      164      167
     509      3      165      163      164      168
     510      2      165      163      164      169
     511      3      166      163      164      167
     512      3      166      163      164      168
     513      2      166      163      164      169
     514      2      167      164      169      170
     515      3      167      164      169      171
     516      3      167      164      169      172
     517      2      168      164      169      170
     518      3      168      164      169      171
     519      3      168      164      169      172
     520      1      169      170      175      176
     521      2      169      170      175      177
     522      2      169      170      175      178
     523      2      170      175      176      179
     524      2      170      175      176      180
     525      1      170      175      176      181
     526      3      171      169      170      173
     527      3      171      169      170      174
     528      2      171      169      170      175
     529      3      172      169      170      173
     530      3      172      169      170      174
     531      2      172      169      170      175
     532      2      173      170      175      176
     533      3      173      170      175      177
     534      3      173      170      175      178
     535      2      174      170      175      176
     536      3      174      170      175      177
     537      3      174      170      175      178
     538      1      175      176      181      182
     539      2      175      176      181      183
     540      2      175      176      181      184
     541      2      176      181      182      185
     542      2      176      181      182      186
     543      1      176      181      182      188
     544      3      177      175      176      179
     545      3      177      175      176      180
     546      2      177      175      176      181
     547      3      178      175      176      179
     548      3      178      175      176      180
     549      2      178      175      176      181
     550      2      179      176      181      182
     551      3      179      176      181      183
     552      3      179      176      181      184
     553      2      180      176      181      182
     554      3      180      176      181      183
     555      3      180      176      181      184
     556      1      181      182      188      187
     557      2      181      182      188      191
     558      2      181      182      188      192
     559      2      182      188      187      189
     560      2      182      188      187      190
     561      3      183      181      182      185
     562      3      183      181      182      186
     563      2      183      181      182      188
     564      3      184      181      182      185
     565      3      184      181      182      186
     566      2      184      181      182      188
     567      2      185      182      188      187
     568      3      185      182      188      191
     569      3      185      182      188      192
     570      2      186      182      188      187
     571      3      186      182      188      191
     572      3      186      182      188      192
     573      3      189      187      188      191
     574      3      189      187      188      192
     575      3      190      187      188      191
     576      3      190      187      188      192

Impropers


