LAMMPS data file generated by clean-room 1-hop pipeline

     176 atoms
     187 bonds
     330 angles
     505 dihedrals
      66 impropers

       7 atom types
      10 bond types
      18 angle types
      25 dihedral types
       4 improper types

  -27.684800    34.163600 xlo xhi
  -42.646600    22.114800 ylo yhi
  -29.045800    31.772200 zlo zhi

Masses

       1    12.011000
       2    12.011000
       3    12.011000
       4    12.011000
       5    12.011000
       6     1.008000
       7     1.008000

Pair Coeffs

       1     0.070000     3.550000
       2     0.070000     3.550000
       3     0.070000     3.550000
       4     0.066000     3.500000
       5     0.066000     3.500000
       6     0.030000     2.420000
       7     0.030000     2.500000

Bond Coeffs

       1   469.000000     1.400000
       2   317.000000     1.510000
       3   469.000000     1.400000
       4   469.000000     1.400000
       5   367.000000     1.080000
       6   385.000000     1.460000
       7   268.000000     1.529000
       8   340.000000     1.090000
       9   268.000000     1.529000
      10   340.000000     1.090000

Angle Coeffs

       1    63.000000   120.000000
       2    35.000000   120.000000
       3    63.000000   114.000000
       4    35.000000   109.500000
       5    63.000000   120.000000
       6    70.000000   120.000000
       7    63.000000   120.000000
       8    35.000000   120.000000
       9    63.000000   120.000000
      10    63.000000   120.000000
      11    35.000000   120.000000
      12    58.350000   112.700000
      13    37.500000   110.700000
      14    37.500000   110.700000
      15    58.350000   112.700000
      16    37.500000   110.700000
      17    33.000000   107.800000
      18    33.000000   107.800000

Dihedral Coeffs

       1     0.000000     7.250000     0.000000     0.000000
       2     0.000000     7.250000     0.000000     0.000000
       3     0.000000     0.000000     0.000000     0.000000
       4     0.000000     0.000000     0.462000     0.000000
       5     0.000000     7.250000     0.000000     0.000000
       6     0.000000     7.250000     0.000000     0.000000
       7    -0.250000     0.000000     0.000000     0.000000
       8     0.000000     0.000000     0.000000     0.000000
       9     0.000000     7.250000     0.000000     0.000000
      10     0.000000     7.250000     0.000000     0.000000
      11     0.000000     7.250000     0.000000     0.000000
      12     0.000000     7.250000     0.000000     0.000000
      13     0.000000     1.650000     0.000000    -0.050000
      14     0.000000     7.250000     0.000000     0.000000
      15     0.000000     7.250000     0.000000     0.000000
      16     0.000000     7.250000     0.000000     0.000000
      17     0.000000     7.250000     0.000000     0.000000
      18     0.850000    -0.200000     0.200000     0.000000
      19     0.000000     0.000000     0.300000     0.000000
      20     0.000000     0.000000     0.300000     0.000000
      21     0.850000    -0.200000     0.200000     0.000000
      22     0.000000     0.000000     0.300000     0.000000
      23     0.000000     7.250000     0.000000     0.000000
      24     0.000000     0.000000     0.300000     0.000000
      25     0.000000     0.000000     0.300000     0.000000

Improper Coeffs

       1     2.500000   -1    2
       2     2.500000   -1    2
       3     2.500000   -1    2
       4     2.500000   -1    2

Atoms

       1    1      5  -0.19073470     3.945300    -2.211800    -5.156400
       2    1      5  -0.19073470     4.175700    -0.794700    -4.601900
       3    1      7   0.10047489     3.275700    -2.176700    -6.078400
       4    1      7   0.10047489     3.435300    -2.829500    -4.345200
       5    1      7   0.10047489     4.461500    -0.067200    -5.431700
       6    1      7   0.10047489     5.019700    -0.847600    -3.837500
       7    1      5  -0.19073470     5.295500    -2.900700    -5.431000
       8    1      5  -0.19073470     6.223300    -2.215700    -6.451200
       9    1      7   0.10047489     5.098500    -3.967500    -5.781100
      10    1      7   0.10047489     5.856500    -2.941100    -4.439400
      11    1      7   0.10047489     6.449500    -1.145800    -6.128900
      12    1      7   0.10047489     5.761300    -2.225800    -7.493300
      13    1      5  -0.19073470     7.505600    -3.068100    -6.393500
      14    1      4  -0.14233728     8.655500    -2.616200    -7.312800
      15    1      7   0.10047489     7.237800    -4.143700    -6.659800
      16    1      7   0.10047489     7.888400    -3.042300    -5.320000
      17    1      7   0.10047489     8.964500    -1.546800    -7.067100
      18    1      7   0.10047489     8.349500    -2.700900    -8.407700
      19    1      4  -0.14233728    -5.696700    -4.718500     9.955400
      20    1      5  -0.19073470    -4.709700    -4.378100     8.823500
      21    1      7   0.10047489    -6.710100    -4.260900     9.704200
      22    1      7   0.10047489    -5.332700    -4.325600    10.961800
      23    1      7   0.10047489    -5.004700    -4.995100     7.911500
      24    1      7   0.10047489    -3.647600    -4.655200     9.131400
      25    1      5  -0.19073470    -4.818200    -2.904800     8.389000
      26    1      5  -0.19073470    -3.855000    -2.715700     7.202500
      27    1      7   0.10047489    -5.887300    -2.735400     8.031600
      28    1      7   0.10047489    -4.574300    -2.177300     9.232200
      29    1      7   0.10047489    -3.997000    -3.590400     6.485400
      30    1      7   0.10047489    -2.779100    -2.714400     7.579500
      31    1      5  -0.19073470    -4.171300    -1.439300     6.400200
      32    1      5  -0.19073470    -3.150300    -1.374600     5.249500
      33    1      7   0.10047489    -5.224100    -1.542700     5.975300
      34    1      7   0.10047489    -4.104600    -0.500500     7.043300
      35    1      7   0.10047489    -2.123800    -1.137500     5.684900
      36    1      7   0.10047489    -3.110400    -2.393400     4.739400
      37    1      5  -0.19073470    -3.526000    -0.345100     4.166300
      38    1      5  -0.19073470    -2.359200    -0.359500     3.162300
      39    1      7   0.10047489    -4.494100    -0.675900     3.663300
      40    1      7   0.10047489    -3.650500     0.700600     4.602800
      41    1      7   0.10047489    -1.442700     0.068200     3.688100
      42    1      7   0.10047489    -2.142700    -1.439300     2.867600
      43    1      5  -0.19073470    -2.613000     0.424200     1.860000
      44    1      5  -0.19073470    -1.254500     0.375100     1.138400
      45    1      7   0.10047489    -2.903600     1.507000     2.066500
      46    1      7   0.10047489    -3.427400    -0.095300     1.254500
      47    1      7   0.10047489    -0.515800     0.970200     1.770600
      48    1      7   0.10047489    -0.907600    -0.710100     1.101000
      49    1      5  -0.19073470    -1.207100     0.909400    -0.305700
      50    1      5  -0.19073470     0.300900     0.852400    -0.608500
      51    1      7   0.10047489    -1.585600     1.981800    -0.384600
      52    1      7   0.10047489    -1.805000     0.222000    -0.991100
      53    1      7   0.10047489     0.810300     1.608400     0.075900
      54    1      7   0.10047489     0.668200    -0.189900    -0.328600
      55    1      5  -0.19073470     0.775800     1.102500    -2.051600
      56    1      5  -0.19073470     2.303300     1.055400    -1.864300
      57    1      7   0.10047489     0.447500     2.114800    -2.460400
      58    1      7   0.10047489     0.409500     0.258200    -2.724500
      59    1      7   0.10047489     2.607600     1.964500    -1.247400
      60    1      7   0.10047489     2.533700     0.117000    -1.259500
      61    1      5  -0.19073470     2.917800    -0.365500    -3.823700
      62    1      5  -0.19073470     3.194100     0.973200    -3.117000
      63    1      7   0.10047489     1.979200    -0.309700    -4.468400
      64    1      7   0.10047489     2.772400    -1.157600    -3.016900
      65    1      7   0.10047489     3.076600     1.859000    -3.825000
      66    1      7   0.10047489     4.265400     0.940400    -2.728700
      67    1      1  -0.08986020     9.799500    -3.592100    -6.978100
      68    1      2  -0.14984784    10.233900    -4.666100    -7.993800
      69    1      2  -0.14984784    11.220300    -5.771400    -7.566800
      70    1      3  -0.04158520    11.774300    -5.791400    -6.129400
      71    1      2  -0.14984784    11.454800    -4.633500    -5.167000
      72    1      2  -0.14984784    10.463800    -3.534800    -5.590400
      73    1      6   0.16552734     9.794700    -4.668000    -9.045800
      74    1      6   0.16552734    11.507800    -6.595200    -8.300500
      75    1      6   0.16552734    11.916300    -4.615100    -4.124600
      76    1      6   0.16552734    10.191100    -2.701400    -4.862000
      77    1      3  -0.04158520    12.556700    -7.012900    -5.612700
      78    1      2  -0.14984784    12.762800    -8.245200    -6.514500
      79    1      2  -0.14984784    13.287800    -9.560800    -5.905700
      80    1      3  -0.04158520    13.606000    -9.633200    -4.400300
      81    1      2  -0.14984784    13.567000    -8.353900    -3.544900
      82    1      2  -0.14984784    13.037700    -7.042300    -4.151000
      83    1      6   0.16552734    12.479200    -8.198900    -7.617700
      84    1      6   0.16552734    13.390600   -10.491200    -6.556600
      85    1      6   0.16552734    13.877600    -8.391600    -2.448600
      86    1      6   0.16552734    12.955700    -6.106700    -3.504700
      87    1      3  -0.04158520    13.833100   -10.992700    -3.714300
      88    1      2  -0.14984784    13.752000   -12.302900    -4.522200
      89    1      2  -0.14984784    13.646900   -13.652400    -3.782400
      90    1      3  -0.04158520    13.605000   -13.674600    -2.242500
      91    1      2  -0.14984784    13.887600   -12.386900    -1.448800
      92    1      2  -0.14984784    14.008700   -11.043500    -2.186900
      93    1      6   0.16552734    13.712600   -12.270400    -5.661100
      94    1      6   0.16552734    13.531100   -14.621300    -4.372000
      95    1      6   0.16552734    13.946500   -12.420100    -0.310700
      96    1      6   0.16552734    14.163600   -10.079800    -1.597800
      97    1      3  -0.04158520    13.123300   -14.926000    -1.487100
      98    1      2  -0.14984784    12.807000   -16.236100    -2.236600
      99    1      2  -0.14984784    11.989600   -17.339700    -1.531900
     100    1      3  -0.04158520    11.443800   -17.087500    -0.113000
     101    1      2  -0.14984784    11.937200   -15.873900     0.693100
     102    1      2  -0.14984784    12.807400   -14.806800     0.012600
     103    1      6   0.16552734    13.128000   -16.366000    -3.322800
     104    1      6   0.16552734    11.716100   -18.295400    -2.090000
     105    1      6   0.16552734    11.611800   -15.738900     1.777300
     106    1      6   0.16552734    13.144600   -13.887000     0.595900
     107    1      3  -0.04158520    10.278600   -17.922800     0.445600
     108    1      2  -0.14984784     9.896400   -19.287700    -0.162700
     109    1      2  -0.14984784     8.574300   -19.968300     0.255600
     110    1      3  -0.04158520     7.592400   -19.217000     1.176700
     111    1      2  -0.14984784     8.026500   -17.906700     1.854200
     112    1      2  -0.14984784     9.401700   -17.300400     1.543000
     113    1      6   0.16552734    10.575600   -19.780900    -0.934100
     114    1      6   0.16552734     8.289400   -20.982800    -0.179500
     115    1      6   0.16552734     7.322300   -17.380100     2.579700
     116    1      6   0.16552734     9.732700   -16.340300     2.061000
     117    1      3  -0.04158520     6.138800   -19.691100     1.352500
     118    1      2  -0.14984784     5.795400   -21.172400     1.608600
     119    1      2  -0.14984784     4.341000   -21.572000     1.944100
     120    1      3  -0.04158520     3.219900   -20.515500     1.866200
     121    1      2  -0.14984784     3.552800   -19.071800     1.459000
     122    1      2  -0.14984784     5.016400   -18.642600     1.289100
     123    1      6   0.16552734     6.620000   -21.959600     1.607200
     124    1      6   0.16552734     4.095100   -22.646600     2.234500
     125    1      6   0.16552734     2.717400   -18.303600     1.351600
     126    1      6   0.16552734     5.269900   -17.549100     1.090500
     127    1      3  -0.04158520     1.771900   -20.839200     2.274200
     128    1      2  -0.14984784     1.477200   -21.807800     3.435900
     129    1      2  -0.14984784     0.099000   -21.759800     4.129300
     130    1      3  -0.04158520    -1.001200   -20.833200     3.574000
     131    1      2  -0.14984784    -0.784500   -20.103300     2.239000
     132    1      2  -0.14984784     0.621800   -20.051200     1.624000
     133    1      6   0.16552734     2.301600   -22.480700     3.844700
     134    1      6   0.16552734    -0.090600   -22.373600     5.071100
     135    1      6   0.16552734    -1.638400   -19.516300     1.763600
     136    1      6   0.16552734     0.821200   -19.400900     0.709200
     137    1      3  -0.04158520    -2.242400   -20.476000     4.409400
     138    1      2  -0.14984784    -2.242500   -20.679800     5.936600
     139    1      2  -0.14984784    -3.230000   -19.875500     6.807000
     140    1      3  -0.04158520    -4.249700   -18.937700     6.131300
     141    1      2  -0.14984784    -4.429400   -18.975200     4.604500
     142    1      2  -0.14984784    -3.401900   -19.719900     3.738100
     143    1      6   0.16552734    -1.455400   -21.343200     6.426500
     144    1      6   0.16552734    -3.167800   -19.930100     7.944000
     145    1      6   0.16552734    -5.266500   -18.377500     4.112700
     146    1      6   0.16552734    -3.462400   -19.659900     2.601200
     147    1      3  -0.04158520    -4.977600   -17.847900     6.937400
     148    1      2  -0.14984784    -4.573000   -17.547700     8.393700
     149    1      2  -0.14984784    -5.024100   -16.228800     9.054500
     150    1      3  -0.04158520    -5.906100   -15.241900     8.265300
     151    1      2  -0.14984784    -6.474500   -15.647400     6.894300
     152    1      2  -0.14984784    -5.998900   -16.946000     6.223000
     153    1      6   0.16552734    -3.886000   -18.263400     8.955300
     154    1      6   0.16552734    -4.669000   -15.964200    10.105000
     155    1      6   0.16552734    -7.198800   -14.955400     6.350000
     156    1      6   0.16552734    -6.360000   -17.212400     5.174900
     157    1      3  -0.04158520    -6.141800   -13.809400     8.777200
     158    1      2  -0.14984784    -5.437300   -13.298500    10.049900
     159    1      2  -0.14984784    -5.490500   -11.797800    10.406500
     160    1      3  -0.04158520    -6.262200   -10.822400     9.496400
     161    1      2  -0.14984784    -7.069400   -11.359700     8.302200
     162    1      2  -0.14984784    -7.005700   -12.851600     7.939700
     163    1      6   0.16552734    -4.842700   -14.020300    10.702000
     164    1      6   0.16552734    -4.935800   -11.407100    11.322700
     165    1      6   0.16552734    -7.684800   -10.643500     7.663300
     166    1      6   0.16552734    -7.568200   -13.241700     7.028000
     167    1      3  -0.04158520    -6.192200    -9.300900     9.717100
     168    1      2  -0.14984784    -5.331300    -8.694000    10.843400
     169    1      2  -0.14984784    -5.174800    -7.161200    10.949200
     170    1      1  -0.08986020    -5.874200    -6.247300     9.922700
     171    1      2  -0.14984784    -6.795800    -6.856500     8.853200
     172    1      2  -0.14984784    -6.951700    -8.380500     8.748100
     173    1      6   0.16552734    -4.794900    -9.376000    11.582900
     174    1      6   0.16552734    -4.529300    -6.707800    11.772200
     175    1      6   0.16552734    -7.348600    -6.176300     8.124400
     176    1      6   0.16552734    -7.613700    -8.831200     7.936700

Bonds

       1      9        1        2
       2     10        1        3
       3     10        1        4
       4      9        1        7
       5     10        2        5
       6     10        2        6
       7      9        2       61
       8      9        7        8
       9     10        7        9
      10     10        7       10
      11     10        8       11
      12     10        8       12
      13      9        8       13
      14      7       13       14
      15     10       13       15
      16     10       13       16
      17      8       14       17
      18      8       14       18
      19      2       14       67
      20      7       19       20
      21      8       19       21
      22      8       19       22
      23      2       19      170
      24     10       20       23
      25     10       20       24
      26      9       20       25
      27      9       25       26
      28     10       25       27
      29     10       25       28
      30     10       26       29
      31     10       26       30
      32      9       26       31
      33      9       31       32
      34     10       31       33
      35     10       31       34
      36     10       32       35
      37     10       32       36
      38      9       32       37
      39      9       37       38
      40     10       37       39
      41     10       37       40
      42     10       38       41
      43     10       38       42
      44      9       38       43
      45      9       43       44
      46     10       43       45
      47     10       43       46
      48     10       44       47
      49     10       44       48
      50      9       44       49
      51      9       49       50
      52     10       49       51
      53     10       49       52
      54     10       50       53
      55     10       50       54
      56      9       50       55
      57      9       55       56
      58     10       55       57
      59     10       55       58
      60     10       56       59
      61     10       56       60
      62      9       56       62
      63      9       61       62
      64     10       61       63
      65     10       61       64
      66     10       62       65
      67     10       62       66
      68      1       67       68
      69      3       68       69
      70      5       68       73
      71      4       69       70
      72      5       69       74
      73      4       70       71
      74      6       70       77
      75      3       71       72
      76      5       71       75
      77      1       72       67
      78      5       72       76
      79      4       77       78
      80      3       78       79
      81      5       78       83
      82      4       79       80
      83      5       79       84
      84      4       80       81
      85      6       80       87
      86      3       81       82
      87      5       81       85
      88      4       82       77
      89      5       82       86
      90      4       87       88
      91      3       88       89
      92      5       88       93
      93      4       89       90
      94      5       89       94
      95      4       90       91
      96      6       90       97
      97      3       91       92
      98      5       91       95
      99      4       92       87
     100      5       92       96
     101      4       97       98
     102      3       98       99
     103      5       98      103
     104      4       99      100
     105      5       99      104
     106      4      100      101
     107      6      100      107
     108      3      101      102
     109      5      101      105
     110      4      102       97
     111      5      102      106
     112      4      107      108
     113      3      108      109
     114      5      108      113
     115      4      109      110
     116      5      109      114
     117      4      110      111
     118      6      110      117
     119      3      111      112
     120      5      111      115
     121      4      112      107
     122      5      112      116
     123      4      117      118
     124      3      118      119
     125      5      118      123
     126      4      119      120
     127      5      119      124
     128      4      120      121
     129      6      120      127
     130      3      121      122
     131      5      121      125
     132      4      122      117
     133      5      122      126
     134      4      127      128
     135      3      128      129
     136      5      128      133
     137      4      129      130
     138      5      129      134
     139      4      130      131
     140      6      130      137
     141      3      131      132
     142      5      131      135
     143      4      132      127
     144      5      132      136
     145      4      137      138
     146      3      138      139
     147      5      138      143
     148      4      139      140
     149      5      139      144
     150      4      140      141
     151      6      140      147
     152      3      141      142
     153      5      141      145
     154      4      142      137
     155      5      142      146
     156      4      147      148
     157      3      148      149
     158      5      148      153
     159      4      149      150
     160      5      149      154
     161      4      150      151
     162      6      150      157
     163      3      151      152
     164      5      151      155
     165      4      152      147
     166      5      152      156
     167      4      157      158
     168      3      158      159
     169      5      158      163
     170      4      159      160
     171      5      159      164
     172      4      160      161
     173      6      160      167
     174      3      161      162
     175      5      161      165
     176      4      162      157
     177      5      162      166
     178      4      167      168
     179      3      168      169
     180      5      168      173
     181      1      169      170
     182      5      169      174
     183      1      170      171
     184      3      171      172
     185      5      171      175
     186      4      172      167
     187      5      172      176

Angles

       1     16        1        2        5
       2     16        1        2        6
       3     15        1        2       61
       4     15        1        7        8
       5     16        1        7        9
       6     16        1        7       10
       7     16        2        1        3
       8     16        2        1        4
       9     15        2        1        7
      10     15        2       61       62
      11     16        2       61       63
      12     16        2       61       64
      13     18        3        1        4
      14     16        3        1        7
      15     16        4        1        7
      16     18        5        2        6
      17     16        5        2       61
      18     16        6        2       61
      19     16        7        8       11
      20     16        7        8       12
      21     15        7        8       13
      22     16        8        7        9
      23     16        8        7       10
      24     12        8       13       14
      25     16        8       13       15
      26     16        8       13       16
      27     18        9        7       10
      28     18       11        8       12
      29     16       11        8       13
      30     16       12        8       13
      31     14       13       14       17
      32     14       13       14       18
      33      3       13       14       67
      34     13       14       13       15
      35     13       14       13       16
      36      6       14       67       68
      37      6       14       67       72
      38     18       15       13       16
      39     17       17       14       18
      40      4       17       14       67
      41      4       18       14       67
      42     13       19       20       23
      43     13       19       20       24
      44     12       19       20       25
      45      6       19      170      169
      46      6       19      170      171
      47     14       20       19       21
      48     14       20       19       22
      49      3       20       19      170
      50     15       20       25       26
      51     16       20       25       27
      52     16       20       25       28
      53     17       21       19       22
      54      4       21       19      170
      55      4       22       19      170
      56     18       23       20       24
      57     16       23       20       25
      58     16       24       20       25
      59     16       25       26       29
      60     16       25       26       30
      61     15       25       26       31
      62     16       26       25       27
      63     16       26       25       28
      64     15       26       31       32
      65     16       26       31       33
      66     16       26       31       34
      67     18       27       25       28
      68     18       29       26       30
      69     16       29       26       31
      70     16       30       26       31
      71     16       31       32       35
      72     16       31       32       36
      73     15       31       32       37
      74     16       32       31       33
      75     16       32       31       34
      76     15       32       37       38
      77     16       32       37       39
      78     16       32       37       40
      79     18       33       31       34
      80     18       35       32       36
      81     16       35       32       37
      82     16       36       32       37
      83     16       37       38       41
      84     16       37       38       42
      85     15       37       38       43
      86     16       38       37       39
      87     16       38       37       40
      88     15       38       43       44
      89     16       38       43       45
      90     16       38       43       46
      91     18       39       37       40
      92     18       41       38       42
      93     16       41       38       43
      94     16       42       38       43
      95     16       43       44       47
      96     16       43       44       48
      97     15       43       44       49
      98     16       44       43       45
      99     16       44       43       46
     100     15       44       49       50
     101     16       44       49       51
     102     16       44       49       52
     103     18       45       43       46
     104     18       47       44       48
     105     16       47       44       49
     106     16       48       44       49
     107     16       49       50       53
     108     16       49       50       54
     109     15       49       50       55
     110     16       50       49       51
     111     16       50       49       52
     112     15       50       55       56
     113     16       50       55       57
     114     16       50       55       58
     115     18       51       49       52
     116     18       53       50       54
     117     16       53       50       55
     118     16       54       50       55
     119     16       55       56       59
     120     16       55       56       60
     121     15       55       56       62
     122     16       56       55       57
     123     16       56       55       58
     124     15       56       62       61
     125     16       56       62       65
     126     16       56       62       66
     127     18       57       55       58
     128     18       59       56       60
     129     16       59       56       62
     130     16       60       56       62
     131     16       61       62       65
     132     16       61       62       66
     133     16       62       61       63
     134     16       62       61       64
     135     18       63       61       64
     136     18       65       62       66
     137      1       67       68       69
     138      2       67       68       73
     139      1       67       72       71
     140      2       67       72       76
     141      5       68       67       72
     142      7       68       69       70
     143      8       68       69       74
     144      8       69       68       73
     145      9       69       70       71
     146     10       69       70       77
     147     11       70       69       74
     148      7       70       71       72
     149     11       70       71       75
     150     10       70       77       78
     151     10       70       77       82
     152     10       71       70       77
     153      8       71       72       76
     154      8       72       71       75
     155      7       77       78       79
     156     11       77       78       83
     157      7       77       82       81
     158     11       77       82       86
     159      9       78       77       82
     160      7       78       79       80
     161      8       78       79       84
     162      8       79       78       83
     163      9       79       80       81
     164     10       79       80       87
     165     11       80       79       84
     166      7       80       81       82
     167     11       80       81       85
     168     10       80       87       88
     169     10       80       87       92
     170     10       81       80       87
     171      8       81       82       86
     172      8       82       81       85
     173      7       87       88       89
     174     11       87       88       93
     175      7       87       92       91
     176     11       87       92       96
     177      9       88       87       92
     178      7       88       89       90
     179      8       88       89       94
     180      8       89       88       93
     181      9       89       90       91
     182     10       89       90       97
     183     11       90       89       94
     184      7       90       91       92
     185     11       90       91       95
     186     10       90       97       98
     187     10       90       97      102
     188     10       91       90       97
     189      8       91       92       96
     190      8       92       91       95
     191      7       97       98       99
     192     11       97       98      103
     193      7       97      102      101
     194     11       97      102      106
     195      9       98       97      102
     196      7       98       99      100
     197      8       98       99      104
     198      8       99       98      103
     199      9       99      100      101
     200     10       99      100      107
     201     11      100       99      104
     202      7      100      101      102
     203     11      100      101      105
     204     10      100      107      108
     205     10      100      107      112
     206     10      101      100      107
     207      8      101      102      106
     208      8      102      101      105
     209      7      107      108      109
     210     11      107      108      113
     211      7      107      112      111
     212     11      107      112      116
     213      9      108      107      112
     214      7      108      109      110
     215      8      108      109      114
     216      8      109      108      113
     217      9      109      110      111
     218     10      109      110      117
     219     11      110      109      114
     220      7      110      111      112
     221     11      110      111      115
     222     10      110      117      118
     223     10      110      117      122
     224     10      111      110      117
     225      8      111      112      116
     226      8      112      111      115
     227      7      117      118      119
     228     11      117      118      123
     229      7      117      122      121
     230     11      117      122      126
     231      9      118      117      122
     232      7      118      119      120
     233      8      118      119      124
     234      8      119      118      123
     235      9      119      120      121
     236     10      119      120      127
     237     11      120      119      124
     238      7      120      121      122
     239     11      120      121      125
     240     10      120      127      128
     241     10      120      127      132
     242     10      121      120      127
     243      8      121      122      126
     244      8      122      121      125
     245      7      127      128      129
     246     11      127      128      133
     247      7      127      132      131
     248     11      127      132      136
     249      9      128      127      132
     250      7      128      129      130
     251      8      128      129      134
     252      8      129      128      133
     253      9      129      130      131
     254     10      129      130      137
     255     11      130      129      134
     256      7      130      131      132
     257     11      130      131      135
     258     10      130      137      138
     259     10      130      137      142
     260     10      131      130      137
     261      8      131      132      136
     262      8      132      131      135
     263      7      137      138      139
     264     11      137      138      143
     265      7      137      142      141
     266     11      137      142      146
     267      9      138      137      142
     268      7      138      139      140
     269      8      138      139      144
     270      8      139      138      143
     271      9      139      140      141
     272     10      139      140      147
     273     11      140      139      144
     274      7      140      141      142
     275     11      140      141      145
     276     10      140      147      148
     277     10      140      147      152
     278     10      141      140      147
     279      8      141      142      146
     280      8      142      141      145
     281      7      147      148      149
     282     11      147      148      153
     283      7      147      152      151
     284     11      147      152      156
     285      9      148      147      152
     286      7      148      149      150
     287      8      148      149      154
     288      8      149      148      153
     289      9      149      150      151
     290     10      149      150      157
     291     11      150      149      154
     292      7      150      151      152
     293     11      150      151      155
     294     10      150      157      158
     295     10      150      157      162
     296     10      151      150      157
     297      8      151      152      156
     298      8      152      151      155
     299      7      157      158      159
     300     11      157      158      163
     301      7      157      162      161
     302     11      157      162      166
     303      9      158      157      162
     304      7      158      159      160
     305      8      158      159      164
     306      8      159      158      163
     307      9      159      160      161
     308     10      159      160      167
     309     11      160      159      164
     310      7      160      161      162
     311     11      160      161      165
     312     10      160      167      168
     313     10      160      167      172
     314     10      161      160      167
     315      8      161      162      166
     316      8      162      161      165
     317      7      167      168      169
     318     11      167      168      173
     319      7      167      172      171
     320     11      167      172      176
     321      9      168      167      172
     322      1      168      169      170
     323      8      168      169      174
     324      8      169      168      173
     325      5      169      170      171
     326      2      170      169      174
     327      1      170      171      172
     328      2      170      171      175
     329      8      171      172      176
     330      8      172      171      175

Dihedrals

       1     21        1        2       61       62
       2     22        1        2       61       63
       3     22        1        2       61       64
       4     22        1        7        8       11
       5     22        1        7        8       12
       6     21        1        7        8       13
       7     21        2        1        7        8
       8     22        2        1        7        9
       9     22        2        1        7       10
      10     21        2       61       62       56
      11     22        2       61       62       65
      12     22        2       61       62       66
      13     25        3        1        2        5
      14     25        3        1        2        6
      15     22        3        1        2       61
      16     22        3        1        7        8
      17     25        3        1        7        9
      18     25        3        1        7       10
      19     25        4        1        2        5
      20     25        4        1        2        6
      21     22        4        1        2       61
      22     22        4        1        7        8
      23     25        4        1        7        9
      24     25        4        1        7       10
      25     22        5        2        1        7
      26     22        5        2       61       62
      27     25        5        2       61       63
      28     25        5        2       61       64
      29     22        6        2        1        7
      30     22        6        2       61       62
      31     25        6        2       61       63
      32     25        6        2       61       64
      33     21        7        1        2       61
      34     18        7        8       13       14
      35     22        7        8       13       15
      36     22        7        8       13       16
      37     20        8       13       14       17
      38     20        8       13       14       18
      39      3        8       13       14       67
      40     25        9        7        8       11
      41     25        9        7        8       12
      42     22        9        7        8       13
      43     25       10        7        8       11
      44     25       10        7        8       12
      45     22       10        7        8       13
      46     19       11        8       13       14
      47     25       11        8       13       15
      48     25       11        8       13       16
      49     19       12        8       13       14
      50     25       12        8       13       15
      51     25       12        8       13       16
      52      7       13       14       67       68
      53      7       13       14       67       72
      54      9       14       67       68       69
      55     17       14       67       68       73
      56      9       14       67       72       71
      57     17       14       67       72       76
      58     24       15       13       14       17
      59     24       15       13       14       18
      60      4       15       13       14       67
      61     24       16       13       14       17
      62     24       16       13       14       18
      63      4       16       13       14       67
      64      8       17       14       67       68
      65      8       17       14       67       72
      66      8       18       14       67       68
      67      8       18       14       67       72
      68     18       19       20       25       26
      69     19       19       20       25       27
      70     19       19       20       25       28
      71      9       19      170      169      168
      72     17       19      170      169      174
      73      9       19      170      171      172
      74     17       19      170      171      175
      75      7       20       19      170      169
      76      7       20       19      170      171
      77     22       20       25       26       29
      78     22       20       25       26       30
      79     21       20       25       26       31
      80     24       21       19       20       23
      81     24       21       19       20       24
      82     20       21       19       20       25
      83      8       21       19      170      169
      84      8       21       19      170      171
      85     24       22       19       20       23
      86     24       22       19       20       24
      87     20       22       19       20       25
      88      8       22       19      170      169
      89      8       22       19      170      171
      90      4       23       20       19      170
      91     22       23       20       25       26
      92     25       23       20       25       27
      93     25       23       20       25       28
      94      4       24       20       19      170
      95     22       24       20       25       26
      96     25       24       20       25       27
      97     25       24       20       25       28
      98      3       25       20       19      170
      99     21       25       26       31       32
     100     22       25       26       31       33
     101     22       25       26       31       34
     102     22       26       31       32       35
     103     22       26       31       32       36
     104     21       26       31       32       37
     105     25       27       25       26       29
     106     25       27       25       26       30
     107     22       27       25       26       31
     108     25       28       25       26       29
     109     25       28       25       26       30
     110     22       28       25       26       31
     111     22       29       26       31       32
     112     25       29       26       31       33
     113     25       29       26       31       34
     114     22       30       26       31       32
     115     25       30       26       31       33
     116     25       30       26       31       34
     117     21       31       32       37       38
     118     22       31       32       37       39
     119     22       31       32       37       40
     120     22       32       37       38       41
     121     22       32       37       38       42
     122     21       32       37       38       43
     123     25       33       31       32       35
     124     25       33       31       32       36
     125     22       33       31       32       37
     126     25       34       31       32       35
     127     25       34       31       32       36
     128     22       34       31       32       37
     129     22       35       32       37       38
     130     25       35       32       37       39
     131     25       35       32       37       40
     132     22       36       32       37       38
     133     25       36       32       37       39
     134     25       36       32       37       40
     135     21       37       38       43       44
     136     22       37       38       43       45
     137     22       37       38       43       46
     138     22       38       43       44       47
     139     22       38       43       44       48
     140     21       38       43       44       49
     141     25       39       37       38       41
     142     25       39       37       38       42
     143     22       39       37       38       43
     144     25       40       37       38       41
     145     25       40       37       38       42
     146     22       40       37       38       43
     147     22       41       38       43       44
     148     25       41       38       43       45
     149     25       41       38       43       46
     150     22       42       38       43       44
     151     25       42       38       43       45
     152     25       42       38       43       46
     153     21       43       44       49       50
     154     22       43       44       49       51
     155     22       43       44       49       52
     156     22       44       49       50       53
     157     22       44       49       50       54
     158     21       44       49       50       55
     159     25       45       43       44       47
     160     25       45       43       44       48
     161     22       45       43       44       49
     162     25       46       43       44       47
     163     25       46       43       44       48
     164     22       46       43       44       49
     165     22       47       44       49       50
     166     25       47       44       49       51
     167     25       47       44       49       52
     168     22       48       44       49       50
     169     25       48       44       49       51
     170     25       48       44       49       52
     171     21       49       50       55       56
     172     22       49       50       55       57
     173     22       49       50       55       58
     174     22       50       55       56       59
     175     22       50       55       56       60
     176     21       50       55       56       62
     177     25       51       49       50       53
     178     25       51       49       50       54
     179     22       51       49       50       55
     180     25       52       49       50       53
     181     25       52       49       50       54
     182     22       52       49       50       55
     183     22       53       50       55       56
     184     25       53       50       55       57
     185     25       53       50       55       58
     186     22       54       50       55       56
     187     25       54       50       55       57
     188     25       54       50       55       58
     189     21       55       56       62       61
     190     22       55       56       62       65
     191     22       55       56       62       66
     192     22       56       62       61       63
     193     22       56       62       61       64
     194     25       57       55       56       59
     195     25       57       55       56       60
     196     22       57       55       56       62
     197     25       58       55       56       59
     198     25       58       55       56       60
     199     22       58       55       56       62
     200     22       59       56       62       61
     201     25       59       56       62       65
     202     25       59       56       62       66
     203     22       60       56       62       61
     204     25       60       56       62       65
     205     25       60       56       62       66
     206     25       63       61       62       65
     207     25       63       61       62       66
     208     25       64       61       62       65
     209     25       64       61       62       66
     210      1       67       68       69       70
     211      2       67       68       69       74
     212      1       67       72       71       70
     213      2       67       72       71       75
     214      5       68       67       72       71
     215      6       68       67       72       76
     216     10       68       69       70       71
     217     11       68       69       70       77
     218      5       69       68       67       72
     219     10       69       70       71       72
     220     12       69       70       71       75
     221     13       69       70       77       78
     222     13       69       70       77       82
     223     15       70       69       68       73
     224     15       70       71       72       76
     225     11       70       77       78       79
     226     16       70       77       78       83
     227     11       70       77       82       81
     228     16       70       77       82       86
     229     12       71       70       69       74
     230     13       71       70       77       78
     231     13       71       70       77       82
     232      6       72       67       68       73
     233     11       72       71       70       77
     234     23       73       68       69       74
     235     16       74       69       70       77
     236     16       75       71       70       77
     237     23       75       71       72       76
     238     14       77       78       79       80
     239     15       77       78       79       84
     240     14       77       82       81       80
     241     15       77       82       81       85
     242     10       78       77       82       81
     243     12       78       77       82       86
     244     10       78       79       80       81
     245     11       78       79       80       87
     246     10       79       78       77       82
     247     10       79       80       81       82
     248     12       79       80       81       85
     249     13       79       80       87       88
     250     13       79       80       87       92
     251     15       80       79       78       83
     252     15       80       81       82       86
     253     11       80       87       88       89
     254     16       80       87       88       93
     255     11       80       87       92       91
     256     16       80       87       92       96
     257     12       81       80       79       84
     258     13       81       80       87       88
     259     13       81       80       87       92
     260     12       82       77       78       83
     261     11       82       81       80       87
     262     23       83       78       79       84
     263     16       84       79       80       87
     264     16       85       81       80       87
     265     23       85       81       82       86
     266     14       87       88       89       90
     267     15       87       88       89       94
     268     14       87       92       91       90
     269     15       87       92       91       95
     270     10       88       87       92       91
     271     12       88       87       92       96
     272     10       88       89       90       91
     273     11       88       89       90       97
     274     10       89       88       87       92
     275     10       89       90       91       92
     276     12       89       90       91       95
     277     13       89       90       97       98
     278     13       89       90       97      102
     279     15       90       89       88       93
     280     15       90       91       92       96
     281     11       90       97       98       99
     282     16       90       97       98      103
     283     11       90       97      102      101
     284     16       90       97      102      106
     285     12       91       90       89       94
     286     13       91       90       97       98
     287     13       91       90       97      102
     288     12       92       87       88       93
     289     11       92       91       90       97
     290     23       93       88       89       94
     291     16       94       89       90       97
     292     16       95       91       90       97
     293     23       95       91       92       96
     294     14       97       98       99      100
     295     15       97       98       99      104
     296     14       97      102      101      100
     297     15       97      102      101      105
     298     10       98       97      102      101
     299     12       98       97      102      106
     300     10       98       99      100      101
     301     11       98       99      100      107
     302     10       99       98       97      102
     303     10       99      100      101      102
     304     12       99      100      101      105
     305     13       99      100      107      108
     306     13       99      100      107      112
     307     15      100       99       98      103
     308     15      100      101      102      106
     309     11      100      107      108      109
     310     16      100      107      108      113
     311     11      100      107      112      111
     312     16      100      107      112      116
     313     12      101      100       99      104
     314     13      101      100      107      108
     315     13      101      100      107      112
     316     12      102       97       98      103
     317     11      102      101      100      107
     318     23      103       98       99      104
     319     16      104       99      100      107
     320     16      105      101      100      107
     321     23      105      101      102      106
     322     14      107      108      109      110
     323     15      107      108      109      114
     324     14      107      112      111      110
     325     15      107      112      111      115
     326     10      108      107      112      111
     327     12      108      107      112      116
     328     10      108      109      110      111
     329     11      108      109      110      117
     330     10      109      108      107      112
     331     10      109      110      111      112
     332     12      109      110      111      115
     333     13      109      110      117      118
     334     13      109      110      117      122
     335     15      110      109      108      113
     336     15      110      111      112      116
     337     11      110      117      118      119
     338     16      110      117      118      123
     339     11      110      117      122      121
     340     16      110      117      122      126
     341     12      111      110      109      114
     342     13      111      110      117      118
     343     13      111      110      117      122
     344     12      112      107      108      113
     345     11      112      111      110      117
     346     23      113      108      109      114
     347     16      114      109      110      117
     348     16      115      111      110      117
     349     23      115      111      112      116
     350     14      117      118      119      120
     351     15      117      118      119      124
     352     14      117      122      121      120
     353     15      117      122      121      125
     354     10      118      117      122      121
     355     12      118      117      122      126
     356     10      118      119      120      121
     357     11      118      119      120      127
     358     10      119      118      117      122
     359     10      119      120      121      122
     360     12      119      120      121      125
     361     13      119      120      127      128
     362     13      119      120      127      132
     363     15      120      119      118      123
     364     15      120      121      122      126
     365     11      120      127      128      129
     366     16      120      127      128      133
     367     11      120      127      132      131
     368     16      120      127      132      136
     369     12      121      120      119      124
     370     13      121      120      127      128
     371     13      121      120      127      132
     372     12      122      117      118      123
     373     11      122      121      120      127
     374     23      123      118      119      124
     375     16      124      119      120      127
     376     16      125      121      120      127
     377     23      125      121      122      126
     378     14      127      128      129      130
     379     15      127      128      129      134
     380     14      127      132      131      130
     381     15      127      132      131      135
     382     10      128      127      132      131
     383     12      128      127      132      136
     384     10      128      129      130      131
     385     11      128      129      130      137
     386     10      129      128      127      132
     387     10      129      130      131      132
     388     12      129      130      131      135
     389     13      129      130      137      138
     390     13      129      130      137      142
     391     15      130      129      128      133
     392     15      130      131      132      136
     393     11      130      137      138      139
     394     16      130      137      138      143
     395     11      130      137      142      141
     396     16      130      137      142      146
     397     12      131      130      129      134
     398     13      131      130      137      138
     399     13      131      130      137      142
     400     12      132      127      128      133
     401     11      132      131      130      137
     402     23      133      128      129      134
     403     16      134      129      130      137
     404     16      135      131      130      137
     405     23      135      131      132      136
     406     14      137      138      139      140
     407     15      137      138      139      144
     408     14      137      142      141      140
     409     15      137      142      141      145
     410     10      138      137      142      141
     411     12      138      137      142      146
     412     10      138      139      140      141
     413     11      138      139      140      147
     414     10      139      138      137      142
     415     10      139      140      141      142
     416     12      139      140      141      145
     417     13      139      140      147      148
     418     13      139      140      147      152
     419     15      140      139      138      143
     420     15      140      141      142      146
     421     11      140      147      148      149
     422     16      140      147      148      153
     423     11      140      147      152      151
     424     16      140      147      152      156
     425     12      141      140      139      144
     426     13      141      140      147      148
     427     13      141      140      147      152
     428     12      142      137      138      143
     429     11      142      141      140      147
     430     23      143      138      139      144
     431     16      144      139      140      147
     432     16      145      141      140      147
     433     23      145      141      142      146
     434     14      147      148      149      150
     435     15      147      148      149      154
     436     14      147      152      151      150
     437     15      147      152      151      155
     438     10      148      147      152      151
     439     12      148      147      152      156
     440     10      148      149      150      151
     441     11      148      149      150      157
     442     10      149      148      147      152
     443     10      149      150      151      152
     444     12      149      150      151      155
     445     13      149      150      157      158
     446     13      149      150      157      162
     447     15      150      149      148      153
     448     15      150      151      152      156
     449     11      150      157      158      159
     450     16      150      157      158      163
     451     11      150      157      162      161
     452     16      150      157      162      166
     453     12      151      150      149      154
     454     13      151      150      157      158
     455     13      151      150      157      162
     456     12      152      147      148      153
     457     11      152      151      150      157
     458     23      153      148      149      154
     459     16      154      149      150      157
     460     16      155      151      150      157
     461     23      155      151      152      156
     462     14      157      158      159      160
     463     15      157      158      159      164
     464     14      157      162      161      160
     465     15      157      162      161      165
     466     10      158      157      162      161
     467     12      158      157      162      166
     468     10      158      159      160      161
     469     11      158      159      160      167
     470     10      159      158      157      162
     471     10      159      160      161      162
     472     12      159      160      161      165
     473     13      159      160      167      168
     474     13      159      160      167      172
     475     15      160      159      158      163
     476     15      160      161      162      166
     477     11      160      167      168      169
     478     16      160      167      168      173
     479     11      160      167      172      171
     480     16      160      167      172      176
     481     12      161      160      159      164
     482     13      161      160      167      168
     483     13      161      160      167      172
     484     12      162      157      158      163
     485     11      162      161      160      167
     486     23      163      158      159      164
     487     16      164      159      160      167
     488     16      165      161      160      167
     489     23      165      161      162      166
     490      1      167      168      169      170
     491     15      167      168      169      174
     492      1      167      172      171      170
     493     15      167      172      171      175
     494     10      168      167      172      171
     495     12      168      167      172      176
     496      5      168      169      170      171
     497     10      169      168      167      172
     498      5      169      170      171      172
     499      6      169      170      171      175
     500      2      170      169      168      173
     501      2      170      171      172      176
     502      6      171      170      169      174
     503     12      172      167      168      173
     504     23      173      168      169      174
     505     23      175      171      172      176

Impropers

       1      1       14       67       68       72
       2      2       67       68       69       73
       3      3       68       69       70       74
       4      4       69       70       71       77
       5      3       70       71       72       75
       6      2       67       72       71       76
       7      4       70       77       78       82
       8      3       77       78       79       83
       9      3       78       79       80       84
      10      4       79       80       81       87
      11      3       80       81       82       85
      12      3       77       82       81       86
      13      4       80       87       88       92
      14      3       87       88       89       93
      15      3       88       89       90       94
      16      4       89       90       91       97
      17      3       90       91       92       95
      18      3       87       92       91       96
      19      4       90       97       98      102
      20      3       97       98       99      103
      21      3       98       99      100      104
      22      4       99      100      101      107
      23      3      100      101      102      105
      24      3       97      102      101      106
      25      4      100      107      108      112
      26      3      107      108      109      113
      27      3      108      109      110      114
      28      4      109      110      111      117
      29      3      110      111      112      115
      30      3      107      112      111      116
      31      4      110      117      118      122
      32      3      117      118      119      123
      33      3      118      119      120      124
      34      4      119      120      121      127
      35      3      120      121      122      125
      36      3      117      122      121      126
      37      4      120      127      128      132
      38      3      127      128      129      133
      39      3      128      129      130      134
      40      4      129      130      131      137
      41      3      130      131      132      135
      42      3      127      132      131      136
      43      4      130      137      138      142
      44      3      137      138      139      143
      45      3      138      139      140      144
      46      4      139      140      141      147
      47      3      140      141      142      145
      48      3      137      142      141      146
      49      4      140      147      148      152
      50      3      147      148      149      153
      51      3      148      149      150      154
      52      4      149      150      151      157
      53      3      150      151      152      155
      54      3      147      152      151      156
      55      4      150      157      158      162
      56      3      157      158      159      163
      57      3      158      159      160      164
      58      4      159      160      161      167
      59      3      160      161      162      165
      60      3      157      162      161      166
      61      4      160      167      168      172
      62      3      167      168      169      173
      63      2      168      169      170      174
      64      1       19      170      169      171
      65      2      170      171      172      175
      66      3      167      172      171      176

