LAMMPS data file generated by clean-room 1-hop pipeline

     221 atoms
     232 bonds
     414 angles
     623 dihedrals
      72 impropers

      10 atom types
      19 bond types
      46 angle types
      76 dihedral types
      12 improper types

  -32.408400    37.969900 xlo xhi
  -29.406000    27.649300 ylo yhi
  -26.467600    28.878100 zlo zhi

Masses

       1    12.011000
       2    12.011000
       3    12.011000
       4    12.011000
       5    12.011000
       6    12.011000
       7    12.011000
       8    12.011000
       9     1.008000
      10     1.008000

Pair Coeffs

       1     0.070000     3.550000
       2     0.070000     3.550000
       3     0.070000     3.550000
       4     0.066000     3.500000
       5     0.066000     3.500000
       6     0.066000     3.500000
       7     0.066000     3.500000
       8     0.066000     3.500000
       9     0.030000     2.420000
      10     0.030000     2.500000

Bond Coeffs

       1   469.000000     1.400000
       2   469.000000     1.400000
       3   469.000000     1.400000
       4   317.000000     1.510000
       5   469.000000     1.400000
       6   469.000000     1.400000
       7   367.000000     1.080000
       8   385.000000     1.460000
       9   268.000000     1.529000
      10   268.000000     1.529000
      11   268.000000     1.529000
      12   340.000000     1.090000
      13   268.000000     1.529000
      14   340.000000     1.090000
      15   268.000000     1.529000
      16   268.000000     1.529000
      17   268.000000     1.529000
      18   340.000000     1.090000
      19   340.000000     1.090000

Angle Coeffs

       1    63.000000   120.000000
       2    70.000000   120.000000
       3    63.000000   120.000000
       4    63.000000   120.000000
       5    63.000000   120.000000
       6    35.000000   120.000000
       7    63.000000   120.000000
       8    63.000000   120.000000
       9    63.000000   114.000000
      10    63.000000   114.000000
      11    63.000000   114.000000
      12    35.000000   109.500000
      13    63.000000   120.000000
      14    63.000000   120.000000
      15    70.000000   120.000000
      16    63.000000   120.000000
      17    63.000000   120.000000
      18    35.000000   120.000000
      19    63.000000   120.000000
      20    63.000000   120.000000
      21    70.000000   120.000000
      22    63.000000   120.000000
      23    35.000000   120.000000
      24    63.000000   120.000000
      25    37.500000   110.700000
      26    58.350000   112.700000
      27    58.350000   112.700000
      28    37.500000   110.700000
      29    58.350000   112.700000
      30    58.350000   112.700000
      31    37.500000   110.700000
      32    58.350000   112.700000
      33    37.500000   110.700000
      34    37.500000   110.700000
      35    58.350000   112.700000
      36    58.350000   112.700000
      37    37.500000   110.700000
      38    37.500000   110.700000
      39    58.350000   112.700000
      40    37.500000   110.700000
      41    37.500000   110.700000
      42    37.500000   110.700000
      43    37.500000   110.700000
      44    33.000000   107.800000
      45    33.000000   107.800000
      46    33.000000   107.800000

Dihedral Coeffs

       1     0.000000     7.250000     0.000000     0.000000
       2     0.000000     7.250000     0.000000     0.000000
       3    -0.250000     0.000000     0.000000     0.000000
       4     0.000000     0.000000     0.000000     0.000000
       5     0.000000     7.250000     0.000000     0.000000
       6     0.000000     7.250000     0.000000     0.000000
       7     0.000000     7.250000     0.000000     0.000000
       8     0.000000     7.250000     0.000000     0.000000
       9     0.000000     7.250000     0.000000     0.000000
      10     0.000000     7.250000     0.000000     0.000000
      11     0.000000     7.250000     0.000000     0.000000
      12     0.000000     7.250000     0.000000     0.000000
      13     0.000000     7.250000     0.000000     0.000000
      14     0.000000     1.650000     0.000000    -0.050000
      15     0.000000     1.650000     0.000000    -0.050000
      16     0.000000     0.000000     0.462000     0.000000
      17     0.000000     0.000000     0.000000     0.000000
      18     0.000000     0.000000     0.000000     0.000000
      19     0.000000     0.000000     0.462000     0.000000
      20     0.000000     0.000000     0.000000     0.000000
      21     0.000000     0.000000     0.000000     0.000000
      22     0.000000     7.250000     0.000000     0.000000
      23     0.000000     7.250000     0.000000     0.000000
      24     0.000000     7.250000     0.000000     0.000000
      25     0.000000     7.250000     0.000000     0.000000
      26     0.000000     7.250000     0.000000     0.000000
      27     0.000000     7.250000     0.000000     0.000000
      28    -0.250000     0.000000     0.000000     0.000000
      29    -0.250000     0.000000     0.000000     0.000000
      30    -0.250000     0.000000     0.000000     0.000000
      31     0.000000     0.000000     0.000000     0.000000
      32     0.000000     7.250000     0.000000     0.000000
      33     0.000000     7.250000     0.000000     0.000000
      34     0.000000     7.250000     0.000000     0.000000
      35     0.000000     7.250000     0.000000     0.000000
      36     0.000000     7.250000     0.000000     0.000000
      37     0.000000     7.250000     0.000000     0.000000
      38     0.000000     7.250000     0.000000     0.000000
      39     0.000000     7.250000     0.000000     0.000000
      40     0.000000     1.650000     0.000000    -0.050000
      41     0.000000     1.650000     0.000000    -0.050000
      42     0.000000     7.250000     0.000000     0.000000
      43    -0.250000     0.000000     0.000000     0.000000
      44    -0.250000     0.000000     0.000000     0.000000
      45     0.000000     0.000000     0.000000     0.000000
      46     0.000000     7.250000     0.000000     0.000000
      47     0.000000     7.250000     0.000000     0.000000
      48     0.000000     7.250000     0.000000     0.000000
      49     0.000000     7.250000     0.000000     0.000000
      50     0.000000     7.250000     0.000000     0.000000
      51     0.000000     1.650000     0.000000    -0.050000
      52     0.000000     7.250000     0.000000     0.000000
      53     0.000000     7.250000     0.000000     0.000000
      54     0.000000     0.000000     0.300000     0.000000
      55     0.850000    -0.200000     0.200000     0.000000
      56     0.000000     0.000000     0.300000     0.000000
      57     0.000000     0.000000     0.300000     0.000000
      58     0.850000    -0.200000     0.200000     0.000000
      59     0.000000     0.000000     0.300000     0.000000
      60     0.850000    -0.200000     0.200000     0.000000
      61     0.000000     0.000000     0.300000     0.000000
      62     0.000000     0.000000     0.300000     0.000000
      63     0.000000     0.000000     0.300000     0.000000
      64     0.850000    -0.200000     0.200000     0.000000
      65     0.000000     0.000000     0.300000     0.000000
      66     0.000000     0.000000     0.300000     0.000000
      67     0.000000     0.000000     0.300000     0.000000
      68     0.850000    -0.200000     0.200000     0.000000
      69     0.000000     0.000000     0.300000     0.000000
      70     0.000000     0.000000     0.300000     0.000000
      71     0.000000     7.250000     0.000000     0.000000
      72     0.000000     0.000000     0.300000     0.000000
      73     0.000000     0.000000     0.300000     0.000000
      74     0.000000     0.000000     0.300000     0.000000
      75     0.000000     0.000000     0.300000     0.000000
      76     0.000000     0.000000     0.300000     0.000000

Improper Coeffs

       1     2.500000   -1    2
       2     2.500000   -1    2
       3     2.500000   -1    2
       4     2.500000   -1    2
       5     2.500000   -1    2
       6     2.500000   -1    2
       7     2.500000   -1    2
       8     2.500000   -1    2
       9     2.500000   -1    2
      10     2.500000   -1    2
      11     2.500000   -1    2
      12     2.500000   -1    2

Atoms

       1    1      3  -0.04248358    14.066900    -5.784100     3.206900
       2    1      2  -0.15074622    15.265900    -4.906100     2.800800
       3    1      2  -0.15074622    16.690400    -5.494100     2.811600
       4    1      2  -0.15074622    16.916500    -6.959500     3.225600
       5    1      2  -0.15074622    15.717700    -7.836400     3.633700
       6    1      2  -0.15074622    14.293800    -7.248000     3.627400
       7    1      9   0.16462896    15.098500    -3.821700     2.490700
       8    1      9   0.16462896    17.577300    -4.844900     2.509300
       9    1      9   0.16462896    17.969900    -7.395800     3.225600
      10    1      9   0.16462896    15.883300    -8.923400     3.934400
      11    1      9   0.16462896    13.406300    -7.899300     3.924000
      12    1      1  -0.09075858    10.000000    -3.925200    -0.490500
      13    1      2  -0.15074622    10.626600    -3.324300    -1.763500
      14    1      2  -0.15074622    12.118500    -3.536900    -2.073800
      15    1      2  -0.15074622    12.994400    -4.367800    -1.118400
      16    1      2  -0.15074622    12.370600    -4.992800     0.141200
      17    1      2  -0.15074622    10.878100    -4.780800     0.446800
      18    1      9   0.16462896     9.983300    -2.709700    -2.475700
      19    1      9   0.16462896    12.574600    -3.075500    -3.011100
      20    1      9   0.16462896    14.101300    -4.521400    -1.344200
      21    1      9   0.16462896    13.011300    -5.620000     0.845800
      22    1      9   0.16462896    10.418200    -5.286800     1.353800
      23    1      1  -0.09075858     7.816200    -0.809800    -0.178800
      24    1      2  -0.15074622     8.576700    -0.758900     1.156600
      25    1      2  -0.15074622    10.112000    -0.699400     1.161900
      26    1      2  -0.15074622    10.890200    -0.713100    -0.165700
      27    1      2  -0.15074622    10.128500    -0.763500    -1.502700
      28    1      2  -0.15074622     8.591500    -0.814200    -1.509800
      29    1      9   0.16462896     8.001800    -0.748100     2.141000
      30    1      9   0.16462896    10.675400    -0.664100     2.152200
      31    1      9   0.16462896    12.030000    -0.691300    -0.158700
      32    1      9   0.16462896    10.703300    -0.776100    -2.486900
      33    1      9   0.16462896     8.026900    -0.838400    -2.499900
      34    1      3  -0.04248358     5.289300     1.587900     0.981800
      35    1      2  -0.15074622     6.154100     2.103700     2.148500
      36    1      2  -0.15074622     7.552600     2.683200     1.877200
      37    1      2  -0.15074622     8.078200     2.774300     0.433700
      38    1      2  -0.15074622     7.194600     2.303700    -0.737900
      39    1      2  -0.15074622     5.794100     1.728100    -0.464500
      40    1      9   0.16462896     5.759400     2.049700     3.216600
      41    1      9   0.16462896     8.198300     3.044800     2.744300
      42    1      9   0.16462896     9.119100     3.192900     0.231500
      43    1      9   0.16462896     7.577800     2.380800    -1.808600
      44    1      9   0.16462896     5.138000     1.388700    -1.332400
      45    1      3  -0.04248358    -1.456600     3.968200     3.334800
      46    1      2  -0.15074622    -1.816600     4.225000     1.861100
      47    1      2  -0.15074622    -3.222800     4.738600     1.492200
      48    1      2  -0.15074622    -4.261100     5.004700     2.598300
      49    1      2  -0.15074622    -3.900300     4.740500     4.071200
      50    1      2  -0.15074622    -2.500500     4.217100     4.437800
      51    1      9   0.16462896    -1.037800     4.056000     1.045900
      52    1      9   0.16462896    -3.493800     4.925600     0.400700
      53    1      9   0.16462896    -5.295500     5.399200     2.326400
      54    1      9   0.16462896    -4.667000     4.941000     4.890600
      55    1      9   0.16462896    -2.227000     4.038000     5.530000
      56    1      3  -0.04248358    -7.971700    -1.429200     2.690400
      57    1      2  -0.15074622    -8.364900    -1.495100     4.178000
      58    1      2  -0.15074622    -9.848700    -1.430000     4.585900
      59    1      2  -0.15074622   -10.941200    -1.309100     3.507100
      60    1      2  -0.15074622   -10.548900    -1.257700     2.018000
      61    1      2  -0.15074622    -9.065600    -1.321600     1.610400
      62    1      9   0.16462896    -7.557700    -1.585800     4.977800
      63    1      9   0.16462896   -10.138200    -1.467200     5.687800
      64    1      9   0.16462896   -12.038800    -1.253800     3.810500
      65    1      9   0.16462896   -11.355600    -1.165600     1.217700
      66    1      9   0.16462896    -8.775500    -1.281500     0.508500
      67    1      3  -0.04248358    12.637900    -5.207200     3.168500
      68    1      2  -0.15074622    11.439000    -6.086700     3.569200
      69    1      2  -0.15074622    10.003900    -5.559200     3.386400
      70    1      1  -0.09075858     9.767300    -4.180400     2.747100
      71    1      2  -0.15074622    10.963900    -3.236600     2.518800
      72    1      2  -0.15074622    12.401700    -3.756700     2.709200
      73    1      9   0.16462896    11.612600    -7.139000     3.971700
      74    1      9   0.16462896     9.116000    -6.218400     3.662800
      75    1      9   0.16462896    10.789400    -2.168400     2.175300
      76    1      9   0.16462896    13.289300    -3.077700     2.483400
      77    1      1  -0.09075858     9.043100    -6.522400     0.537000
      78    1      2  -0.15074622     9.804900    -7.317500     1.611400
      79    1      2  -0.15074622    11.186300    -7.916400     1.289100
      80    1      1  -0.09075858    11.765400    -7.794200    -0.132100
      81    1      2  -0.15074622    10.936700    -7.125800    -1.244500
      82    1      2  -0.15074622     9.563800    -6.509300    -0.914700
      83    1      9   0.16462896     9.368400    -7.422000     2.659400
      84    1      9   0.16462896    11.787700    -8.435700     2.106700
      85    1      9   0.16462896    11.348400    -7.067800    -2.305800
      86    1      9   0.16462896     8.954400    -6.003000    -1.734300
      87    1      1  -0.09075858    -3.541600    -1.051000     1.473600
      88    1      2  -0.15074622    -4.632300    -1.165700     0.390800
      89    1      2  -0.15074622    -6.105900    -1.338100     0.793000
      90    1      3  -0.04248358    -6.486000    -1.440600     2.279600
      91    1      2  -0.15074622    -5.379500    -1.523700     3.348800
      92    1      2  -0.15074622    -3.902400    -1.354700     2.938700
      93    1      9   0.16462896    -4.353800    -1.081700    -0.710300
      94    1      9   0.16462896    -6.917800    -1.356300    -0.007300
      95    1      9   0.16462896    -5.654400    -1.683100     4.443900
      96    1      9   0.16462896    -3.082600    -1.412100     3.727900
      97    1      1  -0.09075858    -3.891200     1.798600    -0.040900
      98    1      2  -0.15074622    -3.763600     0.736500    -1.151100
      99    1      2  -0.15074622    -4.689200     0.795300    -2.388300
     100    1      1  -0.09075858    -5.691600     1.958300    -2.548500
     101    1      2  -0.15074622    -5.701500     3.098900    -1.516300
     102    1      2  -0.15074622    -4.804600     3.018300    -0.267900
     103    1      9   0.16462896    -3.034200    -0.130300    -1.027700
     104    1      9   0.16462896    -4.641100    -0.028100    -3.175800
     105    1      9   0.16462896    -6.397200     3.990600    -1.661400
     106    1      9   0.16462896    -4.848300     3.846900     0.512900
     107    1      8  -0.05190592     7.766400    -4.257200     1.031300
     108    1      4  -0.14323566     8.333700    -3.742200     2.382800
     109    1      4  -0.14323566     8.493300    -3.676200    -0.206000
     110    1      4  -0.14323566     7.726200    -5.801100     0.886300
     111    1      6  -0.19163308     6.236900    -3.963200     1.023400
     112    1     10   0.09957651     8.282800    -2.603400     2.392900
     113    1     10   0.09957651     7.657200    -4.140300     3.209400
     114    1     10   0.09957651     7.928100    -4.035300    -1.127800
     115    1     10   0.09957651     8.386400    -2.551300    -0.143100
     116    1     10   0.09957651     7.030500    -6.016500     0.009600
     117    1     10   0.09957651     7.264500    -6.257000     1.823500
     118    1     10   0.09957651     5.853200    -4.503300     0.095900
     119    1     10   0.09957651     5.879300    -4.560300     1.925900
     120    1      8  -0.05190592    -1.845300     0.865600     1.493400
     121    1      4  -0.14323566    -0.671700     1.550500     0.749400
     122    1      6  -0.19163308    -1.458500     1.057200     2.970200
     123    1      4  -0.14323566    -2.116100    -0.601800     1.075000
     124    1      4  -0.14323566    -3.166900     1.650400     1.319700
     125    1     10   0.09957651    -0.798800     1.401700    -0.373700
     126    1     10   0.09957651    -0.763300     2.664900     0.965100
     127    1     10   0.09957651    -1.103900     2.130900     3.048300
     128    1     10   0.09957651    -0.580400     0.384200     3.242300
     129    1     10   0.09957651    -1.309300    -1.300600     1.474800
     130    1     10   0.09957651    -2.103100    -0.640100    -0.064000
     131    1     10   0.09957651    -2.996000     2.700900     1.716700
     132    1     10   0.09957651    -3.919600     1.156400     2.019600
     133    1      8  -0.05190592    -8.128100     1.879000    -3.339300
     134    1      4  -0.14323566    -6.648700     2.015700    -3.760300
     135    1      6  -0.19163308    -8.309600     3.025900    -2.313800
     136    1      6  -0.19163308    -8.994800     2.051500    -4.606800
     137    1      6  -0.19163308    -8.241200     0.461000    -2.727900
     138    1     10   0.09957651    -6.392600     1.180500    -4.492200
     139    1     10   0.09957651    -6.510500     3.021200    -4.279500
     140    1     10   0.09957651    -7.787100     3.942700    -2.745400
     141    1     10   0.09957651    -7.739500     2.703000    -1.381400
     142    1     10   0.09957651    -8.644700     1.323100    -5.410900
     143    1     10   0.09957651    -8.860400     3.118400    -4.985500
     144    1     10   0.09957651    -7.653400     0.470300    -1.751000
     145    1     10   0.09957651    -7.722200    -0.256200    -3.446200
     146    1      5  -0.26228445    14.109900    -7.797600     0.735900
     147    1      4  -0.14323566    13.202300    -8.268300    -0.416700
     148    1     10   0.09957651    15.180500    -8.136900     0.542500
     149    1     10   0.09957651    14.078000    -6.660300     0.806300
     150    1     10   0.09957651    13.739900    -8.246300     1.716000
     151    1     10   0.09957651    13.225900    -9.406000    -0.486600
     152    1     10   0.09957651    13.566700    -7.815300    -1.397400
     153    1      5  -0.26228445     1.109400     4.975900     7.812400
     154    1      4  -0.14323566     2.316100     4.693700     6.899900
     155    1     10   0.09957651     0.555500     5.899000     7.439300
     156    1     10   0.09957651     0.408100     4.078000     7.792900
     157    1     10   0.09957651     1.471300     5.154200     8.878100
     158    1     10   0.09957651     2.866000     3.769400     7.278200
     159    1     10   0.09957651     3.024900     5.587100     6.908200
     160    1      5  -0.26228445     3.653500     7.055900     5.156800
     161    1      4  -0.14323566     3.981800     5.702400     4.502500
     162    1     10   0.09957651     3.129000     6.881200     6.153700
     163    1     10   0.09957651     4.618300     7.637600     5.328800
     164    1     10   0.09957651     2.969500     7.649300     4.465000
     165    1     10   0.09957651     4.503900     5.878100     3.504400
     166    1     10   0.09957651     4.665300     5.100700     5.188400
     167    1      5  -0.26228445    -2.089800     1.370900     5.363000
     168    1      6  -0.19163308    -2.607900     0.926100     3.985100
     169    1     10   0.09957651    -1.727600     2.449800     5.282600
     170    1     10   0.09957651    -2.934500     1.307700     6.127300
     171    1     10   0.09957651    -1.224500     0.704000     5.691200
     172    1     10   0.09957651    -2.985100    -0.141100     4.060600
     173    1     10   0.09957651    -3.457900     1.619200     3.677500
     174    1      5  -0.26228445   -10.381500     4.328800    -2.999600
     175    1      6  -0.19163308    -9.697600     3.530600    -1.871300
     176    1     10   0.09957651   -10.547200     3.688700    -3.925300
     177    1     10   0.09957651   -11.384500     4.721300    -2.625800
     178    1     10   0.09957651    -9.715500     5.211000    -3.278900
     179    1     10   0.09957651    -9.538100     4.264200    -1.013600
     180    1     10   0.09957651   -10.347900     2.680700    -1.491000
     181    1      5  -0.26228445   -11.302100     2.119500    -5.604300
     182    1      6  -0.19163308   -10.490800     1.786800    -4.339200
     183    1     10   0.09957651   -10.947600     1.463800    -6.467600
     184    1     10   0.09957651   -12.408400     1.922800    -5.407700
     185    1     10   0.09957651   -11.153200     3.218100    -5.873500
     186    1     10   0.09957651   -10.855200     2.436200    -3.478300
     187    1     10   0.09957651   -10.655500     0.694500    -4.071300
     188    1      5  -0.26228445   -10.564100     0.725800    -1.624800
     189    1      6  -0.19163308    -9.635700    -0.151400    -2.478500
     190    1     10   0.09957651   -11.544400     0.172100    -1.440500
     191    1     10   0.09957651   -10.065300     0.965100    -0.627200
     192    1     10   0.09957651   -10.785400     1.685800    -2.197700
     193    1     10   0.09957651   -10.141100    -0.343900    -3.480300
     194    1     10   0.09957651    -9.489400    -1.151600    -1.952100
     195    1      7  -0.12537970     5.254700    -1.772000    -0.155900
     196    1      6  -0.19163308     5.359200    -2.677200     1.096300
     197    1      4  -0.14323566     6.293900    -0.644300    -0.184300
     198    1      4  -0.14323566     3.871000    -1.074200    -0.385600
     199    1     10   0.09957651     5.391100    -2.447900    -1.063500
     200    1     10   0.09957651     5.571800    -2.056400     2.028100
     201    1     10   0.09957651     4.308100    -3.105300     1.205500
     202    1     10   0.09957651     6.061900    -0.042100    -1.122400
     203    1     10   0.09957651     6.083800    -0.033900     0.747300
     204    1     10   0.09957651     3.966800    -0.606800    -1.420900
     205    1     10   0.09957651     3.122800    -1.929500    -0.480100
     206    1      1  -0.09075858     3.119700     0.023200     0.441200
     207    1      3  -0.04248358     3.860600     1.099600     1.269700
     208    1      2  -0.15074622     3.084400     1.918900     2.289400
     209    1      3  -0.04248358     1.588300     2.159100     2.093300
     210    1      1  -0.09075858     0.785000     1.209200     1.161700
     211    1      2  -0.15074622     1.559200     0.066100     0.432400
     212    1      9   0.16462896     3.653500     2.538400     3.059400
     213    1      9   0.16462896     0.981500    -0.696200    -0.187900
     214    1      3  -0.04248358     1.116100     3.507500     2.685800
     215    1      3  -0.04248358    -0.008300     3.630500     3.733000
     216    1      2  -0.15074622     0.423500     3.863800     5.194000
     217    1      1  -0.09075858     1.828400     4.442600     5.462000
     218    1      1  -0.09075858     2.677800     4.921100     4.267700
     219    1      2  -0.15074622     2.268700     4.508500     2.846100
     220    1      9   0.16462896    -0.315500     3.718500     6.049700
     221    1      9   0.16462896     2.936000     4.766800     1.958800

Bonds

       1      6        1        2
       2      8        1       67
       3      5        2        3
       4      7        2        7
       5      5        3        4
       6      7        3        8
       7      5        4        5
       8      7        4        9
       9      5        5        6
      10      7        5       10
      11      6        6        1
      12      7        6       11
      13      2       12       13
      14      4       12      109
      15      5       13       14
      16      7       13       18
      17      5       14       15
      18      7       14       19
      19      5       15       16
      20      7       15       20
      21      5       16       17
      22      7       16       21
      23      2       17       12
      24      7       17       22
      25      2       23       24
      26      4       23      197
      27      5       24       25
      28      7       24       29
      29      5       25       26
      30      7       25       30
      31      5       26       27
      32      7       26       31
      33      5       27       28
      34      7       27       32
      35      2       28       23
      36      7       28       33
      37      6       34       35
      38      8       34      207
      39      5       35       36
      40      7       35       40
      41      5       36       37
      42      7       36       41
      43      5       37       38
      44      7       37       42
      45      5       38       39
      46      7       38       43
      47      6       39       34
      48      7       39       44
      49      6       45       46
      50      8       45      215
      51      5       46       47
      52      7       46       51
      53      5       47       48
      54      7       47       52
      55      5       48       49
      56      7       48       53
      57      5       49       50
      58      7       49       54
      59      6       50       45
      60      7       50       55
      61      6       56       57
      62      8       56       90
      63      5       57       58
      64      7       57       62
      65      5       58       59
      66      7       58       63
      67      5       59       60
      68      7       59       64
      69      5       60       61
      70      7       60       65
      71      6       61       56
      72      7       61       66
      73      6       67       68
      74      5       68       69
      75      7       68       73
      76      2       69       70
      77      7       69       74
      78      2       70       71
      79      4       70      108
      80      5       71       72
      81      7       71       75
      82      6       72       67
      83      7       72       76
      84      2       77       78
      85      4       77      110
      86      5       78       79
      87      7       78       83
      88      2       79       80
      89      7       79       84
      90      2       80       81
      91      4       80      147
      92      5       81       82
      93      7       81       85
      94      2       82       77
      95      7       82       86
      96      2       87       88
      97      4       87      123
      98      5       88       89
      99      7       88       93
     100      6       89       90
     101      7       89       94
     102      6       90       91
     103      5       91       92
     104      7       91       95
     105      2       92       87
     106      7       92       96
     107      2       97       98
     108      4       97      124
     109      5       98       99
     110      7       98      103
     111      2       99      100
     112      7       99      104
     113      2      100      101
     114      4      100      134
     115      5      101      102
     116      7      101      105
     117      2      102       97
     118      7      102      106
     119     11      107      108
     120     11      107      109
     121     11      107      110
     122     17      107      111
     123     12      108      112
     124     12      108      113
     125     12      109      114
     126     12      109      115
     127     12      110      116
     128     12      110      117
     129     18      111      118
     130     18      111      119
     131     15      111      196
     132     11      120      121
     133     17      120      122
     134     11      120      123
     135     11      120      124
     136     12      121      125
     137     12      121      126
     138      4      121      210
     139     18      122      127
     140     18      122      128
     141     15      122      168
     142     12      123      129
     143     12      123      130
     144     12      124      131
     145     12      124      132
     146     11      133      134
     147     17      133      135
     148     17      133      136
     149     17      133      137
     150     12      134      138
     151     12      134      139
     152     18      135      140
     153     18      135      141
     154     15      135      175
     155     18      136      142
     156     18      136      143
     157     15      136      182
     158     18      137      144
     159     18      137      145
     160     15      137      189
     161      9      146      147
     162     14      146      148
     163     14      146      149
     164     14      146      150
     165     12      147      151
     166     12      147      152
     167      9      153      154
     168     14      153      155
     169     14      153      156
     170     14      153      157
     171     12      154      158
     172     12      154      159
     173      4      154      217
     174      9      160      161
     175     14      160      162
     176     14      160      163
     177     14      160      164
     178     12      161      165
     179     12      161      166
     180      4      161      218
     181     13      167      168
     182     14      167      169
     183     14      167      170
     184     14      167      171
     185     18      168      172
     186     18      168      173
     187     13      174      175
     188     14      174      176
     189     14      174      177
     190     14      174      178
     191     18      175      179
     192     18      175      180
     193     13      181      182
     194     14      181      183
     195     14      181      184
     196     14      181      185
     197     18      182      186
     198     18      182      187
     199     13      188      189
     200     14      188      190
     201     14      188      191
     202     14      188      192
     203     18      189      193
     204     18      189      194
     205     16      195      196
     206     10      195      197
     207     10      195      198
     208     19      195      199
     209     18      196      200
     210     18      196      201
     211     12      197      202
     212     12      197      203
     213     12      198      204
     214     12      198      205
     215      4      198      206
     216      3      206      207
     217      6      207      208
     218      6      208      209
     219      7      208      212
     220      3      209      210
     221      8      209      214
     222      2      210      211
     223      2      211      206
     224      7      211      213
     225      8      214      215
     226      6      215      216
     227      2      216      217
     228      7      216      220
     229      1      217      218
     230      2      218      219
     231      6      219      214
     232      7      219      221

Angles

       1     17        1        2        3
       2     23        1        2        7
       3     17        1        6        5
       4     23        1        6       11
       5     20        1       67       68
       6     20        1       67       72
       7     19        2        1        6
       8     20        2        1       67
       9     16        2        3        4
      10     18        2        3        8
      11     18        3        2        7
      12     16        3        4        5
      13     18        3        4        9
      14     18        4        3        8
      15     16        4        5        6
      16     18        4        5       10
      17     18        5        4        9
      18     18        5        6       11
      19     20        6        1       67
      20     18        6        5       10
      21      4       12       13       14
      22      6       12       13       18
      23      4       12       17       16
      24      6       12       17       22
      25     11       12      109      107
      26     12       12      109      114
      27     12       12      109      115
      28     13       13       12       17
      29     15       13       12      109
      30     16       13       14       15
      31     18       13       14       19
      32     18       14       13       18
      33     16       14       15       16
      34     18       14       15       20
      35     18       15       14       19
      36     16       15       16       17
      37     18       15       16       21
      38     18       16       15       20
      39     18       16       17       22
      40     15       17       12      109
      41     18       17       16       21
      42      4       23       24       25
      43      6       23       24       29
      44      4       23       28       27
      45      6       23       28       33
      46     10       23      197      195
      47     12       23      197      202
      48     12       23      197      203
      49     13       24       23       28
      50     15       24       23      197
      51     16       24       25       26
      52     18       24       25       30
      53     18       25       24       29
      54     16       25       26       27
      55     18       25       26       31
      56     18       26       25       30
      57     16       26       27       28
      58     18       26       27       32
      59     18       27       26       31
      60     18       27       28       33
      61     15       28       23      197
      62     18       28       27       32
      63     17       34       35       36
      64     23       34       35       40
      65     17       34       39       38
      66     23       34       39       44
      67      8       34      207      206
      68     20       34      207      208
      69     19       35       34       39
      70     20       35       34      207
      71     16       35       36       37
      72     18       35       36       41
      73     18       36       35       40
      74     16       36       37       38
      75     18       36       37       42
      76     18       37       36       41
      77     16       37       38       39
      78     18       37       38       43
      79     18       38       37       42
      80     18       38       39       44
      81     20       39       34      207
      82     18       39       38       43
      83     17       45       46       47
      84     23       45       46       51
      85     17       45       50       49
      86     23       45       50       55
      87     24       45      215      214
      88     20       45      215      216
      89     19       46       45       50
      90     20       46       45      215
      91     16       46       47       48
      92     18       46       47       52
      93     18       47       46       51
      94     16       47       48       49
      95     18       47       48       53
      96     18       48       47       52
      97     16       48       49       50
      98     18       48       49       54
      99     18       49       48       53
     100     18       49       50       55
     101     20       50       45      215
     102     18       50       49       54
     103     17       56       57       58
     104     23       56       57       62
     105     17       56       61       60
     106     23       56       61       66
     107     20       56       90       89
     108     20       56       90       91
     109     19       57       56       61
     110     20       57       56       90
     111     16       57       58       59
     112     18       57       58       63
     113     18       58       57       62
     114     16       58       59       60
     115     18       58       59       64
     116     18       59       58       63
     117     16       59       60       61
     118     18       59       60       65
     119     18       60       59       64
     120     18       60       61       66
     121     20       61       56       90
     122     18       61       60       65
     123     17       67       68       69
     124     23       67       68       73
     125     17       67       72       71
     126     23       67       72       76
     127     19       68       67       72
     128      4       68       69       70
     129     18       68       69       74
     130     18       69       68       73
     131     13       69       70       71
     132     15       69       70      108
     133      6       70       69       74
     134      4       70       71       72
     135      6       70       71       75
     136     11       70      108      107
     137     12       70      108      112
     138     12       70      108      113
     139     15       71       70      108
     140     18       71       72       76
     141     18       72       71       75
     142      4       77       78       79
     143      6       77       78       83
     144      4       77       82       81
     145      6       77       82       86
     146     11       77      110      107
     147     12       77      110      116
     148     12       77      110      117
     149     13       78       77       82
     150     15       78       77      110
     151      4       78       79       80
     152     18       78       79       84
     153     18       79       78       83
     154     13       79       80       81
     155     15       79       80      147
     156      6       80       79       84
     157      4       80       81       82
     158      6       80       81       85
     159      9       80      147      146
     160     12       80      147      151
     161     12       80      147      152
     162     15       81       80      147
     163     18       81       82       86
     164     15       82       77      110
     165     18       82       81       85
     166      4       87       88       89
     167      6       87       88       93
     168      4       87       92       91
     169      6       87       92       96
     170     11       87      123      120
     171     12       87      123      129
     172     12       87      123      130
     173     13       88       87       92
     174     15       88       87      123
     175     17       88       89       90
     176     18       88       89       94
     177     18       89       88       93
     178     19       89       90       91
     179     23       90       89       94
     180     17       90       91       92
     181     23       90       91       95
     182     18       91       92       96
     183     15       92       87      123
     184     18       92       91       95
     185      4       97       98       99
     186      6       97       98      103
     187      4       97      102      101
     188      6       97      102      106
     189     11       97      124      120
     190     12       97      124      131
     191     12       97      124      132
     192     13       98       97      102
     193     15       98       97      124
     194      4       98       99      100
     195     18       98       99      104
     196     18       99       98      103
     197     13       99      100      101
     198     15       99      100      134
     199      6      100       99      104
     200      4      100      101      102
     201      6      100      101      105
     202     11      100      134      133
     203     12      100      134      138
     204     12      100      134      139
     205     15      101      100      134
     206     18      101      102      106
     207     15      102       97      124
     208     18      102      101      105
     209     42      107      108      112
     210     42      107      108      113
     211     42      107      109      114
     212     42      107      109      115
     213     42      107      110      116
     214     42      107      110      117
     215     43      107      111      118
     216     43      107      111      119
     217     36      107      111      196
     218     29      108      107      109
     219     29      108      107      110
     220     30      108      107      111
     221     29      109      107      110
     222     30      109      107      111
     223     30      110      107      111
     224     35      111      196      195
     225     37      111      196      200
     226     37      111      196      201
     227     44      112      108      113
     228     44      114      109      115
     229     44      116      110      117
     230     46      118      111      119
     231     37      118      111      196
     232     37      119      111      196
     233     42      120      121      125
     234     42      120      121      126
     235     11      120      121      210
     236     43      120      122      127
     237     43      120      122      128
     238     36      120      122      168
     239     42      120      123      129
     240     42      120      123      130
     241     42      120      124      131
     242     42      120      124      132
     243     30      121      120      122
     244     29      121      120      123
     245     29      121      120      124
     246     21      121      210      209
     247     15      121      210      211
     248     30      122      120      123
     249     30      122      120      124
     250     32      122      168      167
     251     37      122      168      172
     252     37      122      168      173
     253     29      123      120      124
     254     44      125      121      126
     255     12      125      121      210
     256     12      126      121      210
     257     46      127      122      128
     258     37      127      122      168
     259     37      128      122      168
     260     44      129      123      130
     261     44      131      124      132
     262     42      133      134      138
     263     42      133      134      139
     264     43      133      135      140
     265     43      133      135      141
     266     36      133      135      175
     267     43      133      136      142
     268     43      133      136      143
     269     36      133      136      182
     270     43      133      137      144
     271     43      133      137      145
     272     36      133      137      189
     273     30      134      133      135
     274     30      134      133      136
     275     30      134      133      137
     276     39      135      133      136
     277     39      135      133      137
     278     32      135      175      174
     279     37      135      175      179
     280     37      135      175      180
     281     39      136      133      137
     282     32      136      182      181
     283     37      136      182      186
     284     37      136      182      187
     285     32      137      189      188
     286     37      137      189      193
     287     37      137      189      194
     288     44      138      134      139
     289     46      140      135      141
     290     37      140      135      175
     291     37      141      135      175
     292     46      142      136      143
     293     37      142      136      182
     294     37      143      136      182
     295     46      144      137      145
     296     37      144      137      189
     297     37      145      137      189
     298     31      146      147      151
     299     31      146      147      152
     300     25      147      146      148
     301     25      147      146      149
     302     25      147      146      150
     303     45      148      146      149
     304     45      148      146      150
     305     45      149      146      150
     306     44      151      147      152
     307     31      153      154      158
     308     31      153      154      159
     309      9      153      154      217
     310     25      154      153      155
     311     25      154      153      156
     312     25      154      153      157
     313     15      154      217      216
     314      2      154      217      218
     315     45      155      153      156
     316     45      155      153      157
     317     45      156      153      157
     318     44      158      154      159
     319     12      158      154      217
     320     12      159      154      217
     321     31      160      161      165
     322     31      160      161      166
     323      9      160      161      218
     324     25      161      160      162
     325     25      161      160      163
     326     25      161      160      164
     327      2      161      218      217
     328     15      161      218      219
     329     45      162      160      163
     330     45      162      160      164
     331     45      163      160      164
     332     44      165      161      166
     333     12      165      161      218
     334     12      166      161      218
     335     33      167      168      172
     336     33      167      168      173
     337     34      168      167      169
     338     34      168      167      170
     339     34      168      167      171
     340     45      169      167      170
     341     45      169      167      171
     342     45      170      167      171
     343     46      172      168      173
     344     33      174      175      179
     345     33      174      175      180
     346     34      175      174      176
     347     34      175      174      177
     348     34      175      174      178
     349     45      176      174      177
     350     45      176      174      178
     351     45      177      174      178
     352     46      179      175      180
     353     33      181      182      186
     354     33      181      182      187
     355     34      182      181      183
     356     34      182      181      184
     357     34      182      181      185
     358     45      183      181      184
     359     45      183      181      185
     360     45      184      181      185
     361     46      186      182      187
     362     33      188      189      193
     363     33      188      189      194
     364     34      189      188      190
     365     34      189      188      191
     366     34      189      188      192
     367     45      190      188      191
     368     45      190      188      192
     369     45      191      188      192
     370     46      193      189      194
     371     41      195      196      200
     372     41      195      196      201
     373     40      195      197      202
     374     40      195      197      203
     375     40      195      198      204
     376     40      195      198      205
     377     10      195      198      206
     378     27      196      195      197
     379     27      196      195      198
     380     38      196      195      199
     381     26      197      195      198
     382     28      197      195      199
     383     28      198      195      199
     384     21      198      206      207
     385     15      198      206      211
     386     46      200      196      201
     387     44      202      197      203
     388     44      204      198      205
     389     12      204      198      206
     390     12      205      198      206
     391      7      206      207      208
     392      3      206      211      210
     393      6      206      211      213
     394     14      207      206      211
     395     22      207      208      209
     396     23      207      208      212
     397      7      208      209      210
     398     20      208      209      214
     399     23      209      208      212
     400     14      209      210      211
     401     24      209      214      215
     402     20      209      214      219
     403      8      210      209      214
     404      6      210      211      213
     405     20      214      215      216
     406      5      214      219      218
     407     23      214      219      221
     408     20      215      214      219
     409      5      215      216      217
     410     23      215      216      220
     411      1      216      217      218
     412      6      217      216      220
     413      1      217      218      219
     414      6      218      219      221

Dihedrals

       1     34        1        2        3        4
       2     47        1        2        3        8
       3     34        1        6        5        4
       4     47        1        6        5       10
       5     37        1       67       68       69
       6     50        1       67       68       73
       7     37        1       67       72       71
       8     50        1       67       72       76
       9     36        2        1        6        5
      10     39        2        1        6       11
      11     40        2        1       67       68
      12     40        2        1       67       72
      13     33        2        3        4        5
      14     35        2        3        4        9
      15     36        3        2        1        6
      16     37        3        2        1       67
      17     33        3        4        5        6
      18     35        3        4        5       10
      19     35        4        3        2        7
      20     35        4        5        6       11
      21     35        5        4        3        8
      22     37        5        6        1       67
      23     39        6        1        2        7
      24     40        6        1       67       68
      25     40        6        1       67       72
      26     35        6        5        4        9
      27     50        7        2        1       67
      28     71        7        2        3        8
      29     71        8        3        4        9
      30     71        9        4        5       10
      31     71       10        5        6       11
      32     50       11        6        1       67
      33      8       12       13       14       15
      34     10       12       13       14       19
      35      8       12       17       16       15
      36     10       12       17       16       21
      37     20       12      109      107      108
      38     20       12      109      107      110
      39     21       12      109      107      111
      40     24       13       12       17       16
      41     25       13       12       17       22
      42     30       13       12      109      107
      43     31       13       12      109      114
      44     31       13       12      109      115
      45     33       13       14       15       16
      46     35       13       14       15       20
      47     24       14       13       12       17
      48     32       14       13       12      109
      49     33       14       15       16       17
      50     35       14       15       16       21
      51     35       15       14       13       18
      52     35       15       16       17       22
      53     35       16       15       14       19
      54     32       16       17       12      109
      55     25       17       12       13       18
      56     30       17       12      109      107
      57     31       17       12      109      114
      58     31       17       12      109      115
      59     35       17       16       15       20
      60     53       18       13       12      109
      61     71       18       13       14       19
      62     71       19       14       15       20
      63     71       20       15       16       21
      64     71       21       16       17       22
      65     53       22       17       12      109
      66      8       23       24       25       26
      67     10       23       24       25       30
      68      8       23       28       27       26
      69     10       23       28       27       32
      70     18       23      197      195      196
      71     17       23      197      195      198
      72     19       23      197      195      199
      73     24       24       23       28       27
      74     25       24       23       28       33
      75     29       24       23      197      195
      76     31       24       23      197      202
      77     31       24       23      197      203
      78     33       24       25       26       27
      79     35       24       25       26       31
      80     24       25       24       23       28
      81     32       25       24       23      197
      82     33       25       26       27       28
      83     35       25       26       27       32
      84     35       26       25       24       29
      85     35       26       27       28       33
      86     35       27       26       25       30
      87     32       27       28       23      197
      88     25       28       23       24       29
      89     29       28       23      197      195
      90     31       28       23      197      202
      91     31       28       23      197      203
      92     35       28       27       26       31
      93     53       29       24       23      197
      94     71       29       24       25       30
      95     71       30       25       26       31
      96     71       31       26       27       32
      97     71       32       27       28       33
      98     53       33       28       23      197
      99     34       34       35       36       37
     100     47       34       35       36       41
     101     34       34       39       38       37
     102     47       34       39       38       43
     103     49       34      207      206      198
     104     27       34      207      206      211
     105     48       34      207      208      209
     106     50       34      207      208      212
     107     36       35       34       39       38
     108     39       35       34       39       44
     109     14       35       34      207      206
     110     40       35       34      207      208
     111     33       35       36       37       38
     112     35       35       36       37       42
     113     36       36       35       34       39
     114     37       36       35       34      207
     115     33       36       37       38       39
     116     35       36       37       38       43
     117     35       37       36       35       40
     118     35       37       38       39       44
     119     35       38       37       36       41
     120     37       38       39       34      207
     121     39       39       34       35       40
     122     14       39       34      207      206
     123     40       39       34      207      208
     124     35       39       38       37       42
     125     50       40       35       34      207
     126     71       40       35       36       41
     127     71       41       36       37       42
     128     71       42       37       38       43
     129     71       43       38       39       44
     130     50       44       39       34      207
     131     34       45       46       47       48
     132     47       45       46       47       52
     133     34       45       50       49       48
     134     47       45       50       49       54
     135     51       45      215      214      209
     136     41       45      215      214      219
     137     11       45      215      216      217
     138     50       45      215      216      220
     139     36       46       45       50       49
     140     39       46       45       50       55
     141     41       46       45      215      214
     142     40       46       45      215      216
     143     33       46       47       48       49
     144     35       46       47       48       53
     145     36       47       46       45       50
     146     37       47       46       45      215
     147     33       47       48       49       50
     148     35       47       48       49       54
     149     35       48       47       46       51
     150     35       48       49       50       55
     151     35       49       48       47       52
     152     37       49       50       45      215
     153     39       50       45       46       51
     154     41       50       45      215      214
     155     40       50       45      215      216
     156     35       50       49       48       53
     157     50       51       46       45      215
     158     71       51       46       47       52
     159     71       52       47       48       53
     160     71       53       48       49       54
     161     71       54       49       50       55
     162     50       55       50       45      215
     163     34       56       57       58       59
     164     47       56       57       58       63
     165     34       56       61       60       59
     166     47       56       61       60       65
     167     37       56       90       89       88
     168     50       56       90       89       94
     169     37       56       90       91       92
     170     50       56       90       91       95
     171     36       57       56       61       60
     172     39       57       56       61       66
     173     40       57       56       90       89
     174     40       57       56       90       91
     175     33       57       58       59       60
     176     35       57       58       59       64
     177     36       58       57       56       61
     178     37       58       57       56       90
     179     33       58       59       60       61
     180     35       58       59       60       65
     181     35       59       58       57       62
     182     35       59       60       61       66
     183     35       60       59       58       63
     184     37       60       61       56       90
     185     39       61       56       57       62
     186     40       61       56       90       89
     187     40       61       56       90       91
     188     35       61       60       59       64
     189     50       62       57       56       90
     190     71       62       57       58       63
     191     71       63       58       59       64
     192     71       64       59       60       65
     193     71       65       60       61       66
     194     50       66       61       56       90
     195      9       67       68       69       70
     196     47       67       68       69       74
     197      9       67       72       71       70
     198     47       67       72       71       75
     199     36       68       67       72       71
     200     39       68       67       72       76
     201     24       68       69       70       71
     202     32       68       69       70      108
     203     36       69       68       67       72
     204     24       69       70       71       72
     205     25       69       70       71       75
     206     30       69       70      108      107
     207     31       69       70      108      112
     208     31       69       70      108      113
     209     10       70       69       68       73
     210     10       70       71       72       76
     211     20       70      108      107      109
     212     20       70      108      107      110
     213     21       70      108      107      111
     214     25       71       70       69       74
     215     30       71       70      108      107
     216     31       71       70      108      112
     217     31       71       70      108      113
     218     39       72       67       68       73
     219     32       72       71       70      108
     220     71       73       68       69       74
     221     53       74       69       70      108
     222     53       75       71       70      108
     223     71       75       71       72       76
     224      7       77       78       79       80
     225     10       77       78       79       84
     226      7       77       82       81       80
     227     10       77       82       81       85
     228     20       77      110      107      108
     229     20       77      110      107      109
     230     21       77      110      107      111
     231     24       78       77       82       81
     232     25       78       77       82       86
     233     30       78       77      110      107
     234     31       78       77      110      116
     235     31       78       77      110      117
     236     24       78       79       80       81
     237     32       78       79       80      147
     238     24       79       78       77       82
     239     32       79       78       77      110
     240     24       79       80       81       82
     241     25       79       80       81       85
     242     28       79       80      147      146
     243     31       79       80      147      151
     244     31       79       80      147      152
     245     10       80       79       78       83
     246     10       80       81       82       86
     247     16       80      147      146      148
     248     16       80      147      146      149
     249     16       80      147      146      150
     250     25       81       80       79       84
     251     28       81       80      147      146
     252     31       81       80      147      151
     253     31       81       80      147      152
     254     32       81       82       77      110
     255     25       82       77       78       83
     256     30       82       77      110      107
     257     31       82       77      110      116
     258     31       82       77      110      117
     259     32       82       81       80      147
     260     53       83       78       77      110
     261     71       83       78       79       84
     262     53       84       79       80      147
     263     53       85       81       80      147
     264     71       85       81       82       86
     265     53       86       82       77      110
     266      9       87       88       89       90
     267     10       87       88       89       94
     268      9       87       92       91       90
     269     10       87       92       91       95
     270     20       87      123      120      121
     271     21       87      123      120      122
     272     20       87      123      120      124
     273     24       88       87       92       91
     274     25       88       87       92       96
     275     30       88       87      123      120
     276     31       88       87      123      129
     277     31       88       87      123      130
     278     36       88       89       90       91
     279     24       89       88       87       92
     280     32       89       88       87      123
     281     36       89       90       91       92
     282     39       89       90       91       95
     283     47       90       89       88       93
     284     47       90       91       92       96
     285     39       91       90       89       94
     286     32       91       92       87      123
     287     25       92       87       88       93
     288     30       92       87      123      120
     289     31       92       87      123      129
     290     31       92       87      123      130
     291     53       93       88       87      123
     292     71       93       88       89       94
     293     71       95       91       92       96
     294     53       96       92       87      123
     295      7       97       98       99      100
     296     10       97       98       99      104
     297      7       97      102      101      100
     298     10       97      102      101      105
     299     20       97      124      120      121
     300     21       97      124      120      122
     301     20       97      124      120      123
     302     24       98       97      102      101
     303     25       98       97      102      106
     304     30       98       97      124      120
     305     31       98       97      124      131
     306     31       98       97      124      132
     307     24       98       99      100      101
     308     32       98       99      100      134
     309     24       99       98       97      102
     310     32       99       98       97      124
     311     24       99      100      101      102
     312     25       99      100      101      105
     313     30       99      100      134      133
     314     31       99      100      134      138
     315     31       99      100      134      139
     316     10      100       99       98      103
     317     10      100      101      102      106
     318     21      100      134      133      135
     319     21      100      134      133      136
     320     21      100      134      133      137
     321     25      101      100       99      104
     322     30      101      100      134      133
     323     31      101      100      134      138
     324     31      101      100      134      139
     325     32      101      102       97      124
     326     25      102       97       98      103
     327     30      102       97      124      120
     328     31      102       97      124      131
     329     31      102       97      124      132
     330     32      102      101      100      134
     331     53      103       98       97      124
     332     71      103       98       99      104
     333     53      104       99      100      134
     334     53      105      101      100      134
     335     71      105      101      102      106
     336     53      106      102       97      124
     337     68      107      111      196      195
     338     70      107      111      196      200
     339     70      107      111      196      201
     340     57      108      107      109      114
     341     57      108      107      109      115
     342     57      108      107      110      116
     343     57      108      107      110      117
     344     59      108      107      111      118
     345     59      108      107      111      119
     346     58      108      107      111      196
     347     57      109      107      108      112
     348     57      109      107      108      113
     349     57      109      107      110      116
     350     57      109      107      110      117
     351     59      109      107      111      118
     352     59      109      107      111      119
     353     58      109      107      111      196
     354     57      110      107      108      112
     355     57      110      107      108      113
     356     57      110      107      109      114
     357     57      110      107      109      115
     358     59      110      107      111      118
     359     59      110      107      111      119
     360     58      110      107      111      196
     361     66      111      107      108      112
     362     66      111      107      108      113
     363     66      111      107      109      114
     364     66      111      107      109      115
     365     66      111      107      110      116
     366     66      111      107      110      117
     367     55      111      196      195      197
     368     55      111      196      195      198
     369     63      111      196      195      199
     370     69      118      111      196      195
     371     75      118      111      196      200
     372     75      118      111      196      201
     373     69      119      111      196      195
     374     75      119      111      196      200
     375     75      119      111      196      201
     376     44      120      121      210      209
     377     30      120      121      210      211
     378     60      120      122      168      167
     379     70      120      122      168      172
     380     70      120      122      168      173
     381     59      121      120      122      127
     382     59      121      120      122      128
     383     58      121      120      122      168
     384     57      121      120      123      129
     385     57      121      120      123      130
     386     57      121      120      124      131
     387     57      121      120      124      132
     388     38      121      210      209      208
     389     49      121      210      209      214
     390      6      121      210      211      206
     391     53      121      210      211      213
     392     66      122      120      121      125
     393     66      122      120      121      126
     394     21      122      120      121      210
     395     66      122      120      123      129
     396     66      122      120      123      130
     397     66      122      120      124      131
     398     66      122      120      124      132
     399     62      122      168      167      169
     400     62      122      168      167      170
     401     62      122      168      167      171
     402     57      123      120      121      125
     403     57      123      120      121      126
     404     20      123      120      121      210
     405     59      123      120      122      127
     406     59      123      120      122      128
     407     58      123      120      122      168
     408     57      123      120      124      131
     409     57      123      120      124      132
     410     57      124      120      121      125
     411     57      124      120      121      126
     412     20      124      120      121      210
     413     59      124      120      122      127
     414     59      124      120      122      128
     415     58      124      120      122      168
     416     57      124      120      123      129
     417     57      124      120      123      130
     418     45      125      121      210      209
     419     31      125      121      210      211
     420     45      126      121      210      209
     421     31      126      121      210      211
     422     61      127      122      168      167
     423     75      127      122      168      172
     424     75      127      122      168      173
     425     61      128      122      168      167
     426     75      128      122      168      172
     427     75      128      122      168      173
     428     60      133      135      175      174
     429     70      133      135      175      179
     430     70      133      135      175      180
     431     60      133      136      182      181
     432     70      133      136      182      186
     433     70      133      136      182      187
     434     60      133      137      189      188
     435     70      133      137      189      193
     436     70      133      137      189      194
     437     59      134      133      135      140
     438     59      134      133      135      141
     439     58      134      133      135      175
     440     59      134      133      136      142
     441     59      134      133      136      143
     442     58      134      133      136      182
     443     59      134      133      137      144
     444     59      134      133      137      145
     445     58      134      133      137      189
     446     66      135      133      134      138
     447     66      135      133      134      139
     448     67      135      133      136      142
     449     67      135      133      136      143
     450     64      135      133      136      182
     451     67      135      133      137      144
     452     67      135      133      137      145
     453     64      135      133      137      189
     454     62      135      175      174      176
     455     62      135      175      174      177
     456     62      135      175      174      178
     457     66      136      133      134      138
     458     66      136      133      134      139
     459     67      136      133      135      140
     460     67      136      133      135      141
     461     64      136      133      135      175
     462     67      136      133      137      144
     463     67      136      133      137      145
     464     64      136      133      137      189
     465     62      136      182      181      183
     466     62      136      182      181      184
     467     62      136      182      181      185
     468     66      137      133      134      138
     469     66      137      133      134      139
     470     67      137      133      135      140
     471     67      137      133      135      141
     472     64      137      133      135      175
     473     67      137      133      136      142
     474     67      137      133      136      143
     475     64      137      133      136      182
     476     62      137      189      188      190
     477     62      137      189      188      191
     478     62      137      189      188      192
     479     61      140      135      175      174
     480     75      140      135      175      179
     481     75      140      135      175      180
     482     61      141      135      175      174
     483     75      141      135      175      179
     484     75      141      135      175      180
     485     61      142      136      182      181
     486     75      142      136      182      186
     487     75      142      136      182      187
     488     61      143      136      182      181
     489     75      143      136      182      186
     490     75      143      136      182      187
     491     61      144      137      189      188
     492     75      144      137      189      193
     493     75      144      137      189      194
     494     61      145      137      189      188
     495     75      145      137      189      193
     496     75      145      137      189      194
     497     72      148      146      147      151
     498     72      148      146      147      152
     499     72      149      146      147      151
     500     72      149      146      147      152
     501     72      150      146      147      151
     502     72      150      146      147      152
     503     28      153      154      217      216
     504      3      153      154      217      218
     505     46      154      217      216      215
     506     53      154      217      216      220
     507     52      154      217      218      161
     508     23      154      217      218      219
     509     72      155      153      154      158
     510     72      155      153      154      159
     511     16      155      153      154      217
     512     72      156      153      154      158
     513     72      156      153      154      159
     514     16      156      153      154      217
     515     72      157      153      154      158
     516     72      157      153      154      159
     517     16      157      153      154      217
     518     31      158      154      217      216
     519      4      158      154      217      218
     520     31      159      154      217      216
     521      4      159      154      217      218
     522      3      160      161      218      217
     523     28      160      161      218      219
     524     23      161      218      217      216
     525     46      161      218      219      214
     526     53      161      218      219      221
     527     72      162      160      161      165
     528     72      162      160      161      166
     529     16      162      160      161      218
     530     72      163      160      161      165
     531     72      163      160      161      166
     532     16      163      160      161      218
     533     72      164      160      161      165
     534     72      164      160      161      166
     535     16      164      160      161      218
     536      4      165      161      218      217
     537     31      165      161      218      219
     538      4      166      161      218      217
     539     31      166      161      218      219
     540     74      169      167      168      172
     541     74      169      167      168      173
     542     74      170      167      168      172
     543     74      170      167      168      173
     544     74      171      167      168      172
     545     74      171      167      168      173
     546     74      176      174      175      179
     547     74      176      174      175      180
     548     74      177      174      175      179
     549     74      177      174      175      180
     550     74      178      174      175      179
     551     74      178      174      175      180
     552     74      183      181      182      186
     553     74      183      181      182      187
     554     74      184      181      182      186
     555     74      184      181      182      187
     556     74      185      181      182      186
     557     74      185      181      182      187
     558     74      190      188      189      193
     559     74      190      188      189      194
     560     74      191      188      189      193
     561     74      191      188      189      194
     562     74      192      188      189      193
     563     74      192      188      189      194
     564     43      195      198      206      207
     565     29      195      198      206      211
     566     65      196      195      197      202
     567     65      196      195      197      203
     568     65      196      195      198      204
     569     65      196      195      198      205
     570     18      196      195      198      206
     571     56      197      195      196      200
     572     56      197      195      196      201
     573     54      197      195      198      204
     574     54      197      195      198      205
     575     17      197      195      198      206
     576     56      198      195      196      200
     577     56      198      195      196      201
     578     54      198      195      197      202
     579     54      198      195      197      203
     580     38      198      206      207      208
     581      6      198      206      211      210
     582     53      198      206      211      213
     583     76      199      195      196      200
     584     76      199      195      196      201
     585     73      199      195      197      202
     586     73      199      195      197      203
     587     73      199      195      198      204
     588     73      199      195      198      205
     589     19      199      195      198      206
     590     45      204      198      206      207
     591     31      204      198      206      211
     592     45      205      198      206      207
     593     31      205      198      206      211
     594     12      206      207      208      209
     595     13      206      207      208      212
     596      5      206      211      210      209
     597      5      207      206      211      210
     598     42      207      206      211      213
     599     12      207      208      209      210
     600     48      207      208      209      214
     601     26      208      207      206      211
     602     26      208      209      210      211
     603     41      208      209      214      215
     604     40      208      209      214      219
     605     42      209      210      211      213
     606     41      209      214      215      216
     607     11      209      214      219      218
     608     50      209      214      219      221
     609     13      210      209      208      212
     610     15      210      209      214      215
     611     14      210      209      214      219
     612     27      211      210      209      214
     613     50      212      208      209      214
     614     11      214      215      216      217
     615     50      214      215      216      220
     616      1      214      219      218      217
     617     11      215      214      219      218
     618     50      215      214      219      221
     619      1      215      216      217      218
     620     40      216      215      214      219
     621     22      216      217      218      219
     622      2      217      218      219      221
     623      2      218      217      216      220

Impropers

       1     11        2        1        6       67
       2      8        1        2        3        7
       3      7        2        3        4        8
       4      7        3        4        5        9
       5      7        4        5        6       10
       6      8        1        6        5       11
       7      2       13       12       17      109
       8      5       12       13       14       18
       9      7       13       14       15       19
      10      7       14       15       16       20
      11      7       15       16       17       21
      12      5       12       17       16       22
      13      2       24       23       28      197
      14      5       23       24       25       29
      15      7       24       25       26       30
      16      7       25       26       27       31
      17      7       26       27       28       32
      18      5       23       28       27       33
      19     11       35       34       39      207
      20      8       34       35       36       40
      21      7       35       36       37       41
      22      7       36       37       38       42
      23      7       37       38       39       43
      24      8       34       39       38       44
      25     11       46       45       50      215
      26      8       45       46       47       51
      27      7       46       47       48       52
      28      7       47       48       49       53
      29      7       48       49       50       54
      30      8       45       50       49       55
      31     11       57       56       61       90
      32      8       56       57       58       62
      33      7       57       58       59       63
      34      7       58       59       60       64
      35      7       59       60       61       65
      36      8       56       61       60       66
      37     11        1       67       68       72
      38      8       67       68       69       73
      39      5       68       69       70       74
      40      2       69       70       71      108
      41      5       70       71       72       75
      42      8       67       72       71       76
      43      2       78       77       82      110
      44      5       77       78       79       83
      45      5       78       79       80       84
      46      2       79       80       81      147
      47      5       80       81       82       85
      48      5       77       82       81       86
      49      2       88       87       92      123
      50      5       87       88       89       93
      51      8       88       89       90       94
      52     11       56       90       89       91
      53      8       90       91       92       95
      54      5       87       92       91       96
      55      2       98       97      102      124
      56      5       97       98       99      103
      57      5       98       99      100      104
      58      2       99      100      101      134
      59      5      100      101      102      105
      60      5       97      102      101      106
      61      3      198      206      207      211
      62     10       34      207      206      208
      63      9      207      208      209      212
      64     10      208      209      210      214
      65      3      121      210      209      211
      66      4      206      211      210      213
      67     12      209      214      215      219
      68     12       45      215      214      216
      69      6      215      216      217      220
      70      1      154      217      216      218
      71      1      161      218      217      219
      72      6      214      219      218      221

