LAMMPS data file from Part3 phase8.resolved.q.json (OPLS-AA)
# chain_id=star_orth800_uid001234_sk11_rg1_pl1_random__397c19bf740f topology=star
# assumes: units real; atom_style full; bond_style harmonic; angle_style harmonic; dihedral_style opls; improper_style cvff
# special_bonds lj/coul 0.0 0.0 0.5
# cvff improper: K=v2/2, d=-1, n=2

     966 atoms
    1049 bonds
    1791 angles
    2666 dihedrals
     416 impropers

       9 atom types
      13 bond types
      22 angle types
      19 dihedral types
       1 improper types

    -27.888041      37.765148 xlo xhi
    -14.887215      77.273600 ylo yhi
    -12.154742      47.959430 zlo zhi

Masses

       1     1.008000 # boss_type=HA count=248
       2     1.008000 # boss_type=HC count=162
       3    12.011000 # boss_type=CT count=80
       4    12.011000 # boss_type=CA count=372
       5    12.011000 # boss_type=CB count=44
       6    14.007000 # boss_type=NC count=44
       7    15.999000 # boss_type=OS count=13
       8    15.999000 # boss_type=OY count=2
       9    32.067000 # boss_type=SY count=1

Pair Coeffs

       1     0.030000     2.420000 # boss_type=HA count=248
       2     0.030000     2.500000 # boss_type=HC count=162
       3     0.066000     3.500000 # boss_type=CT count=80
       4     0.070000     3.550000 # boss_type=CA count=372
       5     0.080000     3.500000 # boss_type=CB count=44
       6     0.170000     3.250000 # boss_type=NC count=44
       7     0.140000     2.900000 # boss_type=OS count=13
       8     0.170000     2.960000 # boss_type=OY count=2
       9     0.250000     3.550000 # boss_type=SY count=1

Bond Coeffs

       1   320.000000     1.410000 # pattern=CT-OS
       2   268.000000     1.529000 # pattern=CT-CT
       3   340.000000     1.090000 # pattern=CT-HC
       4   469.000000     1.400000 # pattern=CA-CA
       5   385.000000     1.460000 # pattern=C!-C!
       6   483.000000     1.339000 # pattern=C!-NC
       7   461.000000     1.354000 # pattern=CB-NC
       8   469.000000     1.404000 # pattern=CA-CB
       9   520.000000     1.370000 # pattern=CB-CB
      10   367.000000     1.080000 # pattern=CA-HA
      11   317.000000     1.510000 # pattern=CA-CT
      12   340.000000     1.770000 # pattern=CT-SY
      13   700.000000     1.440000 # pattern=OY-SY

Angle Coeffs

       1    35.000000   109.500000 # pattern=HC-CT-OS
       2    33.000000   107.800000 # pattern=HC-CT-HC
       3    60.000000   109.500000 # pattern=CT-OS-CT
       4    50.000000   109.500000 # pattern=CT-CT-OS
       5    37.500000   110.700000 # pattern=CT-CT-HC
       6    58.350000   112.700000 # pattern=CT-CT-CT
       7    63.000000   114.000000 # pattern=CA-CT-CT
       8    63.000000   120.000000 # pattern=CA-CA-CA
       9    70.000000   120.000000 # pattern=CA-CA-CT
      10    35.000000   120.000000 # pattern=CA-CA-HA
      11    70.000000   117.000000 # pattern=C!-NC-CB
      12    70.000000   118.400000 # pattern=CA-CB-NC
      13    70.000000   127.700000 # pattern=CB-CB-NC
      14    85.000000   117.300000 # pattern=CA-CB-CB
      15    70.000000   112.200000 # pattern=CA-NC-CB
      16    70.000000   124.000000 # pattern=C!-CA-NC
      17    70.000000   116.000000 # pattern=CT-CA-NC
      18    40.000000   109.500000 # pattern=CA-CT-CA
      19    50.000000   108.600000 # pattern=CT-CT-SY
      20    74.000000   108.900000 # pattern=CT-SY-OY
      21    62.000000   102.000000 # pattern=CT-SY-CT
      22   104.000000   119.000000 # pattern=OY-SY-OY

Dihedral Coeffs

       1     0.000000     0.000000     0.760000     0.000000 # pattern=CT-OS-CT-HC
       2     0.250000    -0.250000     0.500000     0.000000 # pattern=CT-CT-OS-CT
       3     0.000000     0.000000     0.300000     0.000000 # pattern=HC-CT-CT-OS
       4     1.300000    -0.500000     0.000000     0.000000 # pattern=CT-CT-CT-OS
       5     0.850000    -0.200000     0.200000     0.000000 # pattern=CT-CT-CT-CT
       6     0.000000     0.000000     0.462000     0.000000 # pattern=CA-CT-CT-HC
       7     0.000000     0.000000     0.000000     0.000000 # pattern=CA-CT-CT-CT
       8     0.000000     7.250000     0.000000     0.000000 # pattern=CA-CA-CA-CA
       9     0.000000     2.010000     0.000000     0.000000 # pattern=CA-C!-C!-NC
      10     0.000000     1.650000     0.000000    -0.050000 # pattern=C!-C!-C!-CA
      11     0.000000     7.000000     0.000000     0.000000 # pattern=C!-CA-CB-NC
      12     0.000000     1.110000     0.000000    -0.130000 # pattern=NC-C!-C!-NC
      13     0.000000     0.150000     0.000000     0.000000 # pattern=CA-CA-CT-CT
      14     0.000000     0.000000     0.418000     0.183000 # pattern=CT-CT-CA-NC
      15     0.000000     0.000000     0.100000     0.000000 # pattern=HC-CT-CA-NC
      16    -0.250000     0.000000     0.000000     0.000000 # pattern=C!-CA-CT-CT
      17     0.000000     0.000000     0.350000     0.000000 # pattern=HC-CT-CT-SY
      18     1.262000    -0.198000     0.465000     0.000000 # pattern=CT-CT-CT-SY
      19    -0.550000     0.000000     0.000000     0.000000 # pattern=OS-CT-CT-OS

Improper Coeffs

       1     2.500000  -1   2 # pattern=CA-CA-CA-CT

Atoms

       1      1      3 -0.05188600     7.818899    -4.648941     4.487741
       2      1      7 -0.37462300     8.063385    -4.156011     3.176978
       3      1      3  0.01118000     6.904296    -3.587791     2.564659
       4      1      3 -0.21120700     6.607795    -2.189832     3.104256
       5      1      2  0.08171200     6.999205    -5.373716     4.482722
       6      1      2  0.08171200     7.600990    -3.832588     5.180837
       7      1      2  0.08171200     8.724192    -5.155495     4.834279
       8      1      2  0.09604000     6.044727    -4.257224     2.688559
       9      1      2  0.09604000     7.121106    -3.534930     1.493570
      10      1      2  0.09466000     6.419339    -2.257307     4.179452
      11      1      2  0.09466000     7.494848    -1.553712     3.000111
      12      1      3 -0.17442800     5.393809    -1.533533     2.444781
      13      1      3 -0.17591400     5.665811    -1.074136     1.010517
      14      1      2  0.08939100     5.103509    -0.660728     3.042524
      15      1      2  0.08939100     4.543683    -2.226158     2.464207
      16      1      2  0.08578000     6.493811    -0.356454     1.016313
      17      1      2  0.08578000     5.975123    -1.923932     0.392794
      18      1      3 -0.18467200     4.418090    -0.436367     0.390756
      19      1      3 -0.15213000     4.629096    -0.005144    -1.064253
      20      1      2  0.08364900     3.604459    -1.172467     0.412753
      21      1      2  0.08364900     4.091859     0.414789     1.000581
      22      1      2  0.08475200     5.068637    -0.825887    -1.644888
      23      1      2  0.08475200     3.650175     0.187555    -1.522798
      24      1      4 -0.05779700     5.467162     1.240845    -1.209069
      25      1      4 -0.13939500     4.895874     2.501787    -1.010122
      26      1      4 -0.09993200     5.666567     3.659105    -1.151257
      27      1      4 -0.04928900     7.027435     3.594457    -1.497739
      28      1      4  0.08002100     7.813496     4.834352    -1.641666
      29      1      6 -0.23099400     7.674240     5.688351    -0.589173
      30      1      5  0.01692600     8.393978     6.823549    -0.603584
      31      1      4 -0.08655000     8.299263     7.703985     0.466627
      32      1      4 -0.02740300     9.015565     8.909172     0.506374
      33      1      4 -0.02477900     8.897927     9.812938     1.655277
      34      1      4 -0.10741000     9.269067     9.401246     2.938770
      35      1      4 -0.10287600     9.137772    10.269435     4.025509
      36      1      5  0.02056700     8.623644    11.548762     3.867216
      37      1      6 -0.23083600     8.495872    12.352674     4.937558
      38      1      4  0.07537800     7.961758    13.592762     4.741094
      39      1      4  0.08072200     7.539047    13.998507     3.464305
      40      1      4 -0.04621100     6.850318    15.264919     3.156096
      41      1      4 -0.09230100     5.682472    15.657307     3.834802
      42      1      4 -0.14531300     5.044443    16.863863     3.533746
      43      1      4 -0.11902200     5.555635    17.693915     2.539362
      44      1      4 -0.14049100     6.698733    17.315832     1.840158
      45      1      4 -0.10077100     7.336028    16.109807     2.142772
      46      1      6 -0.22974700     7.705380    13.192095     2.377963
      47      1      5  0.01825300     8.236489    11.974698     2.579845
      48      1      4 -0.08723600     8.388533    11.110818     1.502133
      49      1      4 -0.10791900     9.836658     9.218855    -0.580837
      50      1      4 -0.10256400     9.942413     8.336627    -1.659516
      51      1      5  0.02211400     9.241180     7.139588    -1.684457
      52      1      6 -0.23391100     9.372863     6.310645    -2.735501
      53      1      4  0.08113400     8.648750     5.154339    -2.723616
      54      1      4 -0.04303200     8.819338     4.337108    -3.938529
      55      1      4 -0.09201200     7.722112     3.898419    -4.700146
      56      1      4 -0.14526800     7.904756     3.120902    -5.847258
      57      1      4 -0.11981400     9.189227     2.777710    -6.260925
      58      1      4 -0.14247300    10.292006     3.216411    -5.533353
      59      1      4 -0.10028700    10.107444     3.992463    -4.386259
      60      1      4 -0.09080300     7.596171     2.321250    -1.665141
      61      1      4 -0.14319500     6.825787     1.160227    -1.531207
      62      1      1  0.14600900     3.844774     2.594208    -0.745512
      63      1      1  0.14723100     5.196879     4.628257    -0.988185
      64      1      1  0.16690100     7.647089     7.433485     1.294802
      65      1      1  0.15760400     9.665319     8.400456     3.102119
      66      1      1  0.16729600     9.433891     9.936915     5.017339
      67      1      1  0.15189200     5.253998    15.019116     4.605467
      68      1      1  0.14574800     4.144784    17.150889     4.071927
      69      1      1  0.14260400     5.057167    18.630286     2.301874
      70      1      1  0.14798700     7.093102    17.954444     1.054014
      71      1      1  0.14843900     8.221927    15.822471     1.578659
      72      1      1  0.16764200     8.074030    11.457549     0.519175
      73      1      1  0.15716600    10.419098    10.137854    -0.590144
      74      1      1  0.16750400    10.595693     8.583009    -2.492557
      75      1      1  0.15206900     6.707837     4.163911    -4.407997
      76      1      1  0.14556000     7.041950     2.788445    -6.418599
      77      1      1  0.14184000     9.330948     2.175886    -7.154742
      78      1      1  0.14557700    11.296839     2.960854    -5.859144
      79      1      1  0.14789400    10.980257     4.336762    -3.833830
      80      1      1  0.15197700     8.653893     2.216275    -1.899971
      81      1      1  0.14557600     7.300153     0.191840    -1.676271
      82      1      4 -0.06018200     7.878832    14.411713     5.968028
      83      1      4 -0.14148500     8.275946    15.757069     6.003094
      84      1      4 -0.09616500     8.133247    16.526849     7.165134
      85      1      4 -0.04845800     7.603608    15.981060     8.345295
      86      1      4  0.08215200     7.421931    16.825111     9.544026
      87      1      6 -0.23092700     8.490251    17.626209     9.825964
      88      1      5  0.01931600     8.416906    18.409390    10.916924
      89      1      4 -0.08564900     9.473573    19.260923    11.225473
      90      1      4 -0.02381200     9.448821    20.114052    12.341128
      91      1      4 -0.02909800    10.552665    21.047674    12.620285
      92      1      4 -0.10329600    11.045127    21.902822    11.627842
      93      1      4 -0.10497100    12.055081    22.824604    11.918199
      94      1      5  0.03297200    12.596544    22.922217    13.190655
      95      1      6 -0.32372900    13.536115    23.849849    13.440979
      96      1      4  0.11513900    14.014990    23.929182    14.713745
      97      1      4  0.05813600    13.586637    23.037056    15.709826
      98      1      4 -0.03742600    14.105192    22.999817    17.090691
      99      1      4 -0.10873000    15.483985    22.948552    17.365875
     100      1      4 -0.13869900    15.958338    22.923303    18.680634
     101      1      4 -0.12014200    15.061959    22.937361    19.745832
     102      1      4 -0.13891300    13.692217    22.968207    19.498402
     103      1      4 -0.09286900    13.219924    22.994447    18.183355
     104      1      6 -0.21404100    12.626391    22.105215    15.448967
     105      1      5  0.00845900    12.129532    22.054653    14.200400
     106      1      4 -0.08125400    11.126566    21.138937    13.899115
     107      1      4 -0.10658100     8.318976    20.068083    13.165621
     108      1      4 -0.10123000     7.254012    19.214742    12.867028
     109      1      5  0.02315900     7.280972    18.393526    11.751110
     110      1      6 -0.23218400     6.220711    17.615888    11.478234
     111      1      4  0.08216000     6.274643    16.846021    10.354711
     112      1      4 -0.04144100     5.023964    16.114661    10.081671
     113      1      4 -0.09084700     4.452144    15.290342    11.066832
     114      1      4 -0.14384000     3.269710    14.586928    10.823428
     115      1      4 -0.11849600     2.630901    14.703903     9.591772
     116      1      4 -0.14049500     3.167804    15.529692     8.607459
     117      1      4 -0.09868100     4.350151    16.233371     8.852810
     118      1      4 -0.08715900     7.276277    14.616648     8.330907
     119      1      4 -0.14454600     7.403588    13.851242     7.164475
     120      1      1  0.14721000     8.699964    16.233806     5.121251
     121      1      1  0.14885700     8.438445    17.572347     7.141657
     122      1      1  0.16848300    10.339708    19.252458    10.566266
     123      1      1  0.15826700    10.630418    21.881632    10.621387
     124      1      1  0.16808300    12.413425    23.493442    11.139058
     125      1      1  0.14510200    16.207313    22.919025    16.553250
     126      1      1  0.14705200    17.027487    22.884315    18.870685
     127      1      1  0.14437200    15.429716    22.913019    20.768493
     128      1      1  0.14777900    12.988259    22.965319    20.327075
     129      1      1  0.15200200    12.145092    23.008487    18.008041
     130      1      1  0.16848000    10.785063    20.481074    14.696730
     131      1      1  0.15793600     8.241772    20.714437    14.038422
     132      1      1  0.16858000     6.377505    19.203410    13.510131
     133      1      1  0.15340400     4.933591    15.196966    12.039084
     134      1      1  0.14693300     2.846512    13.953374    11.598821
     135      1      1  0.14326000     1.709480    14.159233     9.402756
     136      1      1  0.14735300     2.664286    15.632423     7.649582
     137      1      1  0.14950400     4.740741    16.883354     8.072229
     138      1      1  0.15399800     6.909226    14.124201     9.229533
     139      1      1  0.14719800     7.120753    12.799521     7.194521
     140      1      4 -0.02873800    14.943597    25.049644    14.934750
     141      1      4 -0.11021500    14.685661    26.028350    15.907671
     142      1      4 -0.11034500    15.575434    27.085530    16.119453
     143      1      4 -0.02797200    16.755911    27.201009    15.369347
     144      1      4  0.07039100    17.683103    28.315493    15.618137
     145      1      6 -0.22651100    17.101941    29.542300    15.507229
     146      1      5  0.01414100    17.889947    30.613988    15.680088
     147      1      4 -0.08596100    17.338800    31.880872    15.550500
     148      1      4 -0.02643800    18.104125    33.043232    15.717286
     149      1      4 -0.03425100    17.490326    34.363353    15.567053
     150      1      4 -0.10782700    17.365143    35.231496    16.654692
     151      1      4 -0.10849500    16.755519    36.477105    16.490522
     152      1      5  0.03472900    16.279413    36.889059    15.253268
     153      1      6 -0.34215500    15.725430    38.105879    15.125530
     154      1      4  0.12516000    15.274322    38.466450    13.892041
     155      1      4  0.07127700    15.381912    37.600914    12.800090
     156      1      4 -0.03397700    14.895702    37.906217    11.452378
     157      1      4 -0.08372600    13.699277    37.341618    10.980612
     158      1      4 -0.14566600    13.222008    37.642490     9.703132
     159      1      4 -0.12665900    13.943840    38.496062     8.872160
     160      1      4 -0.14479900    15.143827    39.048473     9.315522
     161      1      4 -0.11732100    15.617104    38.754595    10.596434
     162      1      6 -0.21707100    15.952438    36.374309    12.927822
     163      1      5  0.00888400    16.398440    36.022354    14.146776
     164      1      4 -0.08113300    16.994536    34.781382    14.322205
     165      1      4 -0.10892300    19.459525    32.900902    16.020155
     166      1      4 -0.10526100    20.022340    31.628317    16.148635
     167      1      5  0.02183700    19.260817    30.481292    15.983771
     168      1      6 -0.23453500    19.837818    29.273645    16.104902
     169      1      4  0.08182600    19.043885    28.178793    15.934793
     170      1      4 -0.04689400    19.740522    26.895542    16.136936
     171      1      4 -0.09352900    19.256267    25.915751    17.022380
     172      1      4 -0.14663500    19.929590    24.703116    17.194939
     173      1      4 -0.12048100    21.106592    24.452910    16.494625
     174      1      4 -0.14183900    21.615155    25.415708    15.627019
     175      1      4 -0.10161900    20.939873    26.626309    15.454175
     176      1      4 -0.10435000    16.996512    26.244234    14.371571
     177      1      4 -0.10444000    16.102978    25.187746    14.156293
     178      1      1  0.15172300    13.779176    25.983233    16.508658
     179      1      1  0.15163900    15.340242    27.830807    16.877409
     180      1      1  0.16849800    16.277677    31.956949    15.318731
     181      1      1  0.15233300    17.726575    34.943128    17.640920
     182      1      1  0.16367700    16.653679    37.142082    17.345335
     183      1      1  0.15450000    13.132398    36.656348    11.609274
     184      1      1  0.14466500    12.290763    37.201571     9.354756
     185      1      1  0.14007200    13.574457    38.725549     7.875964
     186      1      1  0.14260800    15.712239    39.707317     8.663786
     187      1      1  0.14084300    16.558563    39.190234    10.923784
     188      1      1  0.16792000    17.077824    34.126013    13.457504
     189      1      1  0.15367600    20.095515    33.775137    16.144507
     190      1      1  0.16584900    21.081025    31.528401    16.370754
     191      1      1  0.15035200    18.348101    26.091403    17.594987
     192      1      1  0.14428700    19.537561    23.957869    17.881530
     193      1      1  0.14106200    21.633156    23.512131    16.631346
     194      1      1  0.14621900    22.540304    25.230595    15.087842
     195      1      1  0.14748800    21.355741    27.372823    14.778709
     196      1      1  0.15625000    17.881351    26.317517    13.741488
     197      1      1  0.15586000    16.316391    24.466503    13.368617
     198      1      3 -0.17155500    14.615705    39.815878    13.814729
     199      1      3  0.00480000    13.123306    39.734660    14.116950
     200      1      7 -0.39124500    12.612125    41.065038    14.215180
     201      1      3  0.00271800    11.233432    41.089070    14.590785
     202      1      3 -0.22930000    10.924559    42.486276    15.114094
     203      1      2  0.11729400    14.785974    40.301625    12.848444
     204      1      2  0.11729400    15.093697    40.483570    14.544198
     205      1      2  0.09999900    12.589093    39.197514    13.325027
     206      1      2  0.09999900    12.959103    39.211098    15.067311
     207      1      2  0.08312900    11.045517    40.337632    15.363479
     208      1      2  0.08312900    10.622630    40.856046    13.712303
     209      1      2  0.09186900    11.618017    42.724023    15.929552
     210      1      2  0.09186900    11.155182    43.218095    14.328980
     211      1      3 -0.18272100     9.480323    42.698230    15.575065
     212      1      3 -0.15241300     8.941508    41.704385    16.612414
     213      1      2  0.08384600     8.823163    42.657515    14.700183
     214      1      2  0.08384600     9.394516    43.718926    15.968423
     215      1      2  0.08372100     7.951116    42.039589    16.946101
     216      1      2  0.08372100     8.776645    40.739857    16.115477
     217      1      4 -0.05680400     9.805370    41.508227    17.834042
     218      1      4 -0.13834900    10.272458    42.592479    18.583606
     219      1      4 -0.09889100    11.122312    42.389973    19.678195
     220      1      4 -0.04791000    11.505590    41.098257    20.073714
     221      1      4  0.08094400    12.450528    40.857496    21.181427
     222      1      6 -0.22984900    13.456752    39.997443    20.850940
     223      1      5  0.01825000    14.408558    39.761925    21.767065
     224      1      4 -0.08598500    15.447430    38.893367    21.456602
     225      1      4 -0.02462500    16.477868    38.606653    22.364860
     226      1      4 -0.02842400    17.558371    37.677244    22.007561
     227      1      4 -0.10405600    18.899376    38.063903    22.078050
     228      1      4 -0.10565200    19.911946    37.172872    21.714765
     229      1      5  0.03193300    19.619933    35.893489    21.267676
     230      1      6 -0.32532800    20.615463    35.079569    20.880098
     231      1      4  0.12034800    20.287243    33.842717    20.400378
     232      1      4  0.06389200    18.959246    33.398931    20.418704
     233      1      4 -0.03523600    18.492538    32.032943    20.113689
     234      1      4 -0.11084200    17.380961    31.826804    19.277390
     235      1      4 -0.14039700    16.899426    30.541680    19.010490
     236      1      4 -0.12399100    17.520578    29.432493    19.575489
     237      1      4 -0.13772100    18.605592    29.609841    20.427907
     238      1      4 -0.08991700    19.075530    30.897628    20.706229
     239      1      6 -0.20883800    17.952532    34.241719    20.790053
     240      1      5  0.00873500    18.277682    35.479955    21.202694
     241      1      4 -0.08209500    17.275879    36.371752    21.571260
     242      1      4 -0.10682000    16.436709    39.233977    23.614157
     243      1      4 -0.10166300    15.392574    40.107295    23.935932
     244      1      5  0.02295700    14.374825    40.379618    23.032428
     245      1      6 -0.23284200    13.377932    41.215047    23.375411
     246      1      4  0.08182500    12.396405    41.444629    22.454829
     247      1      4 -0.04154100    11.312238    42.314709    22.946875
     248      1      4 -0.09101500    11.609662    43.550962    23.547901
     249      1      4 -0.14423100    10.596606    44.390653    24.018065
     250      1      4 -0.11884400     9.264260    44.003716    23.905131
     251      1      4 -0.14135300     8.945382    42.776174    23.330715
     252      1      4 -0.09916600     9.960368    41.937280    22.861469
     253      1      4 -0.08963200    11.001284    40.016602    19.332367
     254      1      4 -0.14207200    10.158382    40.215558    18.235878
     255      1      1  0.14699500    10.005746    43.610469    18.308584
     256      1      1  0.14830000    11.501222    43.264444    20.204027
     257      1      1  0.16803500    15.451602    38.438273    20.467396
     258      1      1  0.15796900    19.172589    39.070746    22.389292
     259      1      1  0.16731300    20.949976    37.493670    21.760192
     260      1      1  0.14514200    16.870875    32.680498    18.833901
     261      1      1  0.14585800    16.040833    30.410169    18.356069
     262      1      1  0.14295300    17.151557    28.433412    19.360961
     263      1      1  0.14705200    19.081952    28.747277    20.886980
     264      1      1  0.15231600    19.899108    31.004325    21.410229
     265      1      1  0.16885500    16.244001    36.028481    21.517940
     266      1      1  0.15794000    17.208159    39.038846    24.356805
     267      1      1  0.16830500    15.368610    40.580369    24.914680
     268      1      1  0.15313900    12.647474    43.863559    23.654351
     269      1      1  0.14654700    10.850987    45.342090    24.477448
     270      1      1  0.14284300     8.474949    44.653910    24.273184
     271      1      1  0.14664200     7.906759    42.466025    23.250714
     272      1      1  0.14908000     9.682700    40.977299    22.430416
     273      1      1  0.15325600    11.286027    38.999864    19.598677
     274      1      1  0.14666500     9.804078    39.347776    17.684191
     275      1      3 -0.07671800    21.443534    33.033521    19.848590
     276      1      4 -0.15603700    22.192504    33.589839    18.642667
     277      1      4 -0.14733100    22.040904    34.895173    18.160630
     278      1      4 -0.11697800    22.806421    35.358924    17.087639
     279      1      4 -0.10084000    23.738040    34.529347    16.455182
     280      1      3 -0.12232200    24.601201    35.070259    15.341577
     281      1      4 -0.12454500    23.888212    33.219839    16.916263
     282      1      4 -0.17599100    23.132838    32.761192    18.002828
     283      1      2  0.12191800    22.168461    32.907222    20.664514
     284      1      2  0.12191800    21.110319    32.030642    19.565887
     285      1      1  0.14172400    21.345408    35.591804    18.619219
     286      1      1  0.14756900    22.687486    36.389553    16.763181
     287      1      2  0.10538300    25.117364    35.957605    15.733293
     288      1      2  0.10538300    25.397853    34.361168    15.093537
     289      1      1  0.13935400    24.610423    32.551603    16.449790
     290      1      1  0.13751300    23.291327    31.742526    18.353436
     291      1      3 -0.11484500    23.814288    35.476879    14.091650
     292      1      3 -0.46264900    23.327746    34.310986    13.229725
     293      1      9  1.28750900    24.682553    33.418473    12.452021
     294      1      8 -0.54309300    25.025054    32.327329    13.346341
     295      1      8 -0.54309300    25.702976    34.392600    12.101381
     296      1      3 -0.29592400    24.073136    32.710680    10.876932
     297      1      3 -0.10520400    25.242149    31.921693    10.196559
     298      1      3  0.05656500    22.871454    31.792166    11.144483
     299      1      7 -0.35203600    21.697813    32.558520    11.432246
     300      1      3  0.04014600    23.689084    33.887626     9.948601
     301      1      7 -0.37617400    23.108761    33.394733     8.731706
     302      1      2  0.12788300    24.448461    36.133608    13.482968
     303      1      2  0.12788300    22.945933    36.081864    14.374299
     304      1      2  0.19749400    22.695144    34.725752    12.445643
     305      1      2  0.19749400    22.735860    33.593198    13.805664
     306      1      2  0.12458500    25.020095    31.811101     9.126315
     307      1      2  0.12458500    26.162172    32.518210    10.248619
     308      1      2  0.13269700    22.689060    31.175712    10.253989
     309      1      2  0.13269700    23.058441    31.119240    11.989002
     310      1      2  0.12174000    24.579086    34.471731     9.688006
     311      1      2  0.12174000    22.986052    34.568747    10.432815
     312      1      3 -0.16078700    25.531159    30.512514    10.728636
     313      1      3  0.00190400    26.765314    29.911481    10.051883
     314      1      7 -0.39411600    26.919521    28.544407    10.435255
     315      1      3  0.00866000    26.237588    27.627335     9.578099
     316      1      3 -0.18594900    27.136353    27.234038     8.407096
     317      1      2  0.11588700    25.695809    30.512998    11.810101
     318      1      2  0.11588700    24.668813    29.859639    10.556164
     319      1      2  0.07447700    27.659726    30.445993    10.389727
     320      1      2  0.07447700    26.715222    30.011630     8.961491
     321      1      2  0.07327100    25.285020    28.044447     9.231751
     322      1      2  0.07327100    26.009036    26.744909    10.183899
     323      1      2  0.10150900    27.486700    28.136631     7.892625
     324      1      2  0.10150900    28.042571    26.748780     8.790763
     325      1      3 -0.04383500    20.490369    31.843467    11.161625
     326      1      3 -0.00648600    20.126442    30.856931    12.272611
     327      1      7 -0.40176100    19.010286    30.023914    11.951963
     328      1      3 -0.00666500    17.797979    30.748533    11.754164
     329      1      3 -0.23238300    16.633903    29.763836    11.719429
     330      1      2  0.07768400    19.702121    32.599294    11.080364
     331      1      2  0.07768400    20.533020    31.348845    10.183346
     332      1      2  0.09193100    20.970210    30.191208    12.479459
     333      1      2  0.09193100    19.931952    31.399140    13.202874
     334      1      2  0.08602500    17.865968    31.288074    10.805790
     335      1      2  0.08602500    17.652687    31.473000    12.562794
     336      1      2  0.08992500    16.838014    28.962446    10.998634
     337      1      2  0.08992500    16.564582    29.270934    12.695989
     338      1      3 -0.02669200    22.245100    34.340566     8.093711
     339      1      3 -0.24437800    23.018655    35.511882     7.491588
     340      1      2  0.06965400    21.724467    33.790996     7.302831
     341      1      2  0.06965400    21.481968    34.679806     8.803371
     342      1      2  0.06588100    23.631902    35.987381     8.264267
     343      1      2  0.06588100    23.726704    35.135445     6.742873
     344      1      3 -0.20950600    26.444634    26.332627     7.388185
     345      1      3  0.00503200    26.074574    24.958198     7.933550
     346      1      7 -0.38372600    25.474834    24.213275     6.874058
     347      1      3  0.00959900    25.120687    22.892970     7.288458
     348      1      3 -0.21009100    24.510445    22.170638     6.091407
     349      1      2  0.09770100    27.107850    26.199965     6.523277
     350      1      2  0.09770100    25.547319    26.827052     6.994988
     351      1      2  0.11250200    25.359072    25.043983     8.757524
     352      1      2  0.11250200    26.971900    24.437856     8.287276
     353      1      2  0.08777000    24.394326    22.953226     8.107052
     354      1      2  0.08777000    26.018285    22.372639     7.640634
     355      1      2  0.09637300    25.248425    22.127118     5.280116
     356      1      2  0.09637300    23.680080    22.772329     5.700479
     357      1      3 -0.18272100    15.300979    30.445435    11.404985
     358      1      3 -0.15241300    15.172190    30.805102     9.921240
     359      1      2  0.08384600    15.185254    31.340333    12.029485
     360      1      2  0.08384600    14.486429    29.764740    11.682486
     361      1      2  0.08372100    15.157646    29.889840     9.314678
     362      1      2  0.08372100    16.047885    31.371379     9.583494
     363      1      3 -0.21072900    22.114987    36.580484     6.882620
     364      1      3  0.01065300    21.345943    36.110239     5.652508
     365      1      7 -0.37742000    20.586590    37.197189     5.125258
     366      1      3  0.00913100    19.257816    37.246622     5.635776
     367      1      3 -0.21111500    18.566432    38.541017     5.210383
     368      1      2  0.09865000    21.418750    36.956300     7.640110
     369      1      2  0.09865000    22.728910    37.445415     6.600788
     370      1      2  0.09927600    20.697702    35.252273     5.862385
     371      1      2  0.09927600    22.056059    35.806906     4.875480
     372      1      2  0.09743000    18.698103    36.381245     5.263036
     373      1      2  0.09743000    19.274994    37.200198     6.730067
     374      1      2  0.09438400    19.102812    39.399581     5.628581
     375      1      2  0.09438400    17.568211    38.546941     5.664755
     376      1      3 -0.13507500    23.991626    20.773767     6.435028
     377      1      4 -0.08625300    25.075724    19.806033     6.840020
     378      1      4 -0.13968000    26.007747    19.347647     5.900509
     379      1      4 -0.13394500    27.016637    18.457479     6.275781
     380      1      4 -0.08498600    27.113161    18.007445     7.598507
     381      1      3 -0.09783000    28.203613    17.043189     8.005779
     382      1      4 -0.12859600    26.178553    18.465192     8.537006
     383      1      4 -0.13464800    25.168654    19.353614     8.161154
     384      1      2  0.09636100    23.236878    20.848222     7.228174
     385      1      2  0.09636100    23.468466    20.357894     5.564908
     386      1      1  0.13476900    25.953766    19.680597     4.866078
     387      1      1  0.13373600    27.726019    18.116472     5.525139
     388      1      2  0.10283200    28.948413    16.946540     7.204355
     389      1      2  0.10283200    28.752449    17.476984     8.852479
     390      1      1  0.13646100    26.227231    18.124021     9.568657
     391      1      1  0.13766100    24.454249    19.686622     8.910738
     392      1      4 -0.05680400    13.929944    31.606388     9.624247
     393      1      4 -0.13834900    12.671163    30.998262     9.624515
     394      1      4 -0.09889100    11.524617    31.739668     9.319834
     395      1      4 -0.04791000    11.605915    33.103248     8.990448
     396      1      4  0.08094400    10.412984    33.889269     8.625527
     397      1      6 -0.22984900    10.259649    35.036796     9.349158
     398      1      5  0.01825000     9.160464    35.777055     9.117368
     399      1      4 -0.08598500     8.951485    36.945071     9.844787
     400      1      4 -0.02462500     7.817522    37.753812     9.658538
     401      1      4 -0.02842400     7.608076    38.977457    10.451957
     402      1      4 -0.10405600     7.760902    38.977303    11.843282
     403      1      4 -0.10565200     7.536616    40.140926    12.584376
     404      1      5  0.03193300     7.158465    41.324746    11.969786
     405      1      6 -0.32532800     6.946325    42.421165    12.717746
     406      1      4  0.12034800     6.575376    43.559860    12.066092
     407      1      4  0.06389200     6.415289    43.581132    10.677457
     408      1      4 -0.03523600     5.994108    44.759315     9.916589
     409      1      4 -0.11084200     6.942868    45.614008     9.333931
     410      1      4 -0.14039700     6.542286    46.746607     8.622168
     411      1      4 -0.12399100     5.187185    47.033968     8.473652
     412      1      4 -0.13772100     4.231344    46.188219     9.033375
     413      1      4 -0.08991700     4.631776    45.056934     9.747887
     414      1      6 -0.20883800     6.629975    42.469677     9.925647
     415      1      5  0.00873500     7.002460    41.348788    10.568607
     416      1      4 -0.08209500     7.232151    40.185814     9.841204
     417      1      4 -0.10682000     6.885942    37.347959     8.695973
     418      1      4 -0.10166300     7.086950    36.179473     7.957219
     419      1      5  0.02295700     8.207563    35.388323     8.154235
     420      1      6 -0.23284200     8.361916    34.272303     7.424216
     421      1      4  0.08182500     9.477011    33.521075     7.644929
     422      1      4 -0.04154100     9.587027    32.347891     6.758359
     423      1      4 -0.09101500    10.741257    32.096502     5.995826
     424      1      4 -0.14423100    10.827207    30.976369     5.164257
     425      1      4 -0.11884400     9.754846    30.093203     5.069643
     426      1      4 -0.14135300     8.594977    30.331390     5.800857
     427      1      4 -0.09916600     8.511416    31.450000     6.633452
     428      1      4 -0.08963200    12.872781    33.707401     9.025051
     429      1      4 -0.14207200    14.019847    32.972340     9.337766
     430      1      1  0.14699500    12.572311    29.939765     9.856162
     431      1      1  0.14830000    10.561692    31.232875     9.335842
     432      1      1  0.16803500     9.706407    37.227632    10.576470
     433      1      1  0.15796900     8.038352    38.066430    12.370980
     434      1      1  0.16731300     7.651387    40.120740    13.664675
     435      1      1  0.14514200     8.005361    45.402379     9.442728
     436      1      1  0.14585800     7.290977    47.402043     8.183925
     437      1      1  0.14295300     4.876496    47.913318     7.915462
     438      1      1  0.14705200     3.173874    46.404908     8.908488
     439      1      1  0.15231600     3.874301    44.398881    10.168549
     440      1      1  0.16885500     7.115566    40.236891     8.759972
     441      1      1  0.15794000     5.982550    37.928983     8.517022
     442      1      1  0.16830500     6.351036    35.878412     7.215165
     443      1      1  0.15313900    11.589709    32.776936     6.038663
     444      1      1  0.14654700    11.731364    30.798312     4.587707
     445      1      1  0.14284300     9.820819    29.224658     4.420015
     446      1      1  0.14664200     7.750761    29.651839     5.720342
     447      1      1  0.14908000     7.593259    31.626468     7.191527
     448      1      1  0.15325600    12.975363    34.765949     8.794925
     449      1      1  0.14666500    14.982393    33.479641     9.346488
     450      1      3 -0.18272100    18.395494    38.713716     3.693840
     451      1      3 -0.15241300    19.659126    39.069287     2.899204
     452      1      2  0.08384600    17.645906    39.498758     3.527508
     453      1      2  0.08384600    17.969595    37.791702     3.278641
     454      1      2  0.08372100    20.418947    38.286064     2.984797
     455      1      2  0.08372100    19.401521    39.088596     1.831433
     456      1      4 -0.05880400    27.699588    15.662263     8.358888
     457      1      4 -0.14108400    27.685111    15.227486     9.689130
     458      1      4 -0.10105100    27.202119    13.956190    10.017593
     459      1      4 -0.04667700    26.734429    13.076173     9.027052
     460      1      4  0.07872600    26.216434    11.734318     9.356040
     461      1      6 -0.23001200    24.995903    11.467371     8.807226
     462      1      5  0.01648800    24.416585    10.292708     9.109300
     463      1      4 -0.08656900    23.170713     9.984142     8.571725
     464      1      4 -0.02758300    22.505960     8.779520     8.856794
     465      1      4 -0.02505300    21.189027     8.471693     8.270488
     466      1      4 -0.10763600    20.152181     9.411484     8.262810
     467      1      4 -0.10304000    18.907262     9.096670     7.707656
     468      1      5  0.02039000    18.658202     7.850010     7.153300
     469      1      6 -0.23121400    17.448202     7.578748     6.632890
     470      1      4  0.07521300    17.250203     6.337701     6.102705
     471      1      4  0.08052300    18.270492     5.372550     6.126736
     472      1      4 -0.04649300    18.141011     3.981487     5.655267
     473      1      4 -0.09259900    19.072546     3.451565     4.743960
     474      1      4 -0.14564500    18.963890     2.138169     4.279908
     475      1      4 -0.11936500    17.925343     1.325645     4.726997
     476      1      4 -0.14066800    17.001712     1.822039     5.643382
     477      1      4 -0.10091100    17.113011     3.135674     6.108071
     478      1      6 -0.22996300    19.500863     5.663665     6.636771
     479      1      5  0.01797200    19.689814     6.890327     7.150499
     480      1      4 -0.08746000    20.925527     7.215959     7.698621
     481      1      4 -0.10792200    23.144630     7.880606     9.719085
     482      1      4 -0.10302600    24.399160     8.177506    10.259466
     483      1      5  0.02178800    25.046455     9.367283     9.965341
     484      1      6 -0.23371900    26.256456     9.612688    10.495338
     485      1      4  0.08051000    26.859771    10.793191    10.175576
     486      1      4 -0.04342800    28.212882    10.939652    10.744839
     487      1      4 -0.09251900    28.434387    10.724998    12.116997
     488      1      4 -0.14541300    29.708760    10.857937    12.674562
     489      1      4 -0.12014700    30.789624    11.199327    11.866146
     490      1      4 -0.14236700    30.598598    11.399593    10.501548
     491      1      4 -0.10079600    29.323221    11.265628     9.945384
     492      1      4 -0.09141200    26.741177    13.529900     7.697252
     493      1      4 -0.13443600    27.218736    14.801646     7.365428
     494      1      1  0.14471100    28.039639    15.877807    10.485666
     495      1      1  0.14736500    27.188326    13.663961    11.065710
     496      1      1  0.16701400    22.718234    10.711105     7.899083
     497      1      1  0.15735200    20.293722    10.398186     8.700038
     498      1      1  0.16706300    18.113246     9.840400     7.712457
     499      1      1  0.15159200    19.896345     4.071079     4.392179
     500      1      1  0.14542100    19.694476     1.750346     3.574936
     501      1      1  0.14228700    17.840684     0.302979     4.369068
     502      1      1  0.14791700    16.195335     1.186812     6.001642
     503      1      1  0.14833400    16.385346     3.492088     6.835085
     504      1      1  0.16736600    21.705806     6.456884     7.667304
     505      1      1  0.15698200    22.669941     6.939414     9.991145
     506      1      1  0.16728400    24.879437     7.465659    10.926350
     507      1      1  0.15172400    27.601976    10.444287    12.760977
     508      1      1  0.14533600    29.855723    10.686895    13.737931
     509      1      1  0.14166900    31.782489    11.298982    12.297595
     510      1      1  0.14550600    31.442975    11.651947     9.865339
     511      1      1  0.14752400    29.206113    11.412180     8.873106
     512      1      1  0.15299800    26.359393    12.887495     6.904853
     513      1      1  0.14995700    27.197243    15.121676     6.325629
     514      1      3 -0.08961000     6.365839    44.781977    12.929830
     515      1      4 -0.09712100     7.441876    45.839696    12.817776
     516      1      4 -0.13277600     7.091061    47.185319    12.641530
     517      1      4 -0.13654700     8.074800    48.174192    12.562576
     518      1      4 -0.06659200     9.428889    47.836951    12.661237
     519      1      3 -0.13930100    10.496020    48.902199    12.602464
     520      1      4 -0.13590800     9.782088    46.495442    12.847698
     521      1      4 -0.12887700     8.798762    45.507998    12.928312
     522      1      2  0.11434900     5.379269    45.206090    12.705680
     523      1      2  0.11434900     6.317141    44.473563    13.982922
     524      1      1  0.13844700     6.046139    47.475920    12.557581
     525      1      1  0.12764400     7.775472    49.210629    12.424728
     526      1      2  0.08541900    10.117590    49.774355    12.053902
     527      1      2  0.08541900    11.343975    48.522192    12.018234
     528      1      1  0.12902900    10.828743    46.211646    12.937354
     529      1      1  0.13207600     9.105085    44.474757    13.076146
     530      1      4 -0.06104400    20.250176    40.410624     3.259680
     531      1      4 -0.13818000    21.307402    40.498381     4.171907
     532      1      4 -0.09824200    21.836289    41.741510     4.529403
     533      1      4 -0.04686000    21.338180    42.928551     3.969520
     534      1      4  0.08129900    21.906711    44.229936     4.353282
     535      1      6 -0.22999900    21.823332    44.494049     5.688789
     536      1      5  0.01880400    22.250113    45.696050     6.112906
     537      1      4 -0.08568100    22.151012    46.021667     7.462466
     538      1      4 -0.02402800    22.548790    47.271207     7.970427
     539      1      4 -0.02894900    22.385593    47.609761     9.398692
     540      1      4 -0.10392900    21.221270    47.265515    10.097252
     541      1      4 -0.10472400    21.070867    47.598960    11.445869
     542      1      5  0.03147700    22.059193    48.287057    12.131570
     543      1      6 -0.32145500    21.874330    48.590926    13.427255
     544      1      4  0.11500700    22.863049    49.286594    14.055715
     545      1      4  0.05957100    24.024492    49.671900    13.377239
     546      1      4 -0.03446100    25.119247    50.455987    13.964374
     547      1      4 -0.10884600    26.407555    49.908396    14.076631
     548      1      4 -0.13748800    27.459113    50.648361    14.623599
     549      1      4 -0.12161700    27.241331    51.954208    15.056056
     550      1      4 -0.13779600    25.976057    52.522494    14.937610
     551      1      4 -0.09667300    24.925825    51.779885    14.392871
     552      1      6 -0.21303300    24.215370    49.338172    12.071870
     553      1      5  0.00837600    23.237043    48.653440    11.450853
     554      1      4 -0.08176400    23.381669    48.299891    10.111809
     555      1      4 -0.10658100    23.086970    48.187811     7.059301
     556      1      4 -0.10142900    23.199232    47.869127     5.702300
     557      1      5  0.02311600    22.781224    46.641716     5.213306
     558      1      6 -0.23241200    22.884311    46.380535     3.898876
     559      1      4  0.08203700    22.455194    45.163140     3.460049
     560      1      4 -0.04142200    22.631432    44.952326     2.010616
     561      1      4 -0.09086600    22.185211    45.920846     1.093661
     562      1      4 -0.14392500    22.340388    45.742528    -0.283681
     563      1      4 -0.11863300    22.953179    44.591776    -0.771436
     564      1      4 -0.14078800    23.417370    43.625009     0.116664
     565      1      4 -0.09894100    23.263660    43.806994     1.494300
     566      1      4 -0.08943900    20.272334    42.830719     3.059483
     567      1      4 -0.14119200    19.734191    41.588637     2.709379
     568      1      1  0.14750900    21.714101    39.595814     4.624570
     569      1      1  0.14874200    22.644843    41.781699     5.257335
     570      1      1  0.16842600    21.745202    45.264396     8.130600
     571      1      1  0.15816200    20.407762    46.740291     9.600290
     572      1      1  0.16797000    20.160082    47.319051    11.969933
     573      1      1  0.14613600    26.595316    48.893820    13.728667
     574      1      1  0.14679300    28.448709    50.206270    14.704154
     575      1      1  0.14397400    28.060171    52.531988    15.477316
     576      1      1  0.14713200    25.803120    53.545522    15.262625
     577      1      1  0.14998400    23.949997    52.250905    14.299343
     578      1      1  0.16855000    24.313342    48.574815     9.620249
     579      1      1  0.15795100    23.410330    49.172788     7.388046
     580      1      1  0.16845700    23.614992    48.598639     5.010558
     581      1      1  0.15337300    21.708766    46.830069     1.457302
     582      1      1  0.14685900    21.986102    46.504676    -0.972002
     583      1      1  0.14312900    23.075659    44.450956    -1.842086
     584      1      1  0.14703300    23.902913    42.728075    -0.259888
     585      1      1  0.14932600    23.649290    43.039736     2.163397
     586      1      1  0.15373900    19.843217    43.728193     2.618104
     587      1      1  0.14746500    18.906488    41.547560     2.004656
     588      1      4 -0.02854200    15.906482     6.141619     5.524434
     589      1      4 -0.11016800    15.715950     5.608814     4.240369
     590      1      4 -0.11044600    14.430575     5.387696     3.728565
     591      1      4 -0.02821700    13.284043     5.723662     4.465354
     592      1      4  0.07144800    11.922841     5.466609     3.956066
     593      1      6 -0.22989400    11.120307     4.820767     4.851299
     594      1      5  0.01459700     9.897014     4.444682     4.440787
     595      1      4 -0.08836200     9.063276     3.756967     5.315577
     596      1      4 -0.02599300     7.788470     3.309175     4.935901
     597      1      4 -0.03191500     6.937395     2.566898     5.873852
     598      1      4 -0.10666300     6.551123     3.120329     7.098860
     599      1      4 -0.10780200     5.745249     2.394879     7.981961
     600      1      5  0.02989000     5.312215     1.112682     7.675693
     601      1      6 -0.32780000     4.540455     0.439575     8.548656
     602      1      4  0.11845900     4.153174    -0.821836     8.200898
     603      1      4  0.06176100     4.548956    -1.391700     6.987698
     604      1      4 -0.03798400     4.211721    -2.749014     6.549313
     605      1      4 -0.11314400     3.293809    -2.953409     5.506791
     606      1      4 -0.14264400     2.975605    -4.242606     5.074385
     607      1      4 -0.12619800     3.578946    -5.346862     5.672056
     608      1      4 -0.14001700     4.502342    -5.163422     6.699028
     609      1      4 -0.09229300     4.819889    -3.873405     7.131313
     610      1      6 -0.21085100     5.316198    -0.701878     6.104794
     611      1      5  0.00620700     5.697084     0.540134     6.445837
     612      1      4 -0.08383400     6.492417     1.271423     5.571557
     613      1      4 -0.10788400     7.364033     3.579199     3.631718
     614      1      4 -0.10430800     8.189178     4.282718     2.751137
     615      1      5  0.02182400     9.447634     4.722740     3.134971
     616      1      6 -0.23295900    10.214773     5.401225     2.264094
     617      1      4  0.08178300    11.457068     5.785000     2.671372
     618      1      4 -0.04730400    12.201773     6.552068     1.656217
     619      1      4 -0.09341700    12.311729     6.065792     0.341025
     620      1      4 -0.14653400    13.021442     6.769694    -0.635080
     621      1      4 -0.12032000    13.624891     7.982879    -0.316636
     622      1      4 -0.14188500    13.511344     8.495867     0.972793
     623      1      4 -0.10161500    12.801105     7.789907     1.948502
     624      1      4 -0.10470900    13.475548     6.277987     5.740875
     625      1      4 -0.10454600    14.760236     6.489350     6.256723
     626      1      1  0.15186200    16.569470     5.343610     3.619288
     627      1      1  0.15170100    14.342849     4.932637     2.743397
     628      1      1  0.16567100     9.434805     3.548117     6.316924
     629      1      1  0.15514100     6.865475     4.125256     7.375448
     630      1      1  0.16504400     5.449909     2.839183     8.929462
     631      1      1  0.14281800     2.821068    -2.098081     5.026850
     632      1      1  0.14365600     2.259431    -4.381125     4.268629
     633      1      1  0.14071500     3.333994    -6.349846     5.332288
     634      1      1  0.14475900     4.980934    -6.023756     7.159797
     635      1      1  0.14990400     5.557935    -3.747168     7.921135
     636      1      1  0.16656200     6.785964     0.802571     4.633743
     637      1      1  0.15619400     6.385105     3.252244     3.285015
     638      1      1  0.16666600     7.841279     4.484454     1.740971
     639      1      1  0.15044100    11.831586     5.126335     0.069867
     640      1      1  0.14444100    13.088412     6.373926    -1.645680
     641      1      1  0.14120500    14.175349     8.532285    -1.075331
     642      1      1  0.14628000    13.973446     9.447527     1.222874
     643      1      1  0.14736400    12.719898     8.222342     2.943773
     644      1      1  0.15599600    12.613974     6.540163     6.352904
     645      1      1  0.15585900    14.863302     6.920955     7.251744
     646      1      3 -0.20760900    10.946524    49.320335    14.004765
     647      1      3  0.00656900    12.009346    50.411853    13.962282
     648      1      7 -0.38168700    13.159998    49.915985    13.282438
     649      1      3  0.00930400    14.229347    50.859741    13.280530
     650      1      3 -0.21598900    15.381734    50.254467    12.486772
     651      1      2  0.10468400    11.354205    48.446182    14.528382
     652      1      2  0.10468400    10.087231    49.675311    14.587144
     653      1      2  0.10322800    12.281207    50.693429    14.986109
     654      1      2  0.10322800    11.627596    51.297145    13.441973
     655      1      2  0.09405400    13.896206    51.793390    12.813729
     656      1      2  0.09405400    14.528647    51.060691    14.314485
     657      1      2  0.09274000    15.021770    50.008686    11.479335
     658      1      2  0.09274000    15.673957    49.295808    12.933498
     659      1      3 -0.14724600    22.624495    49.550791    15.520288
     660      1      3 -0.19002200    23.289556    48.489009    16.399896
     661      1      2  0.09511000    21.540076    49.541854    15.688879
     662      1      2  0.09511000    22.955940    50.554745    15.800360
     663      1      2  0.07352400    22.895686    47.496701    16.150556
     664      1      2  0.07352400    24.363174    48.447604    16.178904
     665      1      3 -0.14262300     3.250896    -1.532023     9.182474
     666      1      4 -0.08213300     1.796968    -1.573111     8.767970
     667      1      4 -0.14333800     1.056295    -0.388646     8.657273
     668      1      4 -0.13182100    -0.285947    -0.422678     8.273367
     669      1      4 -0.09450400    -0.913331    -1.641278     7.989752
     670      1      3 -0.08889700    -2.368111    -1.679182     7.595063
     671      1      4 -0.12908500    -0.177683    -2.826067     8.108075
     672      1      4 -0.14244400     1.164395    -2.792579     8.494130
     673      1      2  0.09011100     3.309262    -1.025447    10.155395
     674      1      2  0.09011100     3.631431    -2.542121     9.373240
     675      1      1  0.13325000     1.524688     0.571380     8.868863
     676      1      1  0.14150200    -0.839143     0.510883     8.196811
     677      1      2  0.11647700    -2.531219    -2.499578     6.884629
     678      1      2  0.11647700    -2.622194    -0.758207     7.055020
     679      1      1  0.13426000    -0.644860    -3.786102     7.900488
     680      1      1  0.13265700     1.712944    -3.729137     8.570345
     681      1      3 -0.18272100    16.596418    51.173577    12.367988
     682      1      3 -0.15241300    17.311222    51.396725    13.703898
     683      1      2  0.08384600    16.294091    52.136322    11.937136
     684      1      2  0.08384600    17.294076    50.720342    11.651580
     685      1      2  0.08372100    16.654279    51.917254    14.410424
     686      1      2  0.08372100    17.557219    50.433839    14.169255
     687      1      3 -0.18063200    23.131872    48.760882    17.899239
     688      1      3 -0.17329200    21.689408    48.810427    18.419648
     689      1      2  0.09084900    23.613344    49.719015    18.134230
     690      1      2  0.09084900    23.693543    47.997974    18.452749
     691      1      2  0.08611300    21.158757    49.643272    17.943358
     692      1      2  0.08611300    21.721685    49.054367    19.488904
     693      1      3 -0.17948600    -3.279722    -1.846369     8.811980
     694      1      3 -0.15462400    -4.751876    -1.857648     8.397157
     695      1      2  0.07935700    -3.100163    -1.033061     9.527502
     696      1      2  0.07935700    -3.033683    -2.778857     9.337099
     697      1      2  0.08769800    -5.005267    -0.928162     7.872008
     698      1      2  0.08769800    -4.935421    -2.668350     7.680792
     699      1      4 -0.05680400    18.580308    52.191791    13.527172
     700      1      4 -0.13834900    19.753483    51.559909    13.104691
     701      1      4 -0.09889100    20.930753    52.291795    12.926004
     702      1      4 -0.04791000    20.974125    53.675250    13.159999
     703      1      4  0.08094400    22.216713    54.457947    13.003877
     704      1      6 -0.22984900    22.480132    55.285155    14.057325
     705      1      5  0.01825000    23.622697    55.993404    14.029234
     706      1      4 -0.08598500    23.914683    56.868244    15.070420
     707      1      4 -0.02462500    25.089173    57.636945    15.093035
     708      1      4 -0.02842400    25.347065    58.602250    16.169688
     709      1      4 -0.10405600    24.444803    59.638363    16.433257
     710      1      4 -0.10565200    24.718426    60.581954    17.426211
     711      1      5  0.03193300    25.881308    60.518420    18.177817
     712      1      6 -0.32532800    26.119656    61.459487    19.108107
     713      1      4  0.12034800    27.276485    61.354005    19.822512
     714      1      4  0.06389200    28.169632    60.301616    19.602295
     715      1      4 -0.03523600    29.426594    60.122355    20.332248
     716      1      4 -0.11084200    29.492140    59.267648    21.444248
     717      1      4 -0.14039700    30.686091    59.102889    22.149809
     718      1      4 -0.12399100    31.833350    59.783002    21.745615
     719      1      4 -0.13772100    31.789706    60.624323    20.635083
     720      1      4 -0.08991700    30.595098    60.790543    19.931157
     721      1      6 -0.20883800    27.929229    59.356488    18.654923
     722      1      5  0.00873500    26.793580    59.466949    17.942723
     723      1      4 -0.08209500    26.513543    58.535586    16.947640
     724      1      4 -0.10682000    25.990646    57.481843    14.035968
     725      1      4 -0.10166300    25.705505    56.607068    12.984641
     726      1      5  0.02295700    24.531182    55.871152    12.959190
     727      1      6 -0.23284200    24.276007    55.068629    11.914647
     728      1      4  0.08182500    23.103723    54.372528    11.919591
     729      1      4 -0.04154100    22.878510    53.589189    10.692963
     730      1      4 -0.09101500    21.706604    53.731710     9.928791
     731      1      4 -0.14423100    21.513444    52.990616     8.759805
     732      1      4 -0.11884400    22.495514    52.105191     8.324835
     733      1      4 -0.14135300    23.668780    51.956865     9.059728
     734      1      4 -0.09916600    23.857273    52.691867    10.232591
     735      1      4 -0.08963200    19.788811    54.295152    13.593296
     736      1      4 -0.14207200    18.605362    53.568319    13.766357
     737      1      1  0.14699500    19.763994    50.488177    12.914452
     738      1      1  0.14830000    21.820183    51.755962    12.602276
     739      1      1  0.16803500    23.196271    56.951319    15.884546
     740      1      1  0.15796900    23.529469    59.736254    15.852037
     741      1      1  0.16731300    24.014153    61.389804    17.609581
     742      1      1  0.14514200    28.602881    58.728246    21.767493
     743      1      1  0.14585800    30.718290    58.439903    23.010688
     744      1      1  0.14295300    32.765148    59.648689    22.289441
     745      1      1  0.14705200    32.687699    61.144804    20.311452
     746      1      1  0.15231600    30.579494    61.438977    19.057640
     747      1      1  0.16885500    27.233498    57.735917    16.781592
     748      1      1  0.15794000    26.912379    58.060115    14.004565
     749      1      1  0.16830500    26.406057    56.510462    12.158282
     750      1      1  0.15313900    20.931184    54.431378    10.234552
     751      1      1  0.14654700    20.598781    53.113796     8.185225
     752      1      1  0.14284300    22.346793    51.539252     7.409671
     753      1      1  0.14664200    24.445157    51.274036     8.724979
     754      1      1  0.14908000    24.782696    52.562616    10.793975
     755      1      1  0.15325600    19.785739    55.363090    13.802906
     756      1      1  0.14666500    17.709238    54.087007    14.099454
     757      1      3 -0.13418000    20.872646    47.528662    18.208634
     758      1      4 -0.07830300    21.398551    46.334083    18.966631
     759      1      4 -0.13273100    21.939212    45.237597    18.284600
     760      1      4 -0.13139300    22.432375    44.135259    18.988125
     761      1      4 -0.08755300    22.395610    44.109008    20.387003
     762      1      3 -0.12816100    22.931985    42.921592    21.149909
     763      1      4 -0.13068000    21.841425    45.198649    21.069422
     764      1      4 -0.13250000    21.347824    46.299686    20.365908
     765      1      2  0.09710700    20.797119    47.300657    17.139479
     766      1      2  0.09710700    19.841368    47.708235    18.540305
     767      1      1  0.13901900    21.982777    45.232209    17.197831
     768      1      1  0.13894800    22.843289    43.293384    18.435149
     769      1      2  0.10263900    23.699667    42.410826    20.554488
     770      1      2  0.10263900    23.454584    43.300318    22.038762
     771      1      1  0.13903400    21.794231    45.199290    22.155906
     772      1      1  0.13900800    20.922230    47.133887    20.919229
     773      1      4 -0.05697500    -5.665637    -2.019478     9.585975
     774      1      4 -0.13833500    -6.060410    -0.905147    10.333619
     775      1      4 -0.09890000    -6.894669    -1.055072    11.445722
     776      1      4 -0.04755700    -7.346369    -2.322518    11.849947
     777      1      4  0.08086500    -8.221249    -2.499863    13.022275
     778      1      6 -0.23009600    -9.364300    -3.194553    12.755676
     779      1      5  0.01844500   -10.245684    -3.355261    13.757686
     780      1      4 -0.08637200   -11.427804    -4.051096    13.526600
     781      1      4 -0.02334500   -12.389170    -4.252553    14.531236
     782      1      4 -0.03029700   -13.629280    -4.996978    14.259298
     783      1      4 -0.10439200   -13.600512    -6.261047    13.660631
     784      1      4 -0.10674700   -14.786228    -6.956683    13.408465
     785      1      5  0.03832600   -16.021307    -6.419441    13.739319
     786      1      6 -0.34498300   -17.142490    -7.118142    13.485211
     787      1      4  0.12724200   -18.328843    -6.545749    13.832561
     788      1      4  0.07441200   -18.380845    -5.277384    14.419240
     789      1      4 -0.04499800   -19.614665    -4.589205    14.817841
     790      1      4 -0.09477200   -19.879196    -4.335751    16.174252
     791      1      4 -0.14192800   -21.052384    -3.689085    16.569707
     792      1      4 -0.12090000   -21.976377    -3.276677    15.613123
     793      1      4 -0.14440100   -21.724582    -3.502851    14.261838
     794      1      4 -0.09697900   -20.550442    -4.149253    13.867100
     795      1      6 -0.21826300   -17.243371    -4.581706    14.684061
     796      1      5  0.01186300   -16.071682    -5.146434    14.343798
     797      1      4 -0.08136700   -14.885418    -4.463722    14.590994
     798      1      4 -0.10668500   -12.123556    -3.721026    15.798333
     799      1      4 -0.10176900   -10.939893    -3.018674    16.040527
     800      1      5  0.02287100    -9.997348    -2.828099    15.041556
     801      1      6 -0.23273600    -8.867754    -2.154357    15.316608
     802      1      4  0.08165100    -7.961793    -2.000073    14.308770
     803      1      4 -0.04131500    -6.727429    -1.304998    14.719526
     804      1      4 -0.09104100    -5.452620    -1.846572    14.476146
     805      1      4 -0.14421900    -4.293503    -1.173170    14.872337
     806      1      4 -0.11891100    -4.387665     0.049555    15.531536
     807      1      4 -0.14129100    -5.638855     0.597155    15.799114
     808      1      4 -0.09914600    -6.796968    -0.076256    15.400753
     809      1      4 -0.08956900    -6.951232    -3.432101    11.083191
     810      1      4 -0.14212200    -6.116291    -3.285917     9.971353
     811      1      1  0.14699500    -5.722196     0.090984    10.055968
     812      1      1  0.14838800    -7.191614    -0.163407    11.994945
     813      1      1  0.16802800   -11.601995    -4.434334    12.522719
     814      1      1  0.15719700   -12.653326    -6.725900    13.393237
     815      1      1  0.16582200   -14.744678    -7.939373    12.945703
     816      1      1  0.16469300   -19.161072    -4.642379    16.932737
     817      1      1  0.14649400   -21.240197    -3.503139    17.623990
     818      1      1  0.14168800   -22.888041    -2.770447    15.919987
     819      1      1  0.14507600   -22.439396    -3.171077    13.513068
     820      1      1  0.14731300   -20.367363    -4.297005    12.805126
     821      1      1  0.16854700   -14.955252    -3.476990    15.046282
     822      1      1  0.15784300   -12.828012    -3.858823    16.617509
     823      1      1  0.16816500   -10.745208    -2.616984    17.032469
     824      1      1  0.15320100    -5.349500    -2.808008    13.976944
     825      1      1  0.14657000    -3.318268    -1.608516    14.667386
     826      1      1  0.14283500    -3.486569     0.571439    15.843673
     827      1      1  0.14665800    -5.716943     1.546297    16.323368
     828      1      1  0.14915500    -7.767956     0.361224    15.629135
     829      1      1  0.15340600    -7.298740    -4.427617    11.355740
     830      1      1  0.14666200    -5.824079    -4.169684     9.408342
     831      1      3 -0.09455600    27.520124    62.430716    20.853245
     832      1      4 -0.09581400    27.167909    62.038116    22.270199
     833      1      4 -0.13503400    25.847790    61.714912    22.612766
     834      1      4 -0.14682200    25.514546    61.383629    23.927897
     835      1      4 -0.08760300    26.494391    61.371811    24.928945
     836      1      3 -0.10676900    26.128396    61.048784    26.360043
     837      1      4 -0.14029000    27.814842    61.691963    24.586303
     838      1      4 -0.13581700    28.147763    62.023529    23.271025
     839      1      2  0.11145400    28.559157    62.773863    20.790271
     840      1      2  0.11145400    26.920339    63.315098    20.593665
     841      1      1  0.13146100    25.066794    61.727139    21.853824
     842      1      1  0.12729700    24.480289    61.144658    24.165444
     843      1      2  0.09519900    25.143040    60.566429    26.402560
     844      1      2  0.09519900    26.829573    60.294894    26.742391
     845      1      1  0.13160200    28.592900    61.697174    25.346835
     846      1      1  0.13903900    29.181249    62.271685    23.036454
     847      1      3 -0.12669500    21.845082    41.938135    21.600101
     848      1      4 -0.08305500    21.305894    41.077440    20.482510
     849      1      4 -0.12222800    22.011055    39.945454    20.055668
     850      1      4 -0.13099500    21.512462    39.144848    19.025480
     851      1      4 -0.08622300    20.302053    39.464106    18.398328
     852      1      3 -0.13054000    19.751137    38.589354    17.301518
     853      1      4 -0.13740100    19.604179    40.603620    18.816256
     854      1      4 -0.13483000    20.102148    41.403785    19.847735
     855      1      2  0.09896500    21.020052    42.466781    22.094851
     856      1      2  0.09896500    22.267286    41.271415    22.363834
     857      1      1  0.14508100    22.952787    39.672588    20.527902
     858      1      1  0.14021900    22.075682    38.264795    18.724249
     859      1      2  0.09757600    19.734266    37.552893    17.661766
     860      1      2  0.09757600    18.707074    38.860452    17.103582
     861      1      1  0.13633200    18.663283    40.878854    18.345008
     862      1      1  0.13725300    19.543536    42.288087    20.148055
     863      1      3 -0.06753000   -21.097146    -9.466748    11.907587
     864      1      7 -0.38790000   -21.124994    -8.048452    11.808975
     865      1      3  0.00296800   -19.853959    -7.444131    12.063864
     866      1      3 -0.17658400   -19.548115    -7.382282    13.558782
     867      1      2  0.07130400   -20.888962    -9.782535    12.933434
     868      1      2  0.07130400   -20.353619    -9.887215    11.223360
     869      1      2  0.07130400   -22.082940    -9.847903    11.626359
     870      1      2  0.09451400   -19.067180    -7.965985    11.504968
     871      1      2  0.09451400   -19.908475    -6.429706    11.653670
     872      1      2  0.11305300   -20.426519    -7.031974    14.111188
     873      1      2  0.11305300   -19.363546    -8.393205    13.943558
     874      1      4 -0.05778500    26.114843    62.260449    27.264171
     875      1      4 -0.13997600    25.091358    63.210814    27.165190
     876      1      4 -0.10001000    25.096769    64.347725    27.978778
     877      1      4 -0.04506600    26.128761    64.575094    28.904323
     878      1      4  0.07939300    26.134375    65.796901    29.727334
     879      1      6 -0.22864300    24.978826    65.998739    30.423321
     880      1      5  0.01792800    24.918794    67.067912    31.235763
     881      1      4 -0.08621000    23.762426    67.305870    31.971648
     882      1      4 -0.02386200    23.635880    68.403759    32.838748
     883      1      4 -0.02884500    22.399052    68.634226    33.605018
     884      1      4 -0.10631700    21.143828    68.600749    32.987452
     885      1      4 -0.10173700    19.979392    68.826823    33.727081
     886      1      5  0.02641100    20.029387    69.090156    35.087539
     887      1      6 -0.29341300    18.889092    69.310329    35.767052
     888      1      4  0.11268600    18.993537    69.557818    37.101968
     889      1      4  0.05898600    20.237659    69.590201    37.739736
     890      1      4 -0.03591200    20.434296    69.859953    39.167407
     891      1      4 -0.09591500    21.017164    71.065896    39.590268
     892      1      4 -0.14011200    21.205924    71.333960    40.948037
     893      1      4 -0.12269700    20.823811    70.394774    41.903158
     894      1      4 -0.13920700    20.260704    69.185280    41.502612
     895      1      4 -0.11380500    20.072288    68.917822    40.144426
     896      1      6 -0.22122200    21.387415    69.382479    37.046010
     897      1      5  0.01114700    21.284265    69.127895    35.729715
     898      1      4 -0.08411500    22.436066    68.899723    34.984141
     899      1      4 -0.10684000    24.729112    69.270746    32.946341
     900      1      4 -0.10257500    25.896371    69.040452    32.213341
     901      1      5  0.02240200    26.008595    67.953405    31.360598
     902      1      6 -0.23280800    27.145847    67.768535    30.669289
     903      1      4  0.08077000    27.209950    66.693571    29.832832
     904      1      4 -0.04166300    28.472851    66.603208    29.075808
     905      1      4 -0.09156700    29.708383    66.682029    29.744279
     906      1      4 -0.14438800    30.916782    66.595758    29.047561
     907      1      4 -0.11932100    30.912479    66.437344    27.664400
     908      1      4 -0.14127700    29.702537    66.373148    26.977716
     909      1      4 -0.09976800    28.494655    66.462074    27.676480
     910      1      4 -0.09026400    27.135337    63.601483    29.015290
     911      1      4 -0.13340400    27.133361    62.462833    28.202496
     912      1      1  0.14569200    24.286007    63.078019    26.446444
     913      1      1  0.14848900    24.288839    65.070965    27.881307
     914      1      1  0.16854600    22.943021    66.596512    31.868307
     915      1      1  0.15741500    21.055670    68.411579    31.918863
     916      1      1  0.16881800    19.013052    68.800295    33.229510
     917      1      1  0.15351800    21.331929    71.803643    38.854112
     918      1      1  0.14731200    21.656089    72.273600    41.257966
     919      1      1  0.14376400    20.973383    70.601666    42.959430
     920      1      1  0.14634600    19.973723    68.446572    42.247188
     921      1      1  0.14430500    19.645747    67.960990    39.850194
     922      1      1  0.16687300    23.389673    68.921072    35.509247
     923      1      1  0.15778300    24.682779    70.144845    33.593767
     924      1      1  0.16782900    26.734463    69.727368    32.305767
     925      1      1  0.15293500    29.730151    66.815017    30.825045
     926      1      1  0.14630300    31.859086    66.658050    29.586880
     927      1      1  0.14261400    31.851507    66.372880    27.121077
     928      1      1  0.14648300    29.694640    66.258605    25.896748
     929      1      1  0.14869200    27.565252    66.424252    27.110710
     930      1      1  0.15437600    27.941099    63.723036    29.737320
     931      1      1  0.15090800    27.939140    61.739702    28.307547
     932      1      3 -0.20832100    20.556352    38.686262    16.005467
     933      1      3  0.00428300    19.953200    37.793460    14.924027
     934      1      7 -0.38593200    20.813503    37.649715    13.796128
     935      1      3  0.00582600    20.866395    38.803889    12.963148
     936      1      3 -0.20233200    21.651468    38.456678    11.700317
     937      1      2  0.10327500    21.601636    38.401361    16.171588
     938      1      2  0.10327500    20.586882    39.726302    15.659116
     939      1      2  0.09915300    18.972355    38.160904    14.604385
     940      1      2  0.09915300    19.812434    36.784426    15.324132
     941      1      2  0.10201100    19.854574    39.137957    12.710127
     942      1      2  0.10201100    21.379221    39.614581    13.491441
     943      1      2  0.08879900    22.678581    38.200894    11.988925
     944      1      2  0.08879900    21.708050    39.337644    11.051598
     945      1      3 -0.06753000    15.019647    71.453785    37.734994
     946      1      7 -0.38790000    16.196960    71.657732    38.504594
     947      1      3  0.00296800    17.394872    71.358172    37.783350
     948      1      3 -0.17658400    17.697805    69.861846    37.802840
     949      1      2  0.07130400    14.906790    70.402063    37.460190
     950      1      2  0.07130400    15.034498    72.079419    36.837945
     951      1      2  0.07130400    14.159351    71.743095    38.344657
     952      1      2  0.09451400    17.334547    71.749693    36.760062
     953      1      2  0.09451400    18.201132    71.906746    38.281937
     954      1      2  0.11305300    16.892280    69.312974    37.299999
     955      1      2  0.11305300    17.687317    69.481618    38.829268
     956      1      3 -0.05519500    18.562002    35.461144    10.280040
     957      1      7 -0.37721700    19.288958    36.423577     9.524617
     958      1      3  0.00637900    19.705157    37.535042    10.321538
     959      1      3 -0.21316900    21.084405    37.267770    10.919660
     960      1      2  0.08271400    17.631052    35.898202    10.652269
     961      1      2  0.08271400    18.310857    34.625735     9.619462
     962      1      2  0.08271400    19.161958    35.081144    11.111767
     963      1      2  0.09418400    18.956167    37.760272    11.088668
     964      1      2  0.09418400    19.759733    38.401712     9.653611
     965      1      2  0.10134600    21.778076    37.016799    10.107797
     966      1      2  0.10134600    21.052340    36.374854    11.554014

Bonds

       1      1        1        2
       2      1        2        3
       3      2        3        4
       4      3        1        5
       5      3        1        6
       6      3        1        7
       7      3        3        8
       8      3        3        9
       9      3        4       10
      10      3        4       11
      11      2       12       13
      12      3       12       14
      13      3       12       15
      14      3       13       16
      15      3       13       17
      16      2        4       12
      17      2       18       19
      18      3       18       20
      19      3       18       21
      20      3       19       22
      21      3       19       23
      22      2       13       18
      23      4       24       25
      24      4       25       26
      25      4       26       27
      26      5       27       28
      27      6       28       29
      28      7       29       30
      29      8       30       31
      30      4       31       32
      31      5       32       33
      32      4       33       34
      33      4       34       35
      34      8       35       36
      35      7       36       37
      36      6       37       38
      37      5       38       39
      38      5       39       40
      39      4       40       41
      40      4       41       42
      41      4       42       43
      42      4       43       44
      43      4       44       45
      44      6       39       46
      45      7       46       47
      46      8       47       48
      47      4       32       49
      48      4       49       50
      49      8       50       51
      50      7       51       52
      51      6       52       53
      52      5       53       54
      53      4       54       55
      54      4       55       56
      55      4       56       57
      56      4       57       58
      57      4       58       59
      58      4       27       60
      59      4       60       61
      60      4       61       24
      61      5       53       28
      62      4       59       54
      63      9       51       30
      64      4       48       33
      65      9       47       36
      66      4       45       40
      67     10       25       62
      68     10       26       63
      69     10       31       64
      70     10       34       65
      71     10       35       66
      72     10       41       67
      73     10       42       68
      74     10       43       69
      75     10       44       70
      76     10       45       71
      77     10       48       72
      78     10       49       73
      79     10       50       74
      80     10       55       75
      81     10       56       76
      82     10       57       77
      83     10       58       78
      84     10       59       79
      85     10       60       80
      86     10       61       81
      87     11       19       24
      88      4       82       83
      89      4       83       84
      90      4       84       85
      91      5       85       86
      92      6       86       87
      93      7       87       88
      94      8       88       89
      95      4       89       90
      96      5       90       91
      97      4       91       92
      98      4       92       93
      99      8       93       94
     100      7       94       95
     101      6       95       96
     102      5       96       97
     103      5       97       98
     104      4       98       99
     105      4       99      100
     106      4      100      101
     107      4      101      102
     108      4      102      103
     109      6       97      104
     110      7      104      105
     111      8      105      106
     112      4       90      107
     113      4      107      108
     114      8      108      109
     115      7      109      110
     116      6      110      111
     117      5      111      112
     118      4      112      113
     119      4      113      114
     120      4      114      115
     121      4      115      116
     122      4      116      117
     123      4       85      118
     124      4      118      119
     125      4      119       82
     126      5      111       86
     127      4      117      112
     128      9      109       88
     129      4      106       91
     130      9      105       94
     131      4      103       98
     132     10       83      120
     133     10       84      121
     134     10       89      122
     135     10       92      123
     136     10       93      124
     137     10       99      125
     138     10      100      126
     139     10      101      127
     140     10      102      128
     141     10      103      129
     142     10      106      130
     143     10      107      131
     144     10      108      132
     145     10      113      133
     146     10      114      134
     147     10      115      135
     148     10      116      136
     149     10      117      137
     150     10      118      138
     151     10      119      139
     152      5       38       82
     153      4      140      141
     154      4      141      142
     155      4      142      143
     156      5      143      144
     157      6      144      145
     158      7      145      146
     159      8      146      147
     160      4      147      148
     161      5      148      149
     162      4      149      150
     163      4      150      151
     164      8      151      152
     165      7      152      153
     166      6      153      154
     167      4      154      155
     168      5      155      156
     169      4      156      157
     170      4      157      158
     171      4      158      159
     172      4      159      160
     173      4      160      161
     174      6      155      162
     175      7      162      163
     176      8      163      164
     177      4      148      165
     178      4      165      166
     179      8      166      167
     180      7      167      168
     181      6      168      169
     182      5      169      170
     183      4      170      171
     184      4      171      172
     185      4      172      173
     186      4      173      174
     187      4      174      175
     188      4      143      176
     189      4      176      177
     190      4      177      140
     191      5      169      144
     192      4      175      170
     193      9      167      146
     194      4      164      149
     195      9      163      152
     196      4      161      156
     197     10      141      178
     198     10      142      179
     199     10      147      180
     200     10      150      181
     201     10      151      182
     202     10      157      183
     203     10      158      184
     204     10      159      185
     205     10      160      186
     206     10      161      187
     207     10      164      188
     208     10      165      189
     209     10      166      190
     210     10      171      191
     211     10      172      192
     212     10      173      193
     213     10      174      194
     214     10      175      195
     215     10      176      196
     216     10      177      197
     217      5       96      140
     218      2      198      199
     219      1      199      200
     220      1      200      201
     221      2      201      202
     222      3      198      203
     223      3      198      204
     224      3      199      205
     225      3      199      206
     226      3      201      207
     227      3      201      208
     228      3      202      209
     229      3      202      210
     230     11      154      198
     231      2      211      212
     232      3      211      213
     233      3      211      214
     234      3      212      215
     235      3      212      216
     236      2      202      211
     237      4      217      218
     238      4      218      219
     239      4      219      220
     240      5      220      221
     241      6      221      222
     242      7      222      223
     243      8      223      224
     244      4      224      225
     245      5      225      226
     246      4      226      227
     247      4      227      228
     248      8      228      229
     249      7      229      230
     250      6      230      231
     251      4      231      232
     252      5      232      233
     253      4      233      234
     254      4      234      235
     255      4      235      236
     256      4      236      237
     257      4      237      238
     258      6      232      239
     259      7      239      240
     260      8      240      241
     261      4      225      242
     262      4      242      243
     263      8      243      244
     264      7      244      245
     265      6      245      246
     266      5      246      247
     267      4      247      248
     268      4      248      249
     269      4      249      250
     270      4      250      251
     271      4      251      252
     272      4      220      253
     273      4      253      254
     274      4      254      217
     275      5      246      221
     276      4      252      247
     277      9      244      223
     278      4      241      226
     279      9      240      229
     280      4      238      233
     281     10      218      255
     282     10      219      256
     283     10      224      257
     284     10      227      258
     285     10      228      259
     286     10      234      260
     287     10      235      261
     288     10      236      262
     289     10      237      263
     290     10      238      264
     291     10      241      265
     292     10      242      266
     293     10      243      267
     294     10      248      268
     295     10      249      269
     296     10      250      270
     297     10      251      271
     298     10      252      272
     299     10      253      273
     300     10      254      274
     301     11      212      217
     302     11      275      276
     303      4      276      277
     304      4      277      278
     305      4      278      279
     306     11      279      280
     307      4      279      281
     308      4      281      282
     309      4      282      276
     310      3      275      283
     311      3      275      284
     312     10      277      285
     313     10      278      286
     314      3      280      287
     315      3      280      288
     316     10      281      289
     317     10      282      290
     318     11      231      275
     319      2      291      292
     320     12      292      293
     321     13      293      294
     322     13      293      295
     323     12      293      296
     324      2      296      297
     325      2      296      298
     326      1      298      299
     327      2      296      300
     328      1      300      301
     329      3      291      302
     330      3      291      303
     331      3      292      304
     332      3      292      305
     333      3      297      306
     334      3      297      307
     335      3      298      308
     336      3      298      309
     337      3      300      310
     338      3      300      311
     339      2      280      291
     340      2      312      313
     341      1      313      314
     342      1      314      315
     343      2      315      316
     344      3      312      317
     345      3      312      318
     346      3      313      319
     347      3      313      320
     348      3      315      321
     349      3      315      322
     350      3      316      323
     351      3      316      324
     352      2      297      312
     353      2      325      326
     354      1      326      327
     355      1      327      328
     356      2      328      329
     357      3      325      330
     358      3      325      331
     359      3      326      332
     360      3      326      333
     361      3      328      334
     362      3      328      335
     363      3      329      336
     364      3      329      337
     365      1      299      325
     366      2      338      339
     367      3      338      340
     368      3      338      341
     369      3      339      342
     370      3      339      343
     371      1      301      338
     372      2      344      345
     373      1      345      346
     374      1      346      347
     375      2      347      348
     376      3      344      349
     377      3      344      350
     378      3      345      351
     379      3      345      352
     380      3      347      353
     381      3      347      354
     382      3      348      355
     383      3      348      356
     384      2      316      344
     385      2      357      358
     386      3      357      359
     387      3      357      360
     388      3      358      361
     389      3      358      362
     390      2      329      357
     391      2      363      364
     392      1      364      365
     393      1      365      366
     394      2      366      367
     395      3      363      368
     396      3      363      369
     397      3      364      370
     398      3      364      371
     399      3      366      372
     400      3      366      373
     401      3      367      374
     402      3      367      375
     403      2      339      363
     404     11      376      377
     405      4      377      378
     406      4      378      379
     407      4      379      380
     408     11      380      381
     409      4      380      382
     410      4      382      383
     411      4      383      377
     412      3      376      384
     413      3      376      385
     414     10      378      386
     415     10      379      387
     416      3      381      388
     417      3      381      389
     418     10      382      390
     419     10      383      391
     420      2      348      376
     421      4      392      393
     422      4      393      394
     423      4      394      395
     424      5      395      396
     425      6      396      397
     426      7      397      398
     427      8      398      399
     428      4      399      400
     429      5      400      401
     430      4      401      402
     431      4      402      403
     432      8      403      404
     433      7      404      405
     434      6      405      406
     435      4      406      407
     436      5      407      408
     437      4      408      409
     438      4      409      410
     439      4      410      411
     440      4      411      412
     441      4      412      413
     442      6      407      414
     443      7      414      415
     444      8      415      416
     445      4      400      417
     446      4      417      418
     447      8      418      419
     448      7      419      420
     449      6      420      421
     450      5      421      422
     451      4      422      423
     452      4      423      424
     453      4      424      425
     454      4      425      426
     455      4      426      427
     456      4      395      428
     457      4      428      429
     458      4      429      392
     459      5      421      396
     460      4      427      422
     461      9      419      398
     462      4      416      401
     463      9      415      404
     464      4      413      408
     465     10      393      430
     466     10      394      431
     467     10      399      432
     468     10      402      433
     469     10      403      434
     470     10      409      435
     471     10      410      436
     472     10      411      437
     473     10      412      438
     474     10      413      439
     475     10      416      440
     476     10      417      441
     477     10      418      442
     478     10      423      443
     479     10      424      444
     480     10      425      445
     481     10      426      446
     482     10      427      447
     483     10      428      448
     484     10      429      449
     485     11      358      392
     486      2      450      451
     487      3      450      452
     488      3      450      453
     489      3      451      454
     490      3      451      455
     491      2      367      450
     492      4      456      457
     493      4      457      458
     494      4      458      459
     495      5      459      460
     496      6      460      461
     497      7      461      462
     498      8      462      463
     499      4      463      464
     500      5      464      465
     501      4      465      466
     502      4      466      467
     503      8      467      468
     504      7      468      469
     505      6      469      470
     506      5      470      471
     507      5      471      472
     508      4      472      473
     509      4      473      474
     510      4      474      475
     511      4      475      476
     512      4      476      477
     513      6      471      478
     514      7      478      479
     515      8      479      480
     516      4      464      481
     517      4      481      482
     518      8      482      483
     519      7      483      484
     520      6      484      485
     521      5      485      486
     522      4      486      487
     523      4      487      488
     524      4      488      489
     525      4      489      490
     526      4      490      491
     527      4      459      492
     528      4      492      493
     529      4      493      456
     530      5      485      460
     531      4      491      486
     532      9      483      462
     533      4      480      465
     534      9      479      468
     535      4      477      472
     536     10      457      494
     537     10      458      495
     538     10      463      496
     539     10      466      497
     540     10      467      498
     541     10      473      499
     542     10      474      500
     543     10      475      501
     544     10      476      502
     545     10      477      503
     546     10      480      504
     547     10      481      505
     548     10      482      506
     549     10      487      507
     550     10      488      508
     551     10      489      509
     552     10      490      510
     553     10      491      511
     554     10      492      512
     555     10      493      513
     556     11      381      456
     557     11      514      515
     558      4      515      516
     559      4      516      517
     560      4      517      518
     561     11      518      519
     562      4      518      520
     563      4      520      521
     564      4      521      515
     565      3      514      522
     566      3      514      523
     567     10      516      524
     568     10      517      525
     569      3      519      526
     570      3      519      527
     571     10      520      528
     572     10      521      529
     573     11      406      514
     574      4      530      531
     575      4      531      532
     576      4      532      533
     577      5      533      534
     578      6      534      535
     579      7      535      536
     580      8      536      537
     581      4      537      538
     582      5      538      539
     583      4      539      540
     584      4      540      541
     585      8      541      542
     586      7      542      543
     587      6      543      544
     588      4      544      545
     589      5      545      546
     590      4      546      547
     591      4      547      548
     592      4      548      549
     593      4      549      550
     594      4      550      551
     595      6      545      552
     596      7      552      553
     597      8      553      554
     598      4      538      555
     599      4      555      556
     600      8      556      557
     601      7      557      558
     602      6      558      559
     603      5      559      560
     604      4      560      561
     605      4      561      562
     606      4      562      563
     607      4      563      564
     608      4      564      565
     609      4      533      566
     610      4      566      567
     611      4      567      530
     612      5      559      534
     613      4      565      560
     614      9      557      536
     615      4      554      539
     616      9      553      542
     617      4      551      546
     618     10      531      568
     619     10      532      569
     620     10      537      570
     621     10      540      571
     622     10      541      572
     623     10      547      573
     624     10      548      574
     625     10      549      575
     626     10      550      576
     627     10      551      577
     628     10      554      578
     629     10      555      579
     630     10      556      580
     631     10      561      581
     632     10      562      582
     633     10      563      583
     634     10      564      584
     635     10      565      585
     636     10      566      586
     637     10      567      587
     638     11      451      530
     639      4      588      589
     640      4      589      590
     641      4      590      591
     642      5      591      592
     643      6      592      593
     644      7      593      594
     645      8      594      595
     646      4      595      596
     647      5      596      597
     648      4      597      598
     649      4      598      599
     650      8      599      600
     651      7      600      601
     652      6      601      602
     653      4      602      603
     654      5      603      604
     655      4      604      605
     656      4      605      606
     657      4      606      607
     658      4      607      608
     659      4      608      609
     660      6      603      610
     661      7      610      611
     662      8      611      612
     663      4      596      613
     664      4      613      614
     665      8      614      615
     666      7      615      616
     667      6      616      617
     668      5      617      618
     669      4      618      619
     670      4      619      620
     671      4      620      621
     672      4      621      622
     673      4      622      623
     674      4      591      624
     675      4      624      625
     676      4      625      588
     677      5      617      592
     678      4      623      618
     679      9      615      594
     680      4      612      597
     681      9      611      600
     682      4      609      604
     683     10      589      626
     684     10      590      627
     685     10      595      628
     686     10      598      629
     687     10      599      630
     688     10      605      631
     689     10      606      632
     690     10      607      633
     691     10      608      634
     692     10      609      635
     693     10      612      636
     694     10      613      637
     695     10      614      638
     696     10      619      639
     697     10      620      640
     698     10      621      641
     699     10      622      642
     700     10      623      643
     701     10      624      644
     702     10      625      645
     703      5      470      588
     704      2      646      647
     705      1      647      648
     706      1      648      649
     707      2      649      650
     708      3      646      651
     709      3      646      652
     710      3      647      653
     711      3      647      654
     712      3      649      655
     713      3      649      656
     714      3      650      657
     715      3      650      658
     716      2      519      646
     717      2      659      660
     718      3      659      661
     719      3      659      662
     720      3      660      663
     721      3      660      664
     722     11      544      659
     723     11      665      666
     724      4      666      667
     725      4      667      668
     726      4      668      669
     727     11      669      670
     728      4      669      671
     729      4      671      672
     730      4      672      666
     731      3      665      673
     732      3      665      674
     733     10      667      675
     734     10      668      676
     735      3      670      677
     736      3      670      678
     737     10      671      679
     738     10      672      680
     739     11      602      665
     740      2      681      682
     741      3      681      683
     742      3      681      684
     743      3      682      685
     744      3      682      686
     745      2      650      681
     746      2      687      688
     747      3      687      689
     748      3      687      690
     749      3      688      691
     750      3      688      692
     751      2      660      687
     752      2      693      694
     753      3      693      695
     754      3      693      696
     755      3      694      697
     756      3      694      698
     757      2      670      693
     758      4      699      700
     759      4      700      701
     760      4      701      702
     761      5      702      703
     762      6      703      704
     763      7      704      705
     764      8      705      706
     765      4      706      707
     766      5      707      708
     767      4      708      709
     768      4      709      710
     769      8      710      711
     770      7      711      712
     771      6      712      713
     772      4      713      714
     773      5      714      715
     774      4      715      716
     775      4      716      717
     776      4      717      718
     777      4      718      719
     778      4      719      720
     779      6      714      721
     780      7      721      722
     781      8      722      723
     782      4      707      724
     783      4      724      725
     784      8      725      726
     785      7      726      727
     786      6      727      728
     787      5      728      729
     788      4      729      730
     789      4      730      731
     790      4      731      732
     791      4      732      733
     792      4      733      734
     793      4      702      735
     794      4      735      736
     795      4      736      699
     796      5      728      703
     797      4      734      729
     798      9      726      705
     799      4      723      708
     800      9      722      711
     801      4      720      715
     802     10      700      737
     803     10      701      738
     804     10      706      739
     805     10      709      740
     806     10      710      741
     807     10      716      742
     808     10      717      743
     809     10      718      744
     810     10      719      745
     811     10      720      746
     812     10      723      747
     813     10      724      748
     814     10      725      749
     815     10      730      750
     816     10      731      751
     817     10      732      752
     818     10      733      753
     819     10      734      754
     820     10      735      755
     821     10      736      756
     822     11      682      699
     823     11      757      758
     824      4      758      759
     825      4      759      760
     826      4      760      761
     827     11      761      762
     828      4      761      763
     829      4      763      764
     830      4      764      758
     831      3      757      765
     832      3      757      766
     833     10      759      767
     834     10      760      768
     835      3      762      769
     836      3      762      770
     837     10      763      771
     838     10      764      772
     839      2      688      757
     840      4      773      774
     841      4      774      775
     842      4      775      776
     843      5      776      777
     844      6      777      778
     845      7      778      779
     846      8      779      780
     847      4      780      781
     848      5      781      782
     849      4      782      783
     850      4      783      784
     851      8      784      785
     852      7      785      786
     853      6      786      787
     854      4      787      788
     855      5      788      789
     856      4      789      790
     857      4      790      791
     858      4      791      792
     859      4      792      793
     860      4      793      794
     861      6      788      795
     862      7      795      796
     863      8      796      797
     864      4      781      798
     865      4      798      799
     866      8      799      800
     867      7      800      801
     868      6      801      802
     869      5      802      803
     870      4      803      804
     871      4      804      805
     872      4      805      806
     873      4      806      807
     874      4      807      808
     875      4      776      809
     876      4      809      810
     877      4      810      773
     878      5      802      777
     879      4      808      803
     880      9      800      779
     881      4      797      782
     882      9      796      785
     883      4      794      789
     884     10      774      811
     885     10      775      812
     886     10      780      813
     887     10      783      814
     888     10      784      815
     889     10      790      816
     890     10      791      817
     891     10      792      818
     892     10      793      819
     893     10      794      820
     894     10      797      821
     895     10      798      822
     896     10      799      823
     897     10      804      824
     898     10      805      825
     899     10      806      826
     900     10      807      827
     901     10      808      828
     902     10      809      829
     903     10      810      830
     904     11      694      773
     905     11      831      832
     906      4      832      833
     907      4      833      834
     908      4      834      835
     909     11      835      836
     910      4      835      837
     911      4      837      838
     912      4      838      832
     913      3      831      839
     914      3      831      840
     915     10      833      841
     916     10      834      842
     917      3      836      843
     918      3      836      844
     919     10      837      845
     920     10      838      846
     921     11      713      831
     922     11      847      848
     923      4      848      849
     924      4      849      850
     925      4      850      851
     926     11      851      852
     927      4      851      853
     928      4      853      854
     929      4      854      848
     930      3      847      855
     931      3      847      856
     932     10      849      857
     933     10      850      858
     934      3      852      859
     935      3      852      860
     936     10      853      861
     937     10      854      862
     938      2      762      847
     939      1      863      864
     940      1      864      865
     941      2      865      866
     942      3      863      867
     943      3      863      868
     944      3      863      869
     945      3      865      870
     946      3      865      871
     947      3      866      872
     948      3      866      873
     949     11      787      866
     950      4      874      875
     951      4      875      876
     952      4      876      877
     953      5      877      878
     954      6      878      879
     955      7      879      880
     956      8      880      881
     957      4      881      882
     958      5      882      883
     959      4      883      884
     960      4      884      885
     961      8      885      886
     962      7      886      887
     963      6      887      888
     964      4      888      889
     965      5      889      890
     966      4      890      891
     967      4      891      892
     968      4      892      893
     969      4      893      894
     970      4      894      895
     971      6      889      896
     972      7      896      897
     973      8      897      898
     974      4      882      899
     975      4      899      900
     976      8      900      901
     977      7      901      902
     978      6      902      903
     979      5      903      904
     980      4      904      905
     981      4      905      906
     982      4      906      907
     983      4      907      908
     984      4      908      909
     985      4      877      910
     986      4      910      911
     987      4      911      874
     988      5      903      878
     989      4      909      904
     990      9      901      880
     991      4      898      883
     992      9      897      886
     993      4      895      890
     994     10      875      912
     995     10      876      913
     996     10      881      914
     997     10      884      915
     998     10      885      916
     999     10      891      917
    1000     10      892      918
    1001     10      893      919
    1002     10      894      920
    1003     10      895      921
    1004     10      898      922
    1005     10      899      923
    1006     10      900      924
    1007     10      905      925
    1008     10      906      926
    1009     10      907      927
    1010     10      908      928
    1011     10      909      929
    1012     10      910      930
    1013     10      911      931
    1014     11      836      874
    1015      2      932      933
    1016      1      933      934
    1017      1      934      935
    1018      2      935      936
    1019      3      932      937
    1020      3      932      938
    1021      3      933      939
    1022      3      933      940
    1023      3      935      941
    1024      3      935      942
    1025      3      936      943
    1026      3      936      944
    1027      2      852      932
    1028      1      945      946
    1029      1      946      947
    1030      2      947      948
    1031      3      945      949
    1032      3      945      950
    1033      3      945      951
    1034      3      947      952
    1035      3      947      953
    1036      3      948      954
    1037      3      948      955
    1038     11      888      948
    1039      1      956      957
    1040      1      957      958
    1041      2      958      959
    1042      3      956      960
    1043      3      956      961
    1044      3      956      962
    1045      3      958      963
    1046      3      958      964
    1047      3      959      965
    1048      3      959      966
    1049      2      936      959

Angles

       1      1        2        1        5
       2      1        2        1        6
       3      1        2        1        7
       4      2        5        1        6
       5      2        5        1        7
       6      2        6        1        7
       7      3        1        2        3
       8      4        2        3        4
       9      1        2        3        8
      10      1        2        3        9
      11      5        4        3        8
      12      5        4        3        9
      13      2        8        3        9
      14      5        3        4       10
      15      5        3        4       11
      16      6        3        4       12
      17      2       10        4       11
      18      5       10        4       12
      19      5       11        4       12
      20      5       13       12       14
      21      5       13       12       15
      22      6       13       12        4
      23      2       14       12       15
      24      5       14       12        4
      25      5       15       12        4
      26      5       12       13       16
      27      5       12       13       17
      28      6       12       13       18
      29      2       16       13       17
      30      5       16       13       18
      31      5       17       13       18
      32      5       19       18       20
      33      5       19       18       21
      34      6       19       18       13
      35      2       20       18       21
      36      5       20       18       13
      37      5       21       18       13
      38      5       18       19       22
      39      5       18       19       23
      40      7       18       19       24
      41      2       22       19       23
      42      1       22       19       24
      43      1       23       19       24
      44      8       25       24       61
      45      9       25       24       19
      46      9       61       24       19
      47      8       24       25       26
      48     10       24       25       62
      49     10       26       25       62
      50      8       25       26       27
      51     10       25       26       63
      52     10       27       26       63
      53      8       26       27       28
      54      8       26       27       60
      55      8       28       27       60
      56      9       27       28       29
      57      8       27       28       53
      58      9       29       28       53
      59     11       28       29       30
      60     12       29       30       31
      61     13       29       30       51
      62     14       31       30       51
      63      8       30       31       32
      64     10       30       31       64
      65     10       32       31       64
      66      8       31       32       33
      67      8       31       32       49
      68      8       33       32       49
      69      8       32       33       34
      70      8       32       33       48
      71      8       34       33       48
      72      8       33       34       35
      73     10       33       34       65
      74     10       35       34       65
      75      8       34       35       36
      76     10       34       35       66
      77     10       36       35       66
      78     12       35       36       37
      79     14       35       36       47
      80     13       37       36       47
      81     11       36       37       38
      82      9       37       38       39
      83      9       37       38       82
      84      8       39       38       82
      85      8       38       39       40
      86      9       38       39       46
      87      9       40       39       46
      88      8       39       40       41
      89      8       39       40       45
      90      8       41       40       45
      91      8       40       41       42
      92     10       40       41       67
      93     10       42       41       67
      94      8       41       42       43
      95     10       41       42       68
      96     10       43       42       68
      97      8       42       43       44
      98     10       42       43       69
      99     10       44       43       69
     100      8       43       44       45
     101     10       43       44       70
     102     10       45       44       70
     103      8       44       45       40
     104     10       44       45       71
     105     10       40       45       71
     106     11       39       46       47
     107     12       46       47       48
     108     13       46       47       36
     109     14       48       47       36
     110      8       47       48       33
     111     10       47       48       72
     112     10       33       48       72
     113      8       32       49       50
     114     10       32       49       73
     115     10       50       49       73
     116      8       49       50       51
     117     10       49       50       74
     118     10       51       50       74
     119     12       50       51       52
     120     14       50       51       30
     121     13       52       51       30
     122     11       51       52       53
     123      9       52       53       54
     124      9       52       53       28
     125      8       54       53       28
     126      8       53       54       55
     127      8       53       54       59
     128      8       55       54       59
     129      8       54       55       56
     130     10       54       55       75
     131     10       56       55       75
     132      8       55       56       57
     133     10       55       56       76
     134     10       57       56       76
     135      8       56       57       58
     136     10       56       57       77
     137     10       58       57       77
     138      8       57       58       59
     139     10       57       58       78
     140     10       59       58       78
     141      8       58       59       54
     142     10       58       59       79
     143     10       54       59       79
     144      8       27       60       61
     145     10       27       60       80
     146     10       61       60       80
     147      8       60       61       24
     148     10       60       61       81
     149     10       24       61       81
     150      8       83       82      119
     151      8       83       82       38
     152      8      119       82       38
     153      8       82       83       84
     154     10       82       83      120
     155     10       84       83      120
     156      8       83       84       85
     157     10       83       84      121
     158     10       85       84      121
     159      8       84       85       86
     160      8       84       85      118
     161      8       86       85      118
     162      9       85       86       87
     163      8       85       86      111
     164      9       87       86      111
     165     11       86       87       88
     166     12       87       88       89
     167     13       87       88      109
     168     14       89       88      109
     169      8       88       89       90
     170     10       88       89      122
     171     10       90       89      122
     172      8       89       90       91
     173      8       89       90      107
     174      8       91       90      107
     175      8       90       91       92
     176      8       90       91      106
     177      8       92       91      106
     178      8       91       92       93
     179     10       91       92      123
     180     10       93       92      123
     181      8       92       93       94
     182     10       92       93      124
     183     10       94       93      124
     184     12       93       94       95
     185     14       93       94      105
     186     13       95       94      105
     187     11       94       95       96
     188      9       95       96       97
     189      9       95       96      140
     190      8       97       96      140
     191      8       96       97       98
     192      9       96       97      104
     193      9       98       97      104
     194      8       97       98       99
     195      8       97       98      103
     196      8       99       98      103
     197      8       98       99      100
     198     10       98       99      125
     199     10      100       99      125
     200      8       99      100      101
     201     10       99      100      126
     202     10      101      100      126
     203      8      100      101      102
     204     10      100      101      127
     205     10      102      101      127
     206      8      101      102      103
     207     10      101      102      128
     208     10      103      102      128
     209      8      102      103       98
     210     10      102      103      129
     211     10       98      103      129
     212     11       97      104      105
     213     12      104      105      106
     214     13      104      105       94
     215     14      106      105       94
     216      8      105      106       91
     217     10      105      106      130
     218     10       91      106      130
     219      8       90      107      108
     220     10       90      107      131
     221     10      108      107      131
     222      8      107      108      109
     223     10      107      108      132
     224     10      109      108      132
     225     12      108      109      110
     226     14      108      109       88
     227     13      110      109       88
     228     11      109      110      111
     229      9      110      111      112
     230      9      110      111       86
     231      8      112      111       86
     232      8      111      112      113
     233      8      111      112      117
     234      8      113      112      117
     235      8      112      113      114
     236     10      112      113      133
     237     10      114      113      133
     238      8      113      114      115
     239     10      113      114      134
     240     10      115      114      134
     241      8      114      115      116
     242     10      114      115      135
     243     10      116      115      135
     244      8      115      116      117
     245     10      115      116      136
     246     10      117      116      136
     247      8      116      117      112
     248     10      116      117      137
     249     10      112      117      137
     250      8       85      118      119
     251     10       85      118      138
     252     10      119      118      138
     253      8      118      119       82
     254     10      118      119      139
     255     10       82      119      139
     256      8      141      140      177
     257      8      141      140       96
     258      8      177      140       96
     259      8      140      141      142
     260     10      140      141      178
     261     10      142      141      178
     262      8      141      142      143
     263     10      141      142      179
     264     10      143      142      179
     265      8      142      143      144
     266      8      142      143      176
     267      8      144      143      176
     268      9      143      144      145
     269      8      143      144      169
     270      9      145      144      169
     271     11      144      145      146
     272     12      145      146      147
     273     13      145      146      167
     274     14      147      146      167
     275      8      146      147      148
     276     10      146      147      180
     277     10      148      147      180
     278      8      147      148      149
     279      8      147      148      165
     280      8      149      148      165
     281      8      148      149      150
     282      8      148      149      164
     283      8      150      149      164
     284      8      149      150      151
     285     10      149      150      181
     286     10      151      150      181
     287      8      150      151      152
     288     10      150      151      182
     289     10      152      151      182
     290     12      151      152      153
     291     14      151      152      163
     292     13      153      152      163
     293     15      152      153      154
     294     16      153      154      155
     295     17      153      154      198
     296      9      155      154      198
     297      8      154      155      156
     298     16      154      155      162
     299      9      156      155      162
     300      8      155      156      157
     301      8      155      156      161
     302      8      157      156      161
     303      8      156      157      158
     304     10      156      157      183
     305     10      158      157      183
     306      8      157      158      159
     307     10      157      158      184
     308     10      159      158      184
     309      8      158      159      160
     310     10      158      159      185
     311     10      160      159      185
     312      8      159      160      161
     313     10      159      160      186
     314     10      161      160      186
     315      8      160      161      156
     316     10      160      161      187
     317     10      156      161      187
     318     11      155      162      163
     319     12      162      163      164
     320     13      162      163      152
     321     14      164      163      152
     322      8      163      164      149
     323     10      163      164      188
     324     10      149      164      188
     325      8      148      165      166
     326     10      148      165      189
     327     10      166      165      189
     328      8      165      166      167
     329     10      165      166      190
     330     10      167      166      190
     331     12      166      167      168
     332     14      166      167      146
     333     13      168      167      146
     334     11      167      168      169
     335      9      168      169      170
     336      9      168      169      144
     337      8      170      169      144
     338      8      169      170      171
     339      8      169      170      175
     340      8      171      170      175
     341      8      170      171      172
     342     10      170      171      191
     343     10      172      171      191
     344      8      171      172      173
     345     10      171      172      192
     346     10      173      172      192
     347      8      172      173      174
     348     10      172      173      193
     349     10      174      173      193
     350      8      173      174      175
     351     10      173      174      194
     352     10      175      174      194
     353      8      174      175      170
     354     10      174      175      195
     355     10      170      175      195
     356      8      143      176      177
     357     10      143      176      196
     358     10      177      176      196
     359      8      176      177      140
     360     10      176      177      197
     361     10      140      177      197
     362      5      199      198      203
     363      5      199      198      204
     364      7      199      198      154
     365      2      203      198      204
     366      1      203      198      154
     367      1      204      198      154
     368      4      198      199      200
     369      5      198      199      205
     370      5      198      199      206
     371      1      200      199      205
     372      1      200      199      206
     373      2      205      199      206
     374      3      199      200      201
     375      4      200      201      202
     376      1      200      201      207
     377      1      200      201      208
     378      5      202      201      207
     379      5      202      201      208
     380      2      207      201      208
     381      5      201      202      209
     382      5      201      202      210
     383      6      201      202      211
     384      2      209      202      210
     385      5      209      202      211
     386      5      210      202      211
     387      5      212      211      213
     388      5      212      211      214
     389      6      212      211      202
     390      2      213      211      214
     391      5      213      211      202
     392      5      214      211      202
     393      5      211      212      215
     394      5      211      212      216
     395      7      211      212      217
     396      2      215      212      216
     397      1      215      212      217
     398      1      216      212      217
     399      8      218      217      254
     400      9      218      217      212
     401      9      254      217      212
     402      8      217      218      219
     403     10      217      218      255
     404     10      219      218      255
     405      8      218      219      220
     406     10      218      219      256
     407     10      220      219      256
     408      8      219      220      221
     409      8      219      220      253
     410      8      221      220      253
     411      9      220      221      222
     412      8      220      221      246
     413      9      222      221      246
     414     11      221      222      223
     415     12      222      223      224
     416     13      222      223      244
     417     14      224      223      244
     418      8      223      224      225
     419     10      223      224      257
     420     10      225      224      257
     421      8      224      225      226
     422      8      224      225      242
     423      8      226      225      242
     424      8      225      226      227
     425      8      225      226      241
     426      8      227      226      241
     427      8      226      227      228
     428     10      226      227      258
     429     10      228      227      258
     430      8      227      228      229
     431     10      227      228      259
     432     10      229      228      259
     433     12      228      229      230
     434     14      228      229      240
     435     13      230      229      240
     436     15      229      230      231
     437     16      230      231      232
     438     17      230      231      275
     439      9      232      231      275
     440      8      231      232      233
     441     16      231      232      239
     442      9      233      232      239
     443      8      232      233      234
     444      8      232      233      238
     445      8      234      233      238
     446      8      233      234      235
     447     10      233      234      260
     448     10      235      234      260
     449      8      234      235      236
     450     10      234      235      261
     451     10      236      235      261
     452      8      235      236      237
     453     10      235      236      262
     454     10      237      236      262
     455      8      236      237      238
     456     10      236      237      263
     457     10      238      237      263
     458      8      237      238      233
     459     10      237      238      264
     460     10      233      238      264
     461     11      232      239      240
     462     12      239      240      241
     463     13      239      240      229
     464     14      241      240      229
     465      8      240      241      226
     466     10      240      241      265
     467     10      226      241      265
     468      8      225      242      243
     469     10      225      242      266
     470     10      243      242      266
     471      8      242      243      244
     472     10      242      243      267
     473     10      244      243      267
     474     12      243      244      245
     475     14      243      244      223
     476     13      245      244      223
     477     11      244      245      246
     478      9      245      246      247
     479      9      245      246      221
     480      8      247      246      221
     481      8      246      247      248
     482      8      246      247      252
     483      8      248      247      252
     484      8      247      248      249
     485     10      247      248      268
     486     10      249      248      268
     487      8      248      249      250
     488     10      248      249      269
     489     10      250      249      269
     490      8      249      250      251
     491     10      249      250      270
     492     10      251      250      270
     493      8      250      251      252
     494     10      250      251      271
     495     10      252      251      271
     496      8      251      252      247
     497     10      251      252      272
     498     10      247      252      272
     499      8      220      253      254
     500     10      220      253      273
     501     10      254      253      273
     502      8      253      254      217
     503     10      253      254      274
     504     10      217      254      274
     505      1      276      275      283
     506      1      276      275      284
     507     18      276      275      231
     508      2      283      275      284
     509      1      283      275      231
     510      1      284      275      231
     511      9      275      276      277
     512      9      275      276      282
     513      8      277      276      282
     514      8      276      277      278
     515     10      276      277      285
     516     10      278      277      285
     517      8      277      278      279
     518     10      277      278      286
     519     10      279      278      286
     520      9      278      279      280
     521      8      278      279      281
     522      9      280      279      281
     523      1      279      280      287
     524      1      279      280      288
     525      7      279      280      291
     526      2      287      280      288
     527      5      287      280      291
     528      5      288      280      291
     529      8      279      281      282
     530     10      279      281      289
     531     10      282      281      289
     532      8      281      282      276
     533     10      281      282      290
     534     10      276      282      290
     535      5      292      291      302
     536      5      292      291      303
     537      6      292      291      280
     538      2      302      291      303
     539      5      302      291      280
     540      5      303      291      280
     541     19      291      292      293
     542      5      291      292      304
     543      5      291      292      305
     544      1      293      292      304
     545      1      293      292      305
     546      2      304      292      305
     547     20      292      293      294
     548     20      292      293      295
     549     21      292      293      296
     550     22      294      293      295
     551     20      294      293      296
     552     20      295      293      296
     553     19      293      296      297
     554     19      293      296      298
     555     19      293      296      300
     556      6      297      296      298
     557      6      297      296      300
     558      6      298      296      300
     559      5      296      297      306
     560      5      296      297      307
     561      6      296      297      312
     562      2      306      297      307
     563      5      306      297      312
     564      5      307      297      312
     565      4      296      298      299
     566      5      296      298      308
     567      5      296      298      309
     568      1      299      298      308
     569      1      299      298      309
     570      2      308      298      309
     571      3      298      299      325
     572      4      296      300      301
     573      5      296      300      310
     574      5      296      300      311
     575      1      301      300      310
     576      1      301      300      311
     577      2      310      300      311
     578      3      300      301      338
     579      5      313      312      317
     580      5      313      312      318
     581      6      313      312      297
     582      2      317      312      318
     583      5      317      312      297
     584      5      318      312      297
     585      4      312      313      314
     586      5      312      313      319
     587      5      312      313      320
     588      1      314      313      319
     589      1      314      313      320
     590      2      319      313      320
     591      3      313      314      315
     592      4      314      315      316
     593      1      314      315      321
     594      1      314      315      322
     595      5      316      315      321
     596      5      316      315      322
     597      2      321      315      322
     598      5      315      316      323
     599      5      315      316      324
     600      6      315      316      344
     601      2      323      316      324
     602      5      323      316      344
     603      5      324      316      344
     604      5      326      325      330
     605      5      326      325      331
     606      4      326      325      299
     607      2      330      325      331
     608      1      330      325      299
     609      1      331      325      299
     610      4      325      326      327
     611      5      325      326      332
     612      5      325      326      333
     613      1      327      326      332
     614      1      327      326      333
     615      2      332      326      333
     616      3      326      327      328
     617      4      327      328      329
     618      1      327      328      334
     619      1      327      328      335
     620      5      329      328      334
     621      5      329      328      335
     622      2      334      328      335
     623      5      328      329      336
     624      5      328      329      337
     625      6      328      329      357
     626      2      336      329      337
     627      5      336      329      357
     628      5      337      329      357
     629      5      339      338      340
     630      5      339      338      341
     631      4      339      338      301
     632      2      340      338      341
     633      1      340      338      301
     634      1      341      338      301
     635      5      338      339      342
     636      5      338      339      343
     637      6      338      339      363
     638      2      342      339      343
     639      5      342      339      363
     640      5      343      339      363
     641      5      345      344      349
     642      5      345      344      350
     643      6      345      344      316
     644      2      349      344      350
     645      5      349      344      316
     646      5      350      344      316
     647      4      344      345      346
     648      5      344      345      351
     649      5      344      345      352
     650      1      346      345      351
     651      1      346      345      352
     652      2      351      345      352
     653      3      345      346      347
     654      4      346      347      348
     655      1      346      347      353
     656      1      346      347      354
     657      5      348      347      353
     658      5      348      347      354
     659      2      353      347      354
     660      5      347      348      355
     661      5      347      348      356
     662      6      347      348      376
     663      2      355      348      356
     664      5      355      348      376
     665      5      356      348      376
     666      5      358      357      359
     667      5      358      357      360
     668      6      358      357      329
     669      2      359      357      360
     670      5      359      357      329
     671      5      360      357      329
     672      5      357      358      361
     673      5      357      358      362
     674      7      357      358      392
     675      2      361      358      362
     676      1      361      358      392
     677      1      362      358      392
     678      5      364      363      368
     679      5      364      363      369
     680      6      364      363      339
     681      2      368      363      369
     682      5      368      363      339
     683      5      369      363      339
     684      4      363      364      365
     685      5      363      364      370
     686      5      363      364      371
     687      1      365      364      370
     688      1      365      364      371
     689      2      370      364      371
     690      3      364      365      366
     691      4      365      366      367
     692      1      365      366      372
     693      1      365      366      373
     694      5      367      366      372
     695      5      367      366      373
     696      2      372      366      373
     697      5      366      367      374
     698      5      366      367      375
     699      6      366      367      450
     700      2      374      367      375
     701      5      374      367      450
     702      5      375      367      450
     703      1      377      376      384
     704      1      377      376      385
     705      7      377      376      348
     706      2      384      376      385
     707      5      384      376      348
     708      5      385      376      348
     709      9      376      377      378
     710      9      376      377      383
     711      8      378      377      383
     712      8      377      378      379
     713     10      377      378      386
     714     10      379      378      386
     715      8      378      379      380
     716     10      378      379      387
     717     10      380      379      387
     718      9      379      380      381
     719      8      379      380      382
     720      9      381      380      382
     721      1      380      381      388
     722      1      380      381      389
     723     18      380      381      456
     724      2      388      381      389
     725      1      388      381      456
     726      1      389      381      456
     727      8      380      382      383
     728     10      380      382      390
     729     10      383      382      390
     730      8      382      383      377
     731     10      382      383      391
     732     10      377      383      391
     733      8      393      392      429
     734      9      393      392      358
     735      9      429      392      358
     736      8      392      393      394
     737     10      392      393      430
     738     10      394      393      430
     739      8      393      394      395
     740     10      393      394      431
     741     10      395      394      431
     742      8      394      395      396
     743      8      394      395      428
     744      8      396      395      428
     745      9      395      396      397
     746      8      395      396      421
     747      9      397      396      421
     748     11      396      397      398
     749     12      397      398      399
     750     13      397      398      419
     751     14      399      398      419
     752      8      398      399      400
     753     10      398      399      432
     754     10      400      399      432
     755      8      399      400      401
     756      8      399      400      417
     757      8      401      400      417
     758      8      400      401      402
     759      8      400      401      416
     760      8      402      401      416
     761      8      401      402      403
     762     10      401      402      433
     763     10      403      402      433
     764      8      402      403      404
     765     10      402      403      434
     766     10      404      403      434
     767     12      403      404      405
     768     14      403      404      415
     769     13      405      404      415
     770     15      404      405      406
     771     16      405      406      407
     772     17      405      406      514
     773      9      407      406      514
     774      8      406      407      408
     775     16      406      407      414
     776      9      408      407      414
     777      8      407      408      409
     778      8      407      408      413
     779      8      409      408      413
     780      8      408      409      410
     781     10      408      409      435
     782     10      410      409      435
     783      8      409      410      411
     784     10      409      410      436
     785     10      411      410      436
     786      8      410      411      412
     787     10      410      411      437
     788     10      412      411      437
     789      8      411      412      413
     790     10      411      412      438
     791     10      413      412      438
     792      8      412      413      408
     793     10      412      413      439
     794     10      408      413      439
     795     11      407      414      415
     796     12      414      415      416
     797     13      414      415      404
     798     14      416      415      404
     799      8      415      416      401
     800     10      415      416      440
     801     10      401      416      440
     802      8      400      417      418
     803     10      400      417      441
     804     10      418      417      441
     805      8      417      418      419
     806     10      417      418      442
     807     10      419      418      442
     808     12      418      419      420
     809     14      418      419      398
     810     13      420      419      398
     811     11      419      420      421
     812      9      420      421      422
     813      9      420      421      396
     814      8      422      421      396
     815      8      421      422      423
     816      8      421      422      427
     817      8      423      422      427
     818      8      422      423      424
     819     10      422      423      443
     820     10      424      423      443
     821      8      423      424      425
     822     10      423      424      444
     823     10      425      424      444
     824      8      424      425      426
     825     10      424      425      445
     826     10      426      425      445
     827      8      425      426      427
     828     10      425      426      446
     829     10      427      426      446
     830      8      426      427      422
     831     10      426      427      447
     832     10      422      427      447
     833      8      395      428      429
     834     10      395      428      448
     835     10      429      428      448
     836      8      428      429      392
     837     10      428      429      449
     838     10      392      429      449
     839      5      451      450      452
     840      5      451      450      453
     841      6      451      450      367
     842      2      452      450      453
     843      5      452      450      367
     844      5      453      450      367
     845      5      450      451      454
     846      5      450      451      455
     847      7      450      451      530
     848      2      454      451      455
     849      1      454      451      530
     850      1      455      451      530
     851      8      457      456      493
     852      9      457      456      381
     853      9      493      456      381
     854      8      456      457      458
     855     10      456      457      494
     856     10      458      457      494
     857      8      457      458      459
     858     10      457      458      495
     859     10      459      458      495
     860      8      458      459      460
     861      8      458      459      492
     862      8      460      459      492
     863      9      459      460      461
     864      8      459      460      485
     865      9      461      460      485
     866     11      460      461      462
     867     12      461      462      463
     868     13      461      462      483
     869     14      463      462      483
     870      8      462      463      464
     871     10      462      463      496
     872     10      464      463      496
     873      8      463      464      465
     874      8      463      464      481
     875      8      465      464      481
     876      8      464      465      466
     877      8      464      465      480
     878      8      466      465      480
     879      8      465      466      467
     880     10      465      466      497
     881     10      467      466      497
     882      8      466      467      468
     883     10      466      467      498
     884     10      468      467      498
     885     12      467      468      469
     886     14      467      468      479
     887     13      469      468      479
     888     11      468      469      470
     889      9      469      470      471
     890      9      469      470      588
     891      8      471      470      588
     892      8      470      471      472
     893      9      470      471      478
     894      9      472      471      478
     895      8      471      472      473
     896      8      471      472      477
     897      8      473      472      477
     898      8      472      473      474
     899     10      472      473      499
     900     10      474      473      499
     901      8      473      474      475
     902     10      473      474      500
     903     10      475      474      500
     904      8      474      475      476
     905     10      474      475      501
     906     10      476      475      501
     907      8      475      476      477
     908     10      475      476      502
     909     10      477      476      502
     910      8      476      477      472
     911     10      476      477      503
     912     10      472      477      503
     913     11      471      478      479
     914     12      478      479      480
     915     13      478      479      468
     916     14      480      479      468
     917      8      479      480      465
     918     10      479      480      504
     919     10      465      480      504
     920      8      464      481      482
     921     10      464      481      505
     922     10      482      481      505
     923      8      481      482      483
     924     10      481      482      506
     925     10      483      482      506
     926     12      482      483      484
     927     14      482      483      462
     928     13      484      483      462
     929     11      483      484      485
     930      9      484      485      486
     931      9      484      485      460
     932      8      486      485      460
     933      8      485      486      487
     934      8      485      486      491
     935      8      487      486      491
     936      8      486      487      488
     937     10      486      487      507
     938     10      488      487      507
     939      8      487      488      489
     940     10      487      488      508
     941     10      489      488      508
     942      8      488      489      490
     943     10      488      489      509
     944     10      490      489      509
     945      8      489      490      491
     946     10      489      490      510
     947     10      491      490      510
     948      8      490      491      486
     949     10      490      491      511
     950     10      486      491      511
     951      8      459      492      493
     952     10      459      492      512
     953     10      493      492      512
     954      8      492      493      456
     955     10      492      493      513
     956     10      456      493      513
     957      1      515      514      522
     958      1      515      514      523
     959     18      515      514      406
     960      2      522      514      523
     961      1      522      514      406
     962      1      523      514      406
     963      9      514      515      516
     964      9      514      515      521
     965      8      516      515      521
     966      8      515      516      517
     967     10      515      516      524
     968     10      517      516      524
     969      8      516      517      518
     970     10      516      517      525
     971     10      518      517      525
     972      9      517      518      519
     973      8      517      518      520
     974      9      519      518      520
     975      1      518      519      526
     976      1      518      519      527
     977      7      518      519      646
     978      2      526      519      527
     979      5      526      519      646
     980      5      527      519      646
     981      8      518      520      521
     982     10      518      520      528
     983     10      521      520      528
     984      8      520      521      515
     985     10      520      521      529
     986     10      515      521      529
     987      8      531      530      567
     988      9      531      530      451
     989      9      567      530      451
     990      8      530      531      532
     991     10      530      531      568
     992     10      532      531      568
     993      8      531      532      533
     994     10      531      532      569
     995     10      533      532      569
     996      8      532      533      534
     997      8      532      533      566
     998      8      534      533      566
     999      9      533      534      535
    1000      8      533      534      559
    1001      9      535      534      559
    1002     11      534      535      536
    1003     12      535      536      537
    1004     13      535      536      557
    1005     14      537      536      557
    1006      8      536      537      538
    1007     10      536      537      570
    1008     10      538      537      570
    1009      8      537      538      539
    1010      8      537      538      555
    1011      8      539      538      555
    1012      8      538      539      540
    1013      8      538      539      554
    1014      8      540      539      554
    1015      8      539      540      541
    1016     10      539      540      571
    1017     10      541      540      571
    1018      8      540      541      542
    1019     10      540      541      572
    1020     10      542      541      572
    1021     12      541      542      543
    1022     14      541      542      553
    1023     13      543      542      553
    1024     15      542      543      544
    1025     16      543      544      545
    1026     17      543      544      659
    1027      9      545      544      659
    1028      8      544      545      546
    1029     16      544      545      552
    1030      9      546      545      552
    1031      8      545      546      547
    1032      8      545      546      551
    1033      8      547      546      551
    1034      8      546      547      548
    1035     10      546      547      573
    1036     10      548      547      573
    1037      8      547      548      549
    1038     10      547      548      574
    1039     10      549      548      574
    1040      8      548      549      550
    1041     10      548      549      575
    1042     10      550      549      575
    1043      8      549      550      551
    1044     10      549      550      576
    1045     10      551      550      576
    1046      8      550      551      546
    1047     10      550      551      577
    1048     10      546      551      577
    1049     11      545      552      553
    1050     12      552      553      554
    1051     13      552      553      542
    1052     14      554      553      542
    1053      8      553      554      539
    1054     10      553      554      578
    1055     10      539      554      578
    1056      8      538      555      556
    1057     10      538      555      579
    1058     10      556      555      579
    1059      8      555      556      557
    1060     10      555      556      580
    1061     10      557      556      580
    1062     12      556      557      558
    1063     14      556      557      536
    1064     13      558      557      536
    1065     11      557      558      559
    1066      9      558      559      560
    1067      9      558      559      534
    1068      8      560      559      534
    1069      8      559      560      561
    1070      8      559      560      565
    1071      8      561      560      565
    1072      8      560      561      562
    1073     10      560      561      581
    1074     10      562      561      581
    1075      8      561      562      563
    1076     10      561      562      582
    1077     10      563      562      582
    1078      8      562      563      564
    1079     10      562      563      583
    1080     10      564      563      583
    1081      8      563      564      565
    1082     10      563      564      584
    1083     10      565      564      584
    1084      8      564      565      560
    1085     10      564      565      585
    1086     10      560      565      585
    1087      8      533      566      567
    1088     10      533      566      586
    1089     10      567      566      586
    1090      8      566      567      530
    1091     10      566      567      587
    1092     10      530      567      587
    1093      8      589      588      625
    1094      8      589      588      470
    1095      8      625      588      470
    1096      8      588      589      590
    1097     10      588      589      626
    1098     10      590      589      626
    1099      8      589      590      591
    1100     10      589      590      627
    1101     10      591      590      627
    1102      8      590      591      592
    1103      8      590      591      624
    1104      8      592      591      624
    1105      9      591      592      593
    1106      8      591      592      617
    1107      9      593      592      617
    1108     11      592      593      594
    1109     12      593      594      595
    1110     13      593      594      615
    1111     14      595      594      615
    1112      8      594      595      596
    1113     10      594      595      628
    1114     10      596      595      628
    1115      8      595      596      597
    1116      8      595      596      613
    1117      8      597      596      613
    1118      8      596      597      598
    1119      8      596      597      612
    1120      8      598      597      612
    1121      8      597      598      599
    1122     10      597      598      629
    1123     10      599      598      629
    1124      8      598      599      600
    1125     10      598      599      630
    1126     10      600      599      630
    1127     12      599      600      601
    1128     14      599      600      611
    1129     13      601      600      611
    1130     15      600      601      602
    1131     16      601      602      603
    1132     17      601      602      665
    1133      9      603      602      665
    1134      8      602      603      604
    1135     16      602      603      610
    1136      9      604      603      610
    1137      8      603      604      605
    1138      8      603      604      609
    1139      8      605      604      609
    1140      8      604      605      606
    1141     10      604      605      631
    1142     10      606      605      631
    1143      8      605      606      607
    1144     10      605      606      632
    1145     10      607      606      632
    1146      8      606      607      608
    1147     10      606      607      633
    1148     10      608      607      633
    1149      8      607      608      609
    1150     10      607      608      634
    1151     10      609      608      634
    1152      8      608      609      604
    1153     10      608      609      635
    1154     10      604      609      635
    1155     11      603      610      611
    1156     12      610      611      612
    1157     13      610      611      600
    1158     14      612      611      600
    1159      8      611      612      597
    1160     10      611      612      636
    1161     10      597      612      636
    1162      8      596      613      614
    1163     10      596      613      637
    1164     10      614      613      637
    1165      8      613      614      615
    1166     10      613      614      638
    1167     10      615      614      638
    1168     12      614      615      616
    1169     14      614      615      594
    1170     13      616      615      594
    1171     11      615      616      617
    1172      9      616      617      618
    1173      9      616      617      592
    1174      8      618      617      592
    1175      8      617      618      619
    1176      8      617      618      623
    1177      8      619      618      623
    1178      8      618      619      620
    1179     10      618      619      639
    1180     10      620      619      639
    1181      8      619      620      621
    1182     10      619      620      640
    1183     10      621      620      640
    1184      8      620      621      622
    1185     10      620      621      641
    1186     10      622      621      641
    1187      8      621      622      623
    1188     10      621      622      642
    1189     10      623      622      642
    1190      8      622      623      618
    1191     10      622      623      643
    1192     10      618      623      643
    1193      8      591      624      625
    1194     10      591      624      644
    1195     10      625      624      644
    1196      8      624      625      588
    1197     10      624      625      645
    1198     10      588      625      645
    1199      5      647      646      651
    1200      5      647      646      652
    1201      6      647      646      519
    1202      2      651      646      652
    1203      5      651      646      519
    1204      5      652      646      519
    1205      4      646      647      648
    1206      5      646      647      653
    1207      5      646      647      654
    1208      1      648      647      653
    1209      1      648      647      654
    1210      2      653      647      654
    1211      3      647      648      649
    1212      4      648      649      650
    1213      1      648      649      655
    1214      1      648      649      656
    1215      5      650      649      655
    1216      5      650      649      656
    1217      2      655      649      656
    1218      5      649      650      657
    1219      5      649      650      658
    1220      6      649      650      681
    1221      2      657      650      658
    1222      5      657      650      681
    1223      5      658      650      681
    1224      5      660      659      661
    1225      5      660      659      662
    1226      7      660      659      544
    1227      2      661      659      662
    1228      1      661      659      544
    1229      1      662      659      544
    1230      5      659      660      663
    1231      5      659      660      664
    1232      6      659      660      687
    1233      2      663      660      664
    1234      5      663      660      687
    1235      5      664      660      687
    1236      1      666      665      673
    1237      1      666      665      674
    1238     18      666      665      602
    1239      2      673      665      674
    1240      1      673      665      602
    1241      1      674      665      602
    1242      9      665      666      667
    1243      9      665      666      672
    1244      8      667      666      672
    1245      8      666      667      668
    1246     10      666      667      675
    1247     10      668      667      675
    1248      8      667      668      669
    1249     10      667      668      676
    1250     10      669      668      676
    1251      9      668      669      670
    1252      8      668      669      671
    1253      9      670      669      671
    1254      1      669      670      677
    1255      1      669      670      678
    1256      7      669      670      693
    1257      2      677      670      678
    1258      5      677      670      693
    1259      5      678      670      693
    1260      8      669      671      672
    1261     10      669      671      679
    1262     10      672      671      679
    1263      8      671      672      666
    1264     10      671      672      680
    1265     10      666      672      680
    1266      5      682      681      683
    1267      5      682      681      684
    1268      6      682      681      650
    1269      2      683      681      684
    1270      5      683      681      650
    1271      5      684      681      650
    1272      5      681      682      685
    1273      5      681      682      686
    1274      7      681      682      699
    1275      2      685      682      686
    1276      1      685      682      699
    1277      1      686      682      699
    1278      5      688      687      689
    1279      5      688      687      690
    1280      6      688      687      660
    1281      2      689      687      690
    1282      5      689      687      660
    1283      5      690      687      660
    1284      5      687      688      691
    1285      5      687      688      692
    1286      6      687      688      757
    1287      2      691      688      692
    1288      5      691      688      757
    1289      5      692      688      757
    1290      5      694      693      695
    1291      5      694      693      696
    1292      6      694      693      670
    1293      2      695      693      696
    1294      5      695      693      670
    1295      5      696      693      670
    1296      5      693      694      697
    1297      5      693      694      698
    1298      7      693      694      773
    1299      2      697      694      698
    1300      1      697      694      773
    1301      1      698      694      773
    1302      8      700      699      736
    1303      9      700      699      682
    1304      9      736      699      682
    1305      8      699      700      701
    1306     10      699      700      737
    1307     10      701      700      737
    1308      8      700      701      702
    1309     10      700      701      738
    1310     10      702      701      738
    1311      8      701      702      703
    1312      8      701      702      735
    1313      8      703      702      735
    1314      9      702      703      704
    1315      8      702      703      728
    1316      9      704      703      728
    1317     11      703      704      705
    1318     12      704      705      706
    1319     13      704      705      726
    1320     14      706      705      726
    1321      8      705      706      707
    1322     10      705      706      739
    1323     10      707      706      739
    1324      8      706      707      708
    1325      8      706      707      724
    1326      8      708      707      724
    1327      8      707      708      709
    1328      8      707      708      723
    1329      8      709      708      723
    1330      8      708      709      710
    1331     10      708      709      740
    1332     10      710      709      740
    1333      8      709      710      711
    1334     10      709      710      741
    1335     10      711      710      741
    1336     12      710      711      712
    1337     14      710      711      722
    1338     13      712      711      722
    1339     15      711      712      713
    1340     16      712      713      714
    1341     17      712      713      831
    1342      9      714      713      831
    1343      8      713      714      715
    1344     16      713      714      721
    1345      9      715      714      721
    1346      8      714      715      716
    1347      8      714      715      720
    1348      8      716      715      720
    1349      8      715      716      717
    1350     10      715      716      742
    1351     10      717      716      742
    1352      8      716      717      718
    1353     10      716      717      743
    1354     10      718      717      743
    1355      8      717      718      719
    1356     10      717      718      744
    1357     10      719      718      744
    1358      8      718      719      720
    1359     10      718      719      745
    1360     10      720      719      745
    1361      8      719      720      715
    1362     10      719      720      746
    1363     10      715      720      746
    1364     11      714      721      722
    1365     12      721      722      723
    1366     13      721      722      711
    1367     14      723      722      711
    1368      8      722      723      708
    1369     10      722      723      747
    1370     10      708      723      747
    1371      8      707      724      725
    1372     10      707      724      748
    1373     10      725      724      748
    1374      8      724      725      726
    1375     10      724      725      749
    1376     10      726      725      749
    1377     12      725      726      727
    1378     14      725      726      705
    1379     13      727      726      705
    1380     11      726      727      728
    1381      9      727      728      729
    1382      9      727      728      703
    1383      8      729      728      703
    1384      8      728      729      730
    1385      8      728      729      734
    1386      8      730      729      734
    1387      8      729      730      731
    1388     10      729      730      750
    1389     10      731      730      750
    1390      8      730      731      732
    1391     10      730      731      751
    1392     10      732      731      751
    1393      8      731      732      733
    1394     10      731      732      752
    1395     10      733      732      752
    1396      8      732      733      734
    1397     10      732      733      753
    1398     10      734      733      753
    1399      8      733      734      729
    1400     10      733      734      754
    1401     10      729      734      754
    1402      8      702      735      736
    1403     10      702      735      755
    1404     10      736      735      755
    1405      8      735      736      699
    1406     10      735      736      756
    1407     10      699      736      756
    1408      1      758      757      765
    1409      1      758      757      766
    1410      7      758      757      688
    1411      2      765      757      766
    1412      5      765      757      688
    1413      5      766      757      688
    1414      9      757      758      759
    1415      9      757      758      764
    1416      8      759      758      764
    1417      8      758      759      760
    1418     10      758      759      767
    1419     10      760      759      767
    1420      8      759      760      761
    1421     10      759      760      768
    1422     10      761      760      768
    1423      9      760      761      762
    1424      8      760      761      763
    1425      9      762      761      763
    1426      1      761      762      769
    1427      1      761      762      770
    1428      7      761      762      847
    1429      2      769      762      770
    1430      5      769      762      847
    1431      5      770      762      847
    1432      8      761      763      764
    1433     10      761      763      771
    1434     10      764      763      771
    1435      8      763      764      758
    1436     10      763      764      772
    1437     10      758      764      772
    1438      8      774      773      810
    1439      9      774      773      694
    1440      9      810      773      694
    1441      8      773      774      775
    1442     10      773      774      811
    1443     10      775      774      811
    1444      8      774      775      776
    1445     10      774      775      812
    1446     10      776      775      812
    1447      8      775      776      777
    1448      8      775      776      809
    1449      8      777      776      809
    1450      9      776      777      778
    1451      8      776      777      802
    1452      9      778      777      802
    1453     11      777      778      779
    1454     12      778      779      780
    1455     13      778      779      800
    1456     14      780      779      800
    1457      8      779      780      781
    1458     10      779      780      813
    1459     10      781      780      813
    1460      8      780      781      782
    1461      8      780      781      798
    1462      8      782      781      798
    1463      8      781      782      783
    1464      8      781      782      797
    1465      8      783      782      797
    1466      8      782      783      784
    1467     10      782      783      814
    1468     10      784      783      814
    1469      8      783      784      785
    1470     10      783      784      815
    1471     10      785      784      815
    1472     12      784      785      786
    1473     14      784      785      796
    1474     13      786      785      796
    1475     15      785      786      787
    1476     16      786      787      788
    1477     17      786      787      866
    1478      9      788      787      866
    1479      8      787      788      789
    1480     16      787      788      795
    1481      9      789      788      795
    1482      8      788      789      790
    1483      8      788      789      794
    1484      8      790      789      794
    1485      8      789      790      791
    1486     10      789      790      816
    1487     10      791      790      816
    1488      8      790      791      792
    1489     10      790      791      817
    1490     10      792      791      817
    1491      8      791      792      793
    1492     10      791      792      818
    1493     10      793      792      818
    1494      8      792      793      794
    1495     10      792      793      819
    1496     10      794      793      819
    1497      8      793      794      789
    1498     10      793      794      820
    1499     10      789      794      820
    1500     11      788      795      796
    1501     12      795      796      797
    1502     13      795      796      785
    1503     14      797      796      785
    1504      8      796      797      782
    1505     10      796      797      821
    1506     10      782      797      821
    1507      8      781      798      799
    1508     10      781      798      822
    1509     10      799      798      822
    1510      8      798      799      800
    1511     10      798      799      823
    1512     10      800      799      823
    1513     12      799      800      801
    1514     14      799      800      779
    1515     13      801      800      779
    1516     11      800      801      802
    1517      9      801      802      803
    1518      9      801      802      777
    1519      8      803      802      777
    1520      8      802      803      804
    1521      8      802      803      808
    1522      8      804      803      808
    1523      8      803      804      805
    1524     10      803      804      824
    1525     10      805      804      824
    1526      8      804      805      806
    1527     10      804      805      825
    1528     10      806      805      825
    1529      8      805      806      807
    1530     10      805      806      826
    1531     10      807      806      826
    1532      8      806      807      808
    1533     10      806      807      827
    1534     10      808      807      827
    1535      8      807      808      803
    1536     10      807      808      828
    1537     10      803      808      828
    1538      8      776      809      810
    1539     10      776      809      829
    1540     10      810      809      829
    1541      8      809      810      773
    1542     10      809      810      830
    1543     10      773      810      830
    1544      1      832      831      839
    1545      1      832      831      840
    1546     18      832      831      713
    1547      2      839      831      840
    1548      1      839      831      713
    1549      1      840      831      713
    1550      9      831      832      833
    1551      9      831      832      838
    1552      8      833      832      838
    1553      8      832      833      834
    1554     10      832      833      841
    1555     10      834      833      841
    1556      8      833      834      835
    1557     10      833      834      842
    1558     10      835      834      842
    1559      9      834      835      836
    1560      8      834      835      837
    1561      9      836      835      837
    1562      1      835      836      843
    1563      1      835      836      844
    1564     18      835      836      874
    1565      2      843      836      844
    1566      1      843      836      874
    1567      1      844      836      874
    1568      8      835      837      838
    1569     10      835      837      845
    1570     10      838      837      845
    1571      8      837      838      832
    1572     10      837      838      846
    1573     10      832      838      846
    1574      1      848      847      855
    1575      1      848      847      856
    1576      7      848      847      762
    1577      2      855      847      856
    1578      5      855      847      762
    1579      5      856      847      762
    1580      9      847      848      849
    1581      9      847      848      854
    1582      8      849      848      854
    1583      8      848      849      850
    1584     10      848      849      857
    1585     10      850      849      857
    1586      8      849      850      851
    1587     10      849      850      858
    1588     10      851      850      858
    1589      9      850      851      852
    1590      8      850      851      853
    1591      9      852      851      853
    1592      1      851      852      859
    1593      1      851      852      860
    1594      7      851      852      932
    1595      2      859      852      860
    1596      5      859      852      932
    1597      5      860      852      932
    1598      8      851      853      854
    1599     10      851      853      861
    1600     10      854      853      861
    1601      8      853      854      848
    1602     10      853      854      862
    1603     10      848      854      862
    1604      1      864      863      867
    1605      1      864      863      868
    1606      1      864      863      869
    1607      2      867      863      868
    1608      2      867      863      869
    1609      2      868      863      869
    1610      3      863      864      865
    1611      4      864      865      866
    1612      1      864      865      870
    1613      1      864      865      871
    1614      5      866      865      870
    1615      5      866      865      871
    1616      2      870      865      871
    1617      5      865      866      872
    1618      5      865      866      873
    1619      7      865      866      787
    1620      2      872      866      873
    1621      1      872      866      787
    1622      1      873      866      787
    1623      8      875      874      911
    1624      9      875      874      836
    1625      9      911      874      836
    1626      8      874      875      876
    1627     10      874      875      912
    1628     10      876      875      912
    1629      8      875      876      877
    1630     10      875      876      913
    1631     10      877      876      913
    1632      8      876      877      878
    1633      8      876      877      910
    1634      8      878      877      910
    1635      9      877      878      879
    1636      8      877      878      903
    1637      9      879      878      903
    1638     11      878      879      880
    1639     12      879      880      881
    1640     13      879      880      901
    1641     14      881      880      901
    1642      8      880      881      882
    1643     10      880      881      914
    1644     10      882      881      914
    1645      8      881      882      883
    1646      8      881      882      899
    1647      8      883      882      899
    1648      8      882      883      884
    1649      8      882      883      898
    1650      8      884      883      898
    1651      8      883      884      885
    1652     10      883      884      915
    1653     10      885      884      915
    1654      8      884      885      886
    1655     10      884      885      916
    1656     10      886      885      916
    1657     12      885      886      887
    1658     14      885      886      897
    1659     13      887      886      897
    1660     15      886      887      888
    1661     16      887      888      889
    1662     17      887      888      948
    1663      9      889      888      948
    1664      8      888      889      890
    1665     16      888      889      896
    1666      9      890      889      896
    1667      8      889      890      891
    1668      8      889      890      895
    1669      8      891      890      895
    1670      8      890      891      892
    1671     10      890      891      917
    1672     10      892      891      917
    1673      8      891      892      893
    1674     10      891      892      918
    1675     10      893      892      918
    1676      8      892      893      894
    1677     10      892      893      919
    1678     10      894      893      919
    1679      8      893      894      895
    1680     10      893      894      920
    1681     10      895      894      920
    1682      8      894      895      890
    1683     10      894      895      921
    1684     10      890      895      921
    1685     11      889      896      897
    1686     12      896      897      898
    1687     13      896      897      886
    1688     14      898      897      886
    1689      8      897      898      883
    1690     10      897      898      922
    1691     10      883      898      922
    1692      8      882      899      900
    1693     10      882      899      923
    1694     10      900      899      923
    1695      8      899      900      901
    1696     10      899      900      924
    1697     10      901      900      924
    1698     12      900      901      902
    1699     14      900      901      880
    1700     13      902      901      880
    1701     11      901      902      903
    1702      9      902      903      904
    1703      9      902      903      878
    1704      8      904      903      878
    1705      8      903      904      905
    1706      8      903      904      909
    1707      8      905      904      909
    1708      8      904      905      906
    1709     10      904      905      925
    1710     10      906      905      925
    1711      8      905      906      907
    1712     10      905      906      926
    1713     10      907      906      926
    1714      8      906      907      908
    1715     10      906      907      927
    1716     10      908      907      927
    1717      8      907      908      909
    1718     10      907      908      928
    1719     10      909      908      928
    1720      8      908      909      904
    1721     10      908      909      929
    1722     10      904      909      929
    1723      8      877      910      911
    1724     10      877      910      930
    1725     10      911      910      930
    1726      8      910      911      874
    1727     10      910      911      931
    1728     10      874      911      931
    1729      5      933      932      937
    1730      5      933      932      938
    1731      6      933      932      852
    1732      2      937      932      938
    1733      5      937      932      852
    1734      5      938      932      852
    1735      4      932      933      934
    1736      5      932      933      939
    1737      5      932      933      940
    1738      1      934      933      939
    1739      1      934      933      940
    1740      2      939      933      940
    1741      3      933      934      935
    1742      4      934      935      936
    1743      1      934      935      941
    1744      1      934      935      942
    1745      5      936      935      941
    1746      5      936      935      942
    1747      2      941      935      942
    1748      5      935      936      943
    1749      5      935      936      944
    1750      6      935      936      959
    1751      2      943      936      944
    1752      5      943      936      959
    1753      5      944      936      959
    1754      1      946      945      949
    1755      1      946      945      950
    1756      1      946      945      951
    1757      2      949      945      950
    1758      2      949      945      951
    1759      2      950      945      951
    1760      3      945      946      947
    1761      4      946      947      948
    1762      1      946      947      952
    1763      1      946      947      953
    1764      5      948      947      952
    1765      5      948      947      953
    1766      2      952      947      953
    1767      5      947      948      954
    1768      5      947      948      955
    1769      7      947      948      888
    1770      2      954      948      955
    1771      1      954      948      888
    1772      1      955      948      888
    1773      1      957      956      960
    1774      1      957      956      961
    1775      1      957      956      962
    1776      2      960      956      961
    1777      2      960      956      962
    1778      2      961      956      962
    1779      3      956      957      958
    1780      4      957      958      959
    1781      1      957      958      963
    1782      1      957      958      964
    1783      5      959      958      963
    1784      5      959      958      964
    1785      2      963      958      964
    1786      5      958      959      965
    1787      5      958      959      966
    1788      6      958      959      936
    1789      2      965      959      966
    1790      5      965      959      936
    1791      5      966      959      936

Dihedrals

       1      1        5        1        2        3
       2      1        6        1        2        3
       3      1        7        1        2        3
       4      2        1        2        3        4
       5      1        1        2        3        8
       6      1        1        2        3        9
       7      3        2        3        4       10
       8      3        2        3        4       11
       9      4        2        3        4       12
      10      3        8        3        4       10
      11      3        8        3        4       11
      12      3        8        3        4       12
      13      3        9        3        4       10
      14      3        9        3        4       11
      15      3        9        3        4       12
      16      3       14       12       13       16
      17      3       14       12       13       17
      18      3       14       12       13       18
      19      3       15       12       13       16
      20      3       15       12       13       17
      21      3       15       12       13       18
      22      3        4       12       13       16
      23      3        4       12       13       17
      24      5        4       12       13       18
      25      5        3        4       12       13
      26      3        3        4       12       14
      27      3        3        4       12       15
      28      3       10        4       12       13
      29      3       10        4       12       14
      30      3       10        4       12       15
      31      3       11        4       12       13
      32      3       11        4       12       14
      33      3       11        4       12       15
      34      3       20       18       19       22
      35      3       20       18       19       23
      36      6       20       18       19       24
      37      3       21       18       19       22
      38      3       21       18       19       23
      39      6       21       18       19       24
      40      3       13       18       19       22
      41      3       13       18       19       23
      42      7       13       18       19       24
      43      5       12       13       18       19
      44      3       12       13       18       20
      45      3       12       13       18       21
      46      3       16       13       18       19
      47      3       16       13       18       20
      48      3       16       13       18       21
      49      3       17       13       18       19
      50      3       17       13       18       20
      51      3       17       13       18       21
      52      8       61       24       25       26
      53      8       61       24       25       62
      54      8       19       24       25       26
      55      8       19       24       25       62
      56      8       24       25       26       27
      57      8       24       25       26       63
      58      8       62       25       26       27
      59      8       62       25       26       63
      60      8       25       26       27       28
      61      8       25       26       27       60
      62      8       63       26       27       28
      63      8       63       26       27       60
      64      9       26       27       28       29
      65     10       26       27       28       53
      66      9       60       27       28       29
      67     10       60       27       28       53
      68      8       27       28       29       30
      69      8       53       28       29       30
      70      8       28       29       30       31
      71      8       28       29       30       51
      72     11       29       30       31       32
      73     11       29       30       31       64
      74     11       51       30       31       32
      75      8       51       30       31       64
      76      8       30       31       32       33
      77      8       30       31       32       49
      78      8       64       31       32       33
      79      8       64       31       32       49
      80     10       31       32       33       34
      81     10       31       32       33       48
      82     10       49       32       33       34
      83     10       49       32       33       48
      84      8       32       33       34       35
      85      8       32       33       34       65
      86      8       48       33       34       35
      87      8       48       33       34       65
      88      8       33       34       35       36
      89      8       33       34       35       66
      90      8       65       34       35       36
      91      8       65       34       35       66
      92     11       34       35       36       37
      93      8       34       35       36       47
      94     11       66       35       36       37
      95      8       66       35       36       47
      96      8       35       36       37       38
      97      8       47       36       37       38
      98      8       36       37       38       39
      99      8       36       37       38       82
     100      9       37       38       39       40
     101     12       37       38       39       46
     102     10       82       38       39       40
     103      9       82       38       39       46
     104     10       38       39       40       41
     105     10       38       39       40       45
     106      9       46       39       40       41
     107      9       46       39       40       45
     108      8       39       40       41       42
     109      8       39       40       41       67
     110      8       45       40       41       42
     111      8       45       40       41       67
     112      8       40       41       42       43
     113      8       40       41       42       68
     114      8       67       41       42       43
     115      8       67       41       42       68
     116      8       41       42       43       44
     117      8       41       42       43       69
     118      8       68       42       43       44
     119      8       68       42       43       69
     120      8       42       43       44       45
     121      8       42       43       44       70
     122      8       69       43       44       45
     123      8       69       43       44       70
     124      8       43       44       45       40
     125      8       43       44       45       71
     126      8       70       44       45       40
     127      8       70       44       45       71
     128      8       38       39       46       47
     129      8       40       39       46       47
     130      8       39       46       47       48
     131      8       39       46       47       36
     132     11       46       47       48       33
     133     11       46       47       48       72
     134     11       36       47       48       33
     135      8       36       47       48       72
     136      8       31       32       49       50
     137      8       31       32       49       73
     138      8       33       32       49       50
     139      8       33       32       49       73
     140      8       32       49       50       51
     141      8       32       49       50       74
     142      8       73       49       50       51
     143      8       73       49       50       74
     144     11       49       50       51       52
     145      8       49       50       51       30
     146     11       74       50       51       52
     147      8       74       50       51       30
     148      8       50       51       52       53
     149      8       30       51       52       53
     150      8       51       52       53       54
     151      8       51       52       53       28
     152      9       52       53       54       55
     153      9       52       53       54       59
     154     10       28       53       54       55
     155     10       28       53       54       59
     156      8       53       54       55       56
     157      8       53       54       55       75
     158      8       59       54       55       56
     159      8       59       54       55       75
     160      8       54       55       56       57
     161      8       54       55       56       76
     162      8       75       55       56       57
     163      8       75       55       56       76
     164      8       55       56       57       58
     165      8       55       56       57       77
     166      8       76       56       57       58
     167      8       76       56       57       77
     168      8       56       57       58       59
     169      8       56       57       58       78
     170      8       77       57       58       59
     171      8       77       57       58       78
     172      8       57       58       59       54
     173      8       57       58       59       79
     174      8       78       58       59       54
     175      8       78       58       59       79
     176      8       26       27       60       61
     177      8       26       27       60       80
     178      8       28       27       60       61
     179      8       28       27       60       80
     180      8       27       60       61       24
     181      8       27       60       61       81
     182      8       80       60       61       24
     183      8       80       60       61       81
     184      8       60       61       24       25
     185      8       60       61       24       19
     186      8       81       61       24       25
     187      8       81       61       24       19
     188      9       52       53       28       27
     189     12       52       53       28       29
     190     10       54       53       28       27
     191      9       54       53       28       29
     192      8       58       59       54       53
     193      8       58       59       54       55
     194      8       79       59       54       53
     195      8       79       59       54       55
     196      8       50       51       30       29
     197      8       50       51       30       31
     198      8       52       51       30       29
     199      8       52       51       30       31
     200      8       47       48       33       32
     201      8       47       48       33       34
     202      8       72       48       33       32
     203      8       72       48       33       34
     204      8       46       47       36       35
     205      8       46       47       36       37
     206      8       48       47       36       35
     207      8       48       47       36       37
     208      8       44       45       40       39
     209      8       44       45       40       41
     210      8       71       45       40       39
     211      8       71       45       40       41
     212     13       18       19       24       25
     213     13       18       19       24       61
     214      7       22       19       24       25
     215      7       22       19       24       61
     216      7       23       19       24       25
     217      7       23       19       24       61
     218      8      119       82       83       84
     219      8      119       82       83      120
     220      8       38       82       83       84
     221      8       38       82       83      120
     222      8       82       83       84       85
     223      8       82       83       84      121
     224      8      120       83       84       85
     225      8      120       83       84      121
     226      8       83       84       85       86
     227      8       83       84       85      118
     228      8      121       84       85       86
     229      8      121       84       85      118
     230      9       84       85       86       87
     231     10       84       85       86      111
     232      9      118       85       86       87
     233     10      118       85       86      111
     234      8       85       86       87       88
     235      8      111       86       87       88
     236      8       86       87       88       89
     237      8       86       87       88      109
     238     11       87       88       89       90
     239     11       87       88       89      122
     240     11      109       88       89       90
     241      8      109       88       89      122
     242      8       88       89       90       91
     243      8       88       89       90      107
     244      8      122       89       90       91
     245      8      122       89       90      107
     246     10       89       90       91       92
     247     10       89       90       91      106
     248     10      107       90       91       92
     249     10      107       90       91      106
     250      8       90       91       92       93
     251      8       90       91       92      123
     252      8      106       91       92       93
     253      8      106       91       92      123
     254      8       91       92       93       94
     255      8       91       92       93      124
     256      8      123       92       93       94
     257      8      123       92       93      124
     258     11       92       93       94       95
     259      8       92       93       94      105
     260     11      124       93       94       95
     261      8      124       93       94      105
     262      8       93       94       95       96
     263      8      105       94       95       96
     264      8       94       95       96       97
     265      8       94       95       96      140
     266      9       95       96       97       98
     267     12       95       96       97      104
     268     10      140       96       97       98
     269      9      140       96       97      104
     270     10       96       97       98       99
     271     10       96       97       98      103
     272      9      104       97       98       99
     273      9      104       97       98      103
     274      8       97       98       99      100
     275      8       97       98       99      125
     276      8      103       98       99      100
     277      8      103       98       99      125
     278      8       98       99      100      101
     279      8       98       99      100      126
     280      8      125       99      100      101
     281      8      125       99      100      126
     282      8       99      100      101      102
     283      8       99      100      101      127
     284      8      126      100      101      102
     285      8      126      100      101      127
     286      8      100      101      102      103
     287      8      100      101      102      128
     288      8      127      101      102      103
     289      8      127      101      102      128
     290      8      101      102      103       98
     291      8      101      102      103      129
     292      8      128      102      103       98
     293      8      128      102      103      129
     294      8       96       97      104      105
     295      8       98       97      104      105
     296      8       97      104      105      106
     297      8       97      104      105       94
     298     11      104      105      106       91
     299     11      104      105      106      130
     300     11       94      105      106       91
     301      8       94      105      106      130
     302      8       89       90      107      108
     303      8       89       90      107      131
     304      8       91       90      107      108
     305      8       91       90      107      131
     306      8       90      107      108      109
     307      8       90      107      108      132
     308      8      131      107      108      109
     309      8      131      107      108      132
     310     11      107      108      109      110
     311      8      107      108      109       88
     312     11      132      108      109      110
     313      8      132      108      109       88
     314      8      108      109      110      111
     315      8       88      109      110      111
     316      8      109      110      111      112
     317      8      109      110      111       86
     318      9      110      111      112      113
     319      9      110      111      112      117
     320     10       86      111      112      113
     321     10       86      111      112      117
     322      8      111      112      113      114
     323      8      111      112      113      133
     324      8      117      112      113      114
     325      8      117      112      113      133
     326      8      112      113      114      115
     327      8      112      113      114      134
     328      8      133      113      114      115
     329      8      133      113      114      134
     330      8      113      114      115      116
     331      8      113      114      115      135
     332      8      134      114      115      116
     333      8      134      114      115      135
     334      8      114      115      116      117
     335      8      114      115      116      136
     336      8      135      115      116      117
     337      8      135      115      116      136
     338      8      115      116      117      112
     339      8      115      116      117      137
     340      8      136      116      117      112
     341      8      136      116      117      137
     342      8       84       85      118      119
     343      8       84       85      118      138
     344      8       86       85      118      119
     345      8       86       85      118      138
     346      8       85      118      119       82
     347      8       85      118      119      139
     348      8      138      118      119       82
     349      8      138      118      119      139
     350      8      118      119       82       83
     351      8      118      119       82       38
     352      8      139      119       82       83
     353      8      139      119       82       38
     354      9      110      111       86       85
     355     12      110      111       86       87
     356     10      112      111       86       85
     357      9      112      111       86       87
     358      8      116      117      112      111
     359      8      116      117      112      113
     360      8      137      117      112      111
     361      8      137      117      112      113
     362      8      108      109       88       87
     363      8      108      109       88       89
     364      8      110      109       88       87
     365      8      110      109       88       89
     366      8      105      106       91       90
     367      8      105      106       91       92
     368      8      130      106       91       90
     369      8      130      106       91       92
     370      8      104      105       94       93
     371      8      104      105       94       95
     372      8      106      105       94       93
     373      8      106      105       94       95
     374      8      102      103       98       97
     375      8      102      103       98       99
     376      8      129      103       98       97
     377      8      129      103       98       99
     378      9       37       38       82       83
     379      9       37       38       82      119
     380     10       39       38       82       83
     381     10       39       38       82      119
     382      8      177      140      141      142
     383      8      177      140      141      178
     384      8       96      140      141      142
     385      8       96      140      141      178
     386      8      140      141      142      143
     387      8      140      141      142      179
     388      8      178      141      142      143
     389      8      178      141      142      179
     390      8      141      142      143      144
     391      8      141      142      143      176
     392      8      179      142      143      144
     393      8      179      142      143      176
     394      9      142      143      144      145
     395     10      142      143      144      169
     396      9      176      143      144      145
     397     10      176      143      144      169
     398      8      143      144      145      146
     399      8      169      144      145      146
     400      8      144      145      146      147
     401      8      144      145      146      167
     402     11      145      146      147      148
     403     11      145      146      147      180
     404     11      167      146      147      148
     405      8      167      146      147      180
     406      8      146      147      148      149
     407      8      146      147      148      165
     408      8      180      147      148      149
     409      8      180      147      148      165
     410     10      147      148      149      150
     411     10      147      148      149      164
     412     10      165      148      149      150
     413     10      165      148      149      164
     414      8      148      149      150      151
     415      8      148      149      150      181
     416      8      164      149      150      151
     417      8      164      149      150      181
     418      8      149      150      151      152
     419      8      149      150      151      182
     420      8      181      150      151      152
     421      8      181      150      151      182
     422     11      150      151      152      153
     423      8      150      151      152      163
     424     11      182      151      152      153
     425      8      182      151      152      163
     426      8      151      152      153      154
     427      8      163      152      153      154
     428      8      152      153      154      155
     429      8      152      153      154      198
     430      8      153      154      155      156
     431     12      153      154      155      162
     432      8      198      154      155      156
     433      8      198      154      155      162
     434     10      154      155      156      157
     435     10      154      155      156      161
     436      9      162      155      156      157
     437      9      162      155      156      161
     438      8      155      156      157      158
     439      8      155      156      157      183
     440      8      161      156      157      158
     441      8      161      156      157      183
     442      8      156      157      158      159
     443      8      156      157      158      184
     444      8      183      157      158      159
     445      8      183      157      158      184
     446      8      157      158      159      160
     447      8      157      158      159      185
     448      8      184      158      159      160
     449      8      184      158      159      185
     450      8      158      159      160      161
     451      8      158      159      160      186
     452      8      185      159      160      161
     453      8      185      159      160      186
     454      8      159      160      161      156
     455      8      159      160      161      187
     456      8      186      160      161      156
     457      8      186      160      161      187
     458      8      154      155      162      163
     459      8      156      155      162      163
     460      8      155      162      163      164
     461      8      155      162      163      152
     462     11      162      163      164      149
     463     11      162      163      164      188
     464     11      152      163      164      149
     465      8      152      163      164      188
     466      8      147      148      165      166
     467      8      147      148      165      189
     468      8      149      148      165      166
     469      8      149      148      165      189
     470      8      148      165      166      167
     471      8      148      165      166      190
     472      8      189      165      166      167
     473      8      189      165      166      190
     474     11      165      166      167      168
     475      8      165      166      167      146
     476     11      190      166      167      168
     477      8      190      166      167      146
     478      8      166      167      168      169
     479      8      146      167      168      169
     480      8      167      168      169      170
     481      8      167      168      169      144
     482      9      168      169      170      171
     483      9      168      169      170      175
     484     10      144      169      170      171
     485     10      144      169      170      175
     486      8      169      170      171      172
     487      8      169      170      171      191
     488      8      175      170      171      172
     489      8      175      170      171      191
     490      8      170      171      172      173
     491      8      170      171      172      192
     492      8      191      171      172      173
     493      8      191      171      172      192
     494      8      171      172      173      174
     495      8      171      172      173      193
     496      8      192      172      173      174
     497      8      192      172      173      193
     498      8      172      173      174      175
     499      8      172      173      174      194
     500      8      193      173      174      175
     501      8      193      173      174      194
     502      8      173      174      175      170
     503      8      173      174      175      195
     504      8      194      174      175      170
     505      8      194      174      175      195
     506      8      142      143      176      177
     507      8      142      143      176      196
     508      8      144      143      176      177
     509      8      144      143      176      196
     510      8      143      176      177      140
     511      8      143      176      177      197
     512      8      196      176      177      140
     513      8      196      176      177      197
     514      8      176      177      140      141
     515      8      176      177      140       96
     516      8      197      177      140      141
     517      8      197      177      140       96
     518      9      168      169      144      143
     519     12      168      169      144      145
     520     10      170      169      144      143
     521      9      170      169      144      145
     522      8      174      175      170      169
     523      8      174      175      170      171
     524      8      195      175      170      169
     525      8      195      175      170      171
     526      8      166      167      146      145
     527      8      166      167      146      147
     528      8      168      167      146      145
     529      8      168      167      146      147
     530      8      163      164      149      148
     531      8      163      164      149      150
     532      8      188      164      149      148
     533      8      188      164      149      150
     534      8      162      163      152      151
     535      8      162      163      152      153
     536      8      164      163      152      151
     537      8      164      163      152      153
     538      8      160      161      156      155
     539      8      160      161      156      157
     540      8      187      161      156      155
     541      8      187      161      156      157
     542      9       95       96      140      141
     543      9       95       96      140      177
     544     10       97       96      140      141
     545     10       97       96      140      177
     546      3      203      198      199      200
     547      3      203      198      199      205
     548      3      203      198      199      206
     549      3      204      198      199      200
     550      3      204      198      199      205
     551      3      204      198      199      206
     552      4      154      198      199      200
     553      6      154      198      199      205
     554      6      154      198      199      206
     555      2      198      199      200      201
     556      1      205      199      200      201
     557      1      206      199      200      201
     558      2      199      200      201      202
     559      1      199      200      201      207
     560      1      199      200      201      208
     561      3      200      201      202      209
     562      3      200      201      202      210
     563      4      200      201      202      211
     564      3      207      201      202      209
     565      3      207      201      202      210
     566      3      207      201      202      211
     567      3      208      201      202      209
     568      3      208      201      202      210
     569      3      208      201      202      211
     570     14      153      154      198      199
     571     15      153      154      198      203
     572     15      153      154      198      204
     573     16      155      154      198      199
     574      7      155      154      198      203
     575      7      155      154      198      204
     576      3      213      211      212      215
     577      3      213      211      212      216
     578      6      213      211      212      217
     579      3      214      211      212      215
     580      3      214      211      212      216
     581      6      214      211      212      217
     582      3      202      211      212      215
     583      3      202      211      212      216
     584      7      202      211      212      217
     585      5      201      202      211      212
     586      3      201      202      211      213
     587      3      201      202      211      214
     588      3      209      202      211      212
     589      3      209      202      211      213
     590      3      209      202      211      214
     591      3      210      202      211      212
     592      3      210      202      211      213
     593      3      210      202      211      214
     594      8      254      217      218      219
     595      8      254      217      218      255
     596      8      212      217      218      219
     597      8      212      217      218      255
     598      8      217      218      219      220
     599      8      217      218      219      256
     600      8      255      218      219      220
     601      8      255      218      219      256
     602      8      218      219      220      221
     603      8      218      219      220      253
     604      8      256      219      220      221
     605      8      256      219      220      253
     606      9      219      220      221      222
     607     10      219      220      221      246
     608      9      253      220      221      222
     609     10      253      220      221      246
     610      8      220      221      222      223
     611      8      246      221      222      223
     612      8      221      222      223      224
     613      8      221      222      223      244
     614     11      222      223      224      225
     615     11      222      223      224      257
     616     11      244      223      224      225
     617      8      244      223      224      257
     618      8      223      224      225      226
     619      8      223      224      225      242
     620      8      257      224      225      226
     621      8      257      224      225      242
     622     10      224      225      226      227
     623     10      224      225      226      241
     624     10      242      225      226      227
     625     10      242      225      226      241
     626      8      225      226      227      228
     627      8      225      226      227      258
     628      8      241      226      227      228
     629      8      241      226      227      258
     630      8      226      227      228      229
     631      8      226      227      228      259
     632      8      258      227      228      229
     633      8      258      227      228      259
     634     11      227      228      229      230
     635      8      227      228      229      240
     636     11      259      228      229      230
     637      8      259      228      229      240
     638      8      228      229      230      231
     639      8      240      229      230      231
     640      8      229      230      231      232
     641      8      229      230      231      275
     642      8      230      231      232      233
     643     12      230      231      232      239
     644      8      275      231      232      233
     645      8      275      231      232      239
     646     10      231      232      233      234
     647     10      231      232      233      238
     648      9      239      232      233      234
     649      9      239      232      233      238
     650      8      232      233      234      235
     651      8      232      233      234      260
     652      8      238      233      234      235
     653      8      238      233      234      260
     654      8      233      234      235      236
     655      8      233      234      235      261
     656      8      260      234      235      236
     657      8      260      234      235      261
     658      8      234      235      236      237
     659      8      234      235      236      262
     660      8      261      235      236      237
     661      8      261      235      236      262
     662      8      235      236      237      238
     663      8      235      236      237      263
     664      8      262      236      237      238
     665      8      262      236      237      263
     666      8      236      237      238      233
     667      8      236      237      238      264
     668      8      263      237      238      233
     669      8      263      237      238      264
     670      8      231      232      239      240
     671      8      233      232      239      240
     672      8      232      239      240      241
     673      8      232      239      240      229
     674     11      239      240      241      226
     675     11      239      240      241      265
     676     11      229      240      241      226
     677      8      229      240      241      265
     678      8      224      225      242      243
     679      8      224      225      242      266
     680      8      226      225      242      243
     681      8      226      225      242      266
     682      8      225      242      243      244
     683      8      225      242      243      267
     684      8      266      242      243      244
     685      8      266      242      243      267
     686     11      242      243      244      245
     687      8      242      243      244      223
     688     11      267      243      244      245
     689      8      267      243      244      223
     690      8      243      244      245      246
     691      8      223      244      245      246
     692      8      244      245      246      247
     693      8      244      245      246      221
     694      9      245      246      247      248
     695      9      245      246      247      252
     696     10      221      246      247      248
     697     10      221      246      247      252
     698      8      246      247      248      249
     699      8      246      247      248      268
     700      8      252      247      248      249
     701      8      252      247      248      268
     702      8      247      248      249      250
     703      8      247      248      249      269
     704      8      268      248      249      250
     705      8      268      248      249      269
     706      8      248      249      250      251
     707      8      248      249      250      270
     708      8      269      249      250      251
     709      8      269      249      250      270
     710      8      249      250      251      252
     711      8      249      250      251      271
     712      8      270      250      251      252
     713      8      270      250      251      271
     714      8      250      251      252      247
     715      8      250      251      252      272
     716      8      271      251      252      247
     717      8      271      251      252      272
     718      8      219      220      253      254
     719      8      219      220      253      273
     720      8      221      220      253      254
     721      8      221      220      253      273
     722      8      220      253      254      217
     723      8      220      253      254      274
     724      8      273      253      254      217
     725      8      273      253      254      274
     726      8      253      254      217      218
     727      8      253      254      217      212
     728      8      274      254      217      218
     729      8      274      254      217      212
     730      9      245      246      221      220
     731     12      245      246      221      222
     732     10      247      246      221      220
     733      9      247      246      221      222
     734      8      251      252      247      246
     735      8      251      252      247      248
     736      8      272      252      247      246
     737      8      272      252      247      248
     738      8      243      244      223      222
     739      8      243      244      223      224
     740      8      245      244      223      222
     741      8      245      244      223      224
     742      8      240      241      226      225
     743      8      240      241      226      227
     744      8      265      241      226      225
     745      8      265      241      226      227
     746      8      239      240      229      228
     747      8      239      240      229      230
     748      8      241      240      229      228
     749      8      241      240      229      230
     750      8      237      238      233      232
     751      8      237      238      233      234
     752      8      264      238      233      232
     753      8      264      238      233      234
     754     13      211      212      217      218
     755     13      211      212      217      254
     756      7      215      212      217      218
     757      7      215      212      217      254
     758      7      216      212      217      218
     759      7      216      212      217      254
     760      7      283      275      276      277
     761      7      283      275      276      282
     762      7      284      275      276      277
     763      7      284      275      276      282
     764     16      231      275      276      277
     765     16      231      275      276      282
     766      8      275      276      277      278
     767      8      275      276      277      285
     768      8      282      276      277      278
     769      8      282      276      277      285
     770      8      276      277      278      279
     771      8      276      277      278      286
     772      8      285      277      278      279
     773      8      285      277      278      286
     774      8      277      278      279      280
     775      8      277      278      279      281
     776      8      286      278      279      280
     777      8      286      278      279      281
     778      7      278      279      280      287
     779      7      278      279      280      288
     780     13      278      279      280      291
     781      7      281      279      280      287
     782      7      281      279      280      288
     783     13      281      279      280      291
     784      8      278      279      281      282
     785      8      278      279      281      289
     786      8      280      279      281      282
     787      8      280      279      281      289
     788      8      279      281      282      276
     789      8      279      281      282      290
     790      8      289      281      282      276
     791      8      289      281      282      290
     792      8      281      282      276      275
     793      8      281      282      276      277
     794      8      290      282      276      275
     795      8      290      282      276      277
     796     14      230      231      275      276
     797     15      230      231      275      283
     798     15      230      231      275      284
     799     16      232      231      275      276
     800      7      232      231      275      283
     801      7      232      231      275      284
     802     17      302      291      292      293
     803      3      302      291      292      304
     804      3      302      291      292      305
     805     17      303      291      292      293
     806      3      303      291      292      304
     807      3      303      291      292      305
     808     18      280      291      292      293
     809      3      280      291      292      304
     810      3      280      291      292      305
     811      7      291      292      293      294
     812      7      291      292      293      295
     813      7      291      292      293      296
     814     17      304      292      293      294
     815     17      304      292      293      295
     816     17      304      292      293      296
     817     17      305      292      293      294
     818     17      305      292      293      295
     819     17      305      292      293      296
     820      7      292      293      296      297
     821      7      292      293      296      298
     822      7      292      293      296      300
     823      7      294      293      296      297
     824      7      294      293      296      298
     825      7      294      293      296      300
     826      7      295      293      296      297
     827      7      295      293      296      298
     828      7      295      293      296      300
     829     17      293      296      297      306
     830     17      293      296      297      307
     831     18      293      296      297      312
     832      3      298      296      297      306
     833      3      298      296      297      307
     834      5      298      296      297      312
     835      3      300      296      297      306
     836      3      300      296      297      307
     837      5      300      296      297      312
     838      3      293      296      298      299
     839     17      293      296      298      308
     840     17      293      296      298      309
     841      4      297      296      298      299
     842      3      297      296      298      308
     843      3      297      296      298      309
     844      4      300      296      298      299
     845      3      300      296      298      308
     846      3      300      296      298      309
     847      2      296      298      299      325
     848      1      308      298      299      325
     849      1      309      298      299      325
     850      3      293      296      300      301
     851     17      293      296      300      310
     852     17      293      296      300      311
     853      4      297      296      300      301
     854      3      297      296      300      310
     855      3      297      296      300      311
     856      4      298      296      300      301
     857      3      298      296      300      310
     858      3      298      296      300      311
     859      2      296      300      301      338
     860      1      310      300      301      338
     861      1      311      300      301      338
     862      7      279      280      291      292
     863      6      279      280      291      302
     864      6      279      280      291      303
     865      3      287      280      291      292
     866      3      287      280      291      302
     867      3      287      280      291      303
     868      3      288      280      291      292
     869      3      288      280      291      302
     870      3      288      280      291      303
     871      3      317      312      313      314
     872      3      317      312      313      319
     873      3      317      312      313      320
     874      3      318      312      313      314
     875      3      318      312      313      319
     876      3      318      312      313      320
     877      4      297      312      313      314
     878      3      297      312      313      319
     879      3      297      312      313      320
     880      2      312      313      314      315
     881      1      319      313      314      315
     882      1      320      313      314      315
     883      2      313      314      315      316
     884      1      313      314      315      321
     885      1      313      314      315      322
     886      3      314      315      316      323
     887      3      314      315      316      324
     888      4      314      315      316      344
     889      3      321      315      316      323
     890      3      321      315      316      324
     891      3      321      315      316      344
     892      3      322      315      316      323
     893      3      322      315      316      324
     894      3      322      315      316      344
     895      5      296      297      312      313
     896      3      296      297      312      317
     897      3      296      297      312      318
     898      3      306      297      312      313
     899      3      306      297      312      317
     900      3      306      297      312      318
     901      3      307      297      312      313
     902      3      307      297      312      317
     903      3      307      297      312      318
     904      3      330      325      326      327
     905      3      330      325      326      332
     906      3      330      325      326      333
     907      3      331      325      326      327
     908      3      331      325      326      332
     909      3      331      325      326      333
     910     19      299      325      326      327
     911      3      299      325      326      332
     912      3      299      325      326      333
     913      2      325      326      327      328
     914      1      332      326      327      328
     915      1      333      326      327      328
     916      2      326      327      328      329
     917      1      326      327      328      334
     918      1      326      327      328      335
     919      3      327      328      329      336
     920      3      327      328      329      337
     921      4      327      328      329      357
     922      3      334      328      329      336
     923      3      334      328      329      337
     924      3      334      328      329      357
     925      3      335      328      329      336
     926      3      335      328      329      337
     927      3      335      328      329      357
     928      2      298      299      325      326
     929      1      298      299      325      330
     930      1      298      299      325      331
     931      3      340      338      339      342
     932      3      340      338      339      343
     933      3      340      338      339      363
     934      3      341      338      339      342
     935      3      341      338      339      343
     936      3      341      338      339      363
     937      3      301      338      339      342
     938      3      301      338      339      343
     939      4      301      338      339      363
     940      2      300      301      338      339
     941      1      300      301      338      340
     942      1      300      301      338      341
     943      3      349      344      345      346
     944      3      349      344      345      351
     945      3      349      344      345      352
     946      3      350      344      345      346
     947      3      350      344      345      351
     948      3      350      344      345      352
     949      4      316      344      345      346
     950      3      316      344      345      351
     951      3      316      344      345      352
     952      2      344      345      346      347
     953      1      351      345      346      347
     954      1      352      345      346      347
     955      2      345      346      347      348
     956      1      345      346      347      353
     957      1      345      346      347      354
     958      3      346      347      348      355
     959      3      346      347      348      356
     960      4      346      347      348      376
     961      3      353      347      348      355
     962      3      353      347      348      356
     963      3      353      347      348      376
     964      3      354      347      348      355
     965      3      354      347      348      356
     966      3      354      347      348      376
     967      5      315      316      344      345
     968      3      315      316      344      349
     969      3      315      316      344      350
     970      3      323      316      344      345
     971      3      323      316      344      349
     972      3      323      316      344      350
     973      3      324      316      344      345
     974      3      324      316      344      349
     975      3      324      316      344      350
     976      3      359      357      358      361
     977      3      359      357      358      362
     978      6      359      357      358      392
     979      3      360      357      358      361
     980      3      360      357      358      362
     981      6      360      357      358      392
     982      3      329      357      358      361
     983      3      329      357      358      362
     984      7      329      357      358      392
     985      5      328      329      357      358
     986      3      328      329      357      359
     987      3      328      329      357      360
     988      3      336      329      357      358
     989      3      336      329      357      359
     990      3      336      329      357      360
     991      3      337      329      357      358
     992      3      337      329      357      359
     993      3      337      329      357      360
     994      3      368      363      364      365
     995      3      368      363      364      370
     996      3      368      363      364      371
     997      3      369      363      364      365
     998      3      369      363      364      370
     999      3      369      363      364      371
    1000      4      339      363      364      365
    1001      3      339      363      364      370
    1002      3      339      363      364      371
    1003      2      363      364      365      366
    1004      1      370      364      365      366
    1005      1      371      364      365      366
    1006      2      364      365      366      367
    1007      1      364      365      366      372
    1008      1      364      365      366      373
    1009      3      365      366      367      374
    1010      3      365      366      367      375
    1011      4      365      366      367      450
    1012      3      372      366      367      374
    1013      3      372      366      367      375
    1014      3      372      366      367      450
    1015      3      373      366      367      374
    1016      3      373      366      367      375
    1017      3      373      366      367      450
    1018      5      338      339      363      364
    1019      3      338      339      363      368
    1020      3      338      339      363      369
    1021      3      342      339      363      364
    1022      3      342      339      363      368
    1023      3      342      339      363      369
    1024      3      343      339      363      364
    1025      3      343      339      363      368
    1026      3      343      339      363      369
    1027      7      384      376      377      378
    1028      7      384      376      377      383
    1029      7      385      376      377      378
    1030      7      385      376      377      383
    1031     13      348      376      377      378
    1032     13      348      376      377      383
    1033      8      376      377      378      379
    1034      8      376      377      378      386
    1035      8      383      377      378      379
    1036      8      383      377      378      386
    1037      8      377      378      379      380
    1038      8      377      378      379      387
    1039      8      386      378      379      380
    1040      8      386      378      379      387
    1041      8      378      379      380      381
    1042      8      378      379      380      382
    1043      8      387      379      380      381
    1044      8      387      379      380      382
    1045      7      379      380      381      388
    1046      7      379      380      381      389
    1047     16      379      380      381      456
    1048      7      382      380      381      388
    1049      7      382      380      381      389
    1050     16      382      380      381      456
    1051      8      379      380      382      383
    1052      8      379      380      382      390
    1053      8      381      380      382      383
    1054      8      381      380      382      390
    1055      8      380      382      383      377
    1056      8      380      382      383      391
    1057      8      390      382      383      377
    1058      8      390      382      383      391
    1059      8      382      383      377      376
    1060      8      382      383      377      378
    1061      8      391      383      377      376
    1062      8      391      383      377      378
    1063      7      347      348      376      377
    1064      3      347      348      376      384
    1065      3      347      348      376      385
    1066      6      355      348      376      377
    1067      3      355      348      376      384
    1068      3      355      348      376      385
    1069      6      356      348      376      377
    1070      3      356      348      376      384
    1071      3      356      348      376      385
    1072      8      429      392      393      394
    1073      8      429      392      393      430
    1074      8      358      392      393      394
    1075      8      358      392      393      430
    1076      8      392      393      394      395
    1077      8      392      393      394      431
    1078      8      430      393      394      395
    1079      8      430      393      394      431
    1080      8      393      394      395      396
    1081      8      393      394      395      428
    1082      8      431      394      395      396
    1083      8      431      394      395      428
    1084      9      394      395      396      397
    1085     10      394      395      396      421
    1086      9      428      395      396      397
    1087     10      428      395      396      421
    1088      8      395      396      397      398
    1089      8      421      396      397      398
    1090      8      396      397      398      399
    1091      8      396      397      398      419
    1092     11      397      398      399      400
    1093     11      397      398      399      432
    1094     11      419      398      399      400
    1095      8      419      398      399      432
    1096      8      398      399      400      401
    1097      8      398      399      400      417
    1098      8      432      399      400      401
    1099      8      432      399      400      417
    1100     10      399      400      401      402
    1101     10      399      400      401      416
    1102     10      417      400      401      402
    1103     10      417      400      401      416
    1104      8      400      401      402      403
    1105      8      400      401      402      433
    1106      8      416      401      402      403
    1107      8      416      401      402      433
    1108      8      401      402      403      404
    1109      8      401      402      403      434
    1110      8      433      402      403      404
    1111      8      433      402      403      434
    1112     11      402      403      404      405
    1113      8      402      403      404      415
    1114     11      434      403      404      405
    1115      8      434      403      404      415
    1116      8      403      404      405      406
    1117      8      415      404      405      406
    1118      8      404      405      406      407
    1119      8      404      405      406      514
    1120      8      405      406      407      408
    1121     12      405      406      407      414
    1122      8      514      406      407      408
    1123      8      514      406      407      414
    1124     10      406      407      408      409
    1125     10      406      407      408      413
    1126      9      414      407      408      409
    1127      9      414      407      408      413
    1128      8      407      408      409      410
    1129      8      407      408      409      435
    1130      8      413      408      409      410
    1131      8      413      408      409      435
    1132      8      408      409      410      411
    1133      8      408      409      410      436
    1134      8      435      409      410      411
    1135      8      435      409      410      436
    1136      8      409      410      411      412
    1137      8      409      410      411      437
    1138      8      436      410      411      412
    1139      8      436      410      411      437
    1140      8      410      411      412      413
    1141      8      410      411      412      438
    1142      8      437      411      412      413
    1143      8      437      411      412      438
    1144      8      411      412      413      408
    1145      8      411      412      413      439
    1146      8      438      412      413      408
    1147      8      438      412      413      439
    1148      8      406      407      414      415
    1149      8      408      407      414      415
    1150      8      407      414      415      416
    1151      8      407      414      415      404
    1152     11      414      415      416      401
    1153     11      414      415      416      440
    1154     11      404      415      416      401
    1155      8      404      415      416      440
    1156      8      399      400      417      418
    1157      8      399      400      417      441
    1158      8      401      400      417      418
    1159      8      401      400      417      441
    1160      8      400      417      418      419
    1161      8      400      417      418      442
    1162      8      441      417      418      419
    1163      8      441      417      418      442
    1164     11      417      418      419      420
    1165      8      417      418      419      398
    1166     11      442      418      419      420
    1167      8      442      418      419      398
    1168      8      418      419      420      421
    1169      8      398      419      420      421
    1170      8      419      420      421      422
    1171      8      419      420      421      396
    1172      9      420      421      422      423
    1173      9      420      421      422      427
    1174     10      396      421      422      423
    1175     10      396      421      422      427
    1176      8      421      422      423      424
    1177      8      421      422      423      443
    1178      8      427      422      423      424
    1179      8      427      422      423      443
    1180      8      422      423      424      425
    1181      8      422      423      424      444
    1182      8      443      423      424      425
    1183      8      443      423      424      444
    1184      8      423      424      425      426
    1185      8      423      424      425      445
    1186      8      444      424      425      426
    1187      8      444      424      425      445
    1188      8      424      425      426      427
    1189      8      424      425      426      446
    1190      8      445      425      426      427
    1191      8      445      425      426      446
    1192      8      425      426      427      422
    1193      8      425      426      427      447
    1194      8      446      426      427      422
    1195      8      446      426      427      447
    1196      8      394      395      428      429
    1197      8      394      395      428      448
    1198      8      396      395      428      429
    1199      8      396      395      428      448
    1200      8      395      428      429      392
    1201      8      395      428      429      449
    1202      8      448      428      429      392
    1203      8      448      428      429      449
    1204      8      428      429      392      393
    1205      8      428      429      392      358
    1206      8      449      429      392      393
    1207      8      449      429      392      358
    1208      9      420      421      396      395
    1209     12      420      421      396      397
    1210     10      422      421      396      395
    1211      9      422      421      396      397
    1212      8      426      427      422      421
    1213      8      426      427      422      423
    1214      8      447      427      422      421
    1215      8      447      427      422      423
    1216      8      418      419      398      397
    1217      8      418      419      398      399
    1218      8      420      419      398      397
    1219      8      420      419      398      399
    1220      8      415      416      401      400
    1221      8      415      416      401      402
    1222      8      440      416      401      400
    1223      8      440      416      401      402
    1224      8      414      415      404      403
    1225      8      414      415      404      405
    1226      8      416      415      404      403
    1227      8      416      415      404      405
    1228      8      412      413      408      407
    1229      8      412      413      408      409
    1230      8      439      413      408      407
    1231      8      439      413      408      409
    1232     13      357      358      392      393
    1233     13      357      358      392      429
    1234      7      361      358      392      393
    1235      7      361      358      392      429
    1236      7      362      358      392      393
    1237      7      362      358      392      429
    1238      3      452      450      451      454
    1239      3      452      450      451      455
    1240      6      452      450      451      530
    1241      3      453      450      451      454
    1242      3      453      450      451      455
    1243      6      453      450      451      530
    1244      3      367      450      451      454
    1245      3      367      450      451      455
    1246      7      367      450      451      530
    1247      5      366      367      450      451
    1248      3      366      367      450      452
    1249      3      366      367      450      453
    1250      3      374      367      450      451
    1251      3      374      367      450      452
    1252      3      374      367      450      453
    1253      3      375      367      450      451
    1254      3      375      367      450      452
    1255      3      375      367      450      453
    1256      8      493      456      457      458
    1257      8      493      456      457      494
    1258      8      381      456      457      458
    1259      8      381      456      457      494
    1260      8      456      457      458      459
    1261      8      456      457      458      495
    1262      8      494      457      458      459
    1263      8      494      457      458      495
    1264      8      457      458      459      460
    1265      8      457      458      459      492
    1266      8      495      458      459      460
    1267      8      495      458      459      492
    1268      9      458      459      460      461
    1269     10      458      459      460      485
    1270      9      492      459      460      461
    1271     10      492      459      460      485
    1272      8      459      460      461      462
    1273      8      485      460      461      462
    1274      8      460      461      462      463
    1275      8      460      461      462      483
    1276     11      461      462      463      464
    1277     11      461      462      463      496
    1278     11      483      462      463      464
    1279      8      483      462      463      496
    1280      8      462      463      464      465
    1281      8      462      463      464      481
    1282      8      496      463      464      465
    1283      8      496      463      464      481
    1284     10      463      464      465      466
    1285     10      463      464      465      480
    1286     10      481      464      465      466
    1287     10      481      464      465      480
    1288      8      464      465      466      467
    1289      8      464      465      466      497
    1290      8      480      465      466      467
    1291      8      480      465      466      497
    1292      8      465      466      467      468
    1293      8      465      466      467      498
    1294      8      497      466      467      468
    1295      8      497      466      467      498
    1296     11      466      467      468      469
    1297      8      466      467      468      479
    1298     11      498      467      468      469
    1299      8      498      467      468      479
    1300      8      467      468      469      470
    1301      8      479      468      469      470
    1302      8      468      469      470      471
    1303      8      468      469      470      588
    1304      9      469      470      471      472
    1305     12      469      470      471      478
    1306     10      588      470      471      472
    1307      9      588      470      471      478
    1308     10      470      471      472      473
    1309     10      470      471      472      477
    1310      9      478      471      472      473
    1311      9      478      471      472      477
    1312      8      471      472      473      474
    1313      8      471      472      473      499
    1314      8      477      472      473      474
    1315      8      477      472      473      499
    1316      8      472      473      474      475
    1317      8      472      473      474      500
    1318      8      499      473      474      475
    1319      8      499      473      474      500
    1320      8      473      474      475      476
    1321      8      473      474      475      501
    1322      8      500      474      475      476
    1323      8      500      474      475      501
    1324      8      474      475      476      477
    1325      8      474      475      476      502
    1326      8      501      475      476      477
    1327      8      501      475      476      502
    1328      8      475      476      477      472
    1329      8      475      476      477      503
    1330      8      502      476      477      472
    1331      8      502      476      477      503
    1332      8      470      471      478      479
    1333      8      472      471      478      479
    1334      8      471      478      479      480
    1335      8      471      478      479      468
    1336     11      478      479      480      465
    1337     11      478      479      480      504
    1338     11      468      479      480      465
    1339      8      468      479      480      504
    1340      8      463      464      481      482
    1341      8      463      464      481      505
    1342      8      465      464      481      482
    1343      8      465      464      481      505
    1344      8      464      481      482      483
    1345      8      464      481      482      506
    1346      8      505      481      482      483
    1347      8      505      481      482      506
    1348     11      481      482      483      484
    1349      8      481      482      483      462
    1350     11      506      482      483      484
    1351      8      506      482      483      462
    1352      8      482      483      484      485
    1353      8      462      483      484      485
    1354      8      483      484      485      486
    1355      8      483      484      485      460
    1356      9      484      485      486      487
    1357      9      484      485      486      491
    1358     10      460      485      486      487
    1359     10      460      485      486      491
    1360      8      485      486      487      488
    1361      8      485      486      487      507
    1362      8      491      486      487      488
    1363      8      491      486      487      507
    1364      8      486      487      488      489
    1365      8      486      487      488      508
    1366      8      507      487      488      489
    1367      8      507      487      488      508
    1368      8      487      488      489      490
    1369      8      487      488      489      509
    1370      8      508      488      489      490
    1371      8      508      488      489      509
    1372      8      488      489      490      491
    1373      8      488      489      490      510
    1374      8      509      489      490      491
    1375      8      509      489      490      510
    1376      8      489      490      491      486
    1377      8      489      490      491      511
    1378      8      510      490      491      486
    1379      8      510      490      491      511
    1380      8      458      459      492      493
    1381      8      458      459      492      512
    1382      8      460      459      492      493
    1383      8      460      459      492      512
    1384      8      459      492      493      456
    1385      8      459      492      493      513
    1386      8      512      492      493      456
    1387      8      512      492      493      513
    1388      8      492      493      456      457
    1389      8      492      493      456      381
    1390      8      513      493      456      457
    1391      8      513      493      456      381
    1392      9      484      485      460      459
    1393     12      484      485      460      461
    1394     10      486      485      460      459
    1395      9      486      485      460      461
    1396      8      490      491      486      485
    1397      8      490      491      486      487
    1398      8      511      491      486      485
    1399      8      511      491      486      487
    1400      8      482      483      462      461
    1401      8      482      483      462      463
    1402      8      484      483      462      461
    1403      8      484      483      462      463
    1404      8      479      480      465      464
    1405      8      479      480      465      466
    1406      8      504      480      465      464
    1407      8      504      480      465      466
    1408      8      478      479      468      467
    1409      8      478      479      468      469
    1410      8      480      479      468      467
    1411      8      480      479      468      469
    1412      8      476      477      472      471
    1413      8      476      477      472      473
    1414      8      503      477      472      471
    1415      8      503      477      472      473
    1416     16      380      381      456      457
    1417     16      380      381      456      493
    1418      7      388      381      456      457
    1419      7      388      381      456      493
    1420      7      389      381      456      457
    1421      7      389      381      456      493
    1422      7      522      514      515      516
    1423      7      522      514      515      521
    1424      7      523      514      515      516
    1425      7      523      514      515      521
    1426     16      406      514      515      516
    1427     16      406      514      515      521
    1428      8      514      515      516      517
    1429      8      514      515      516      524
    1430      8      521      515      516      517
    1431      8      521      515      516      524
    1432      8      515      516      517      518
    1433      8      515      516      517      525
    1434      8      524      516      517      518
    1435      8      524      516      517      525
    1436      8      516      517      518      519
    1437      8      516      517      518      520
    1438      8      525      517      518      519
    1439      8      525      517      518      520
    1440      7      517      518      519      526
    1441      7      517      518      519      527
    1442     13      517      518      519      646
    1443      7      520      518      519      526
    1444      7      520      518      519      527
    1445     13      520      518      519      646
    1446      8      517      518      520      521
    1447      8      517      518      520      528
    1448      8      519      518      520      521
    1449      8      519      518      520      528
    1450      8      518      520      521      515
    1451      8      518      520      521      529
    1452      8      528      520      521      515
    1453      8      528      520      521      529
    1454      8      520      521      515      514
    1455      8      520      521      515      516
    1456      8      529      521      515      514
    1457      8      529      521      515      516
    1458     14      405      406      514      515
    1459     15      405      406      514      522
    1460     15      405      406      514      523
    1461     16      407      406      514      515
    1462      7      407      406      514      522
    1463      7      407      406      514      523
    1464      8      567      530      531      532
    1465      8      567      530      531      568
    1466      8      451      530      531      532
    1467      8      451      530      531      568
    1468      8      530      531      532      533
    1469      8      530      531      532      569
    1470      8      568      531      532      533
    1471      8      568      531      532      569
    1472      8      531      532      533      534
    1473      8      531      532      533      566
    1474      8      569      532      533      534
    1475      8      569      532      533      566
    1476      9      532      533      534      535
    1477     10      532      533      534      559
    1478      9      566      533      534      535
    1479     10      566      533      534      559
    1480      8      533      534      535      536
    1481      8      559      534      535      536
    1482      8      534      535      536      537
    1483      8      534      535      536      557
    1484     11      535      536      537      538
    1485     11      535      536      537      570
    1486     11      557      536      537      538
    1487      8      557      536      537      570
    1488      8      536      537      538      539
    1489      8      536      537      538      555
    1490      8      570      537      538      539
    1491      8      570      537      538      555
    1492     10      537      538      539      540
    1493     10      537      538      539      554
    1494     10      555      538      539      540
    1495     10      555      538      539      554
    1496      8      538      539      540      541
    1497      8      538      539      540      571
    1498      8      554      539      540      541
    1499      8      554      539      540      571
    1500      8      539      540      541      542
    1501      8      539      540      541      572
    1502      8      571      540      541      542
    1503      8      571      540      541      572
    1504     11      540      541      542      543
    1505      8      540      541      542      553
    1506     11      572      541      542      543
    1507      8      572      541      542      553
    1508      8      541      542      543      544
    1509      8      553      542      543      544
    1510      8      542      543      544      545
    1511      8      542      543      544      659
    1512      8      543      544      545      546
    1513     12      543      544      545      552
    1514      8      659      544      545      546
    1515      8      659      544      545      552
    1516     10      544      545      546      547
    1517     10      544      545      546      551
    1518      9      552      545      546      547
    1519      9      552      545      546      551
    1520      8      545      546      547      548
    1521      8      545      546      547      573
    1522      8      551      546      547      548
    1523      8      551      546      547      573
    1524      8      546      547      548      549
    1525      8      546      547      548      574
    1526      8      573      547      548      549
    1527      8      573      547      548      574
    1528      8      547      548      549      550
    1529      8      547      548      549      575
    1530      8      574      548      549      550
    1531      8      574      548      549      575
    1532      8      548      549      550      551
    1533      8      548      549      550      576
    1534      8      575      549      550      551
    1535      8      575      549      550      576
    1536      8      549      550      551      546
    1537      8      549      550      551      577
    1538      8      576      550      551      546
    1539      8      576      550      551      577
    1540      8      544      545      552      553
    1541      8      546      545      552      553
    1542      8      545      552      553      554
    1543      8      545      552      553      542
    1544     11      552      553      554      539
    1545     11      552      553      554      578
    1546     11      542      553      554      539
    1547      8      542      553      554      578
    1548      8      537      538      555      556
    1549      8      537      538      555      579
    1550      8      539      538      555      556
    1551      8      539      538      555      579
    1552      8      538      555      556      557
    1553      8      538      555      556      580
    1554      8      579      555      556      557
    1555      8      579      555      556      580
    1556     11      555      556      557      558
    1557      8      555      556      557      536
    1558     11      580      556      557      558
    1559      8      580      556      557      536
    1560      8      556      557      558      559
    1561      8      536      557      558      559
    1562      8      557      558      559      560
    1563      8      557      558      559      534
    1564      9      558      559      560      561
    1565      9      558      559      560      565
    1566     10      534      559      560      561
    1567     10      534      559      560      565
    1568      8      559      560      561      562
    1569      8      559      560      561      581
    1570      8      565      560      561      562
    1571      8      565      560      561      581
    1572      8      560      561      562      563
    1573      8      560      561      562      582
    1574      8      581      561      562      563
    1575      8      581      561      562      582
    1576      8      561      562      563      564
    1577      8      561      562      563      583
    1578      8      582      562      563      564
    1579      8      582      562      563      583
    1580      8      562      563      564      565
    1581      8      562      563      564      584
    1582      8      583      563      564      565
    1583      8      583      563      564      584
    1584      8      563      564      565      560
    1585      8      563      564      565      585
    1586      8      584      564      565      560
    1587      8      584      564      565      585
    1588      8      532      533      566      567
    1589      8      532      533      566      586
    1590      8      534      533      566      567
    1591      8      534      533      566      586
    1592      8      533      566      567      530
    1593      8      533      566      567      587
    1594      8      586      566      567      530
    1595      8      586      566      567      587
    1596      8      566      567      530      531
    1597      8      566      567      530      451
    1598      8      587      567      530      531
    1599      8      587      567      530      451
    1600      9      558      559      534      533
    1601     12      558      559      534      535
    1602     10      560      559      534      533
    1603      9      560      559      534      535
    1604      8      564      565      560      559
    1605      8      564      565      560      561
    1606      8      585      565      560      559
    1607      8      585      565      560      561
    1608      8      556      557      536      535
    1609      8      556      557      536      537
    1610      8      558      557      536      535
    1611      8      558      557      536      537
    1612      8      553      554      539      538
    1613      8      553      554      539      540
    1614      8      578      554      539      538
    1615      8      578      554      539      540
    1616      8      552      553      542      541
    1617      8      552      553      542      543
    1618      8      554      553      542      541
    1619      8      554      553      542      543
    1620      8      550      551      546      545
    1621      8      550      551      546      547
    1622      8      577      551      546      545
    1623      8      577      551      546      547
    1624     13      450      451      530      531
    1625     13      450      451      530      567
    1626      7      454      451      530      531
    1627      7      454      451      530      567
    1628      7      455      451      530      531
    1629      7      455      451      530      567
    1630      8      625      588      589      590
    1631      8      625      588      589      626
    1632      8      470      588      589      590
    1633      8      470      588      589      626
    1634      8      588      589      590      591
    1635      8      588      589      590      627
    1636      8      626      589      590      591
    1637      8      626      589      590      627
    1638      8      589      590      591      592
    1639      8      589      590      591      624
    1640      8      627      590      591      592
    1641      8      627      590      591      624
    1642      9      590      591      592      593
    1643     10      590      591      592      617
    1644      9      624      591      592      593
    1645     10      624      591      592      617
    1646      8      591      592      593      594
    1647      8      617      592      593      594
    1648      8      592      593      594      595
    1649      8      592      593      594      615
    1650     11      593      594      595      596
    1651     11      593      594      595      628
    1652     11      615      594      595      596
    1653      8      615      594      595      628
    1654      8      594      595      596      597
    1655      8      594      595      596      613
    1656      8      628      595      596      597
    1657      8      628      595      596      613
    1658     10      595      596      597      598
    1659     10      595      596      597      612
    1660     10      613      596      597      598
    1661     10      613      596      597      612
    1662      8      596      597      598      599
    1663      8      596      597      598      629
    1664      8      612      597      598      599
    1665      8      612      597      598      629
    1666      8      597      598      599      600
    1667      8      597      598      599      630
    1668      8      629      598      599      600
    1669      8      629      598      599      630
    1670     11      598      599      600      601
    1671      8      598      599      600      611
    1672     11      630      599      600      601
    1673      8      630      599      600      611
    1674      8      599      600      601      602
    1675      8      611      600      601      602
    1676      8      600      601      602      603
    1677      8      600      601      602      665
    1678      8      601      602      603      604
    1679     12      601      602      603      610
    1680      8      665      602      603      604
    1681      8      665      602      603      610
    1682     10      602      603      604      605
    1683     10      602      603      604      609
    1684      9      610      603      604      605
    1685      9      610      603      604      609
    1686      8      603      604      605      606
    1687      8      603      604      605      631
    1688      8      609      604      605      606
    1689      8      609      604      605      631
    1690      8      604      605      606      607
    1691      8      604      605      606      632
    1692      8      631      605      606      607
    1693      8      631      605      606      632
    1694      8      605      606      607      608
    1695      8      605      606      607      633
    1696      8      632      606      607      608
    1697      8      632      606      607      633
    1698      8      606      607      608      609
    1699      8      606      607      608      634
    1700      8      633      607      608      609
    1701      8      633      607      608      634
    1702      8      607      608      609      604
    1703      8      607      608      609      635
    1704      8      634      608      609      604
    1705      8      634      608      609      635
    1706      8      602      603      610      611
    1707      8      604      603      610      611
    1708      8      603      610      611      612
    1709      8      603      610      611      600
    1710     11      610      611      612      597
    1711     11      610      611      612      636
    1712     11      600      611      612      597
    1713      8      600      611      612      636
    1714      8      595      596      613      614
    1715      8      595      596      613      637
    1716      8      597      596      613      614
    1717      8      597      596      613      637
    1718      8      596      613      614      615
    1719      8      596      613      614      638
    1720      8      637      613      614      615
    1721      8      637      613      614      638
    1722     11      613      614      615      616
    1723      8      613      614      615      594
    1724     11      638      614      615      616
    1725      8      638      614      615      594
    1726      8      614      615      616      617
    1727      8      594      615      616      617
    1728      8      615      616      617      618
    1729      8      615      616      617      592
    1730      9      616      617      618      619
    1731      9      616      617      618      623
    1732     10      592      617      618      619
    1733     10      592      617      618      623
    1734      8      617      618      619      620
    1735      8      617      618      619      639
    1736      8      623      618      619      620
    1737      8      623      618      619      639
    1738      8      618      619      620      621
    1739      8      618      619      620      640
    1740      8      639      619      620      621
    1741      8      639      619      620      640
    1742      8      619      620      621      622
    1743      8      619      620      621      641
    1744      8      640      620      621      622
    1745      8      640      620      621      641
    1746      8      620      621      622      623
    1747      8      620      621      622      642
    1748      8      641      621      622      623
    1749      8      641      621      622      642
    1750      8      621      622      623      618
    1751      8      621      622      623      643
    1752      8      642      622      623      618
    1753      8      642      622      623      643
    1754      8      590      591      624      625
    1755      8      590      591      624      644
    1756      8      592      591      624      625
    1757      8      592      591      624      644
    1758      8      591      624      625      588
    1759      8      591      624      625      645
    1760      8      644      624      625      588
    1761      8      644      624      625      645
    1762      8      624      625      588      589
    1763      8      624      625      588      470
    1764      8      645      625      588      589
    1765      8      645      625      588      470
    1766      9      616      617      592      591
    1767     12      616      617      592      593
    1768     10      618      617      592      591
    1769      9      618      617      592      593
    1770      8      622      623      618      617
    1771      8      622      623      618      619
    1772      8      643      623      618      617
    1773      8      643      623      618      619
    1774      8      614      615      594      593
    1775      8      614      615      594      595
    1776      8      616      615      594      593
    1777      8      616      615      594      595
    1778      8      611      612      597      596
    1779      8      611      612      597      598
    1780      8      636      612      597      596
    1781      8      636      612      597      598
    1782      8      610      611      600      599
    1783      8      610      611      600      601
    1784      8      612      611      600      599
    1785      8      612      611      600      601
    1786      8      608      609      604      603
    1787      8      608      609      604      605
    1788      8      635      609      604      603
    1789      8      635      609      604      605
    1790      9      469      470      588      589
    1791      9      469      470      588      625
    1792     10      471      470      588      589
    1793     10      471      470      588      625
    1794      3      651      646      647      648
    1795      3      651      646      647      653
    1796      3      651      646      647      654
    1797      3      652      646      647      648
    1798      3      652      646      647      653
    1799      3      652      646      647      654
    1800      4      519      646      647      648
    1801      3      519      646      647      653
    1802      3      519      646      647      654
    1803      2      646      647      648      649
    1804      1      653      647      648      649
    1805      1      654      647      648      649
    1806      2      647      648      649      650
    1807      1      647      648      649      655
    1808      1      647      648      649      656
    1809      3      648      649      650      657
    1810      3      648      649      650      658
    1811      4      648      649      650      681
    1812      3      655      649      650      657
    1813      3      655      649      650      658
    1814      3      655      649      650      681
    1815      3      656      649      650      657
    1816      3      656      649      650      658
    1817      3      656      649      650      681
    1818      7      518      519      646      647
    1819      6      518      519      646      651
    1820      6      518      519      646      652
    1821      3      526      519      646      647
    1822      3      526      519      646      651
    1823      3      526      519      646      652
    1824      3      527      519      646      647
    1825      3      527      519      646      651
    1826      3      527      519      646      652
    1827      3      661      659      660      663
    1828      3      661      659      660      664
    1829      3      661      659      660      687
    1830      3      662      659      660      663
    1831      3      662      659      660      664
    1832      3      662      659      660      687
    1833      6      544      659      660      663
    1834      6      544      659      660      664
    1835      7      544      659      660      687
    1836     14      543      544      659      660
    1837     15      543      544      659      661
    1838     15      543      544      659      662
    1839     16      545      544      659      660
    1840      7      545      544      659      661
    1841      7      545      544      659      662
    1842      7      673      665      666      667
    1843      7      673      665      666      672
    1844      7      674      665      666      667
    1845      7      674      665      666      672
    1846     16      602      665      666      667
    1847     16      602      665      666      672
    1848      8      665      666      667      668
    1849      8      665      666      667      675
    1850      8      672      666      667      668
    1851      8      672      666      667      675
    1852      8      666      667      668      669
    1853      8      666      667      668      676
    1854      8      675      667      668      669
    1855      8      675      667      668      676
    1856      8      667      668      669      670
    1857      8      667      668      669      671
    1858      8      676      668      669      670
    1859      8      676      668      669      671
    1860      7      668      669      670      677
    1861      7      668      669      670      678
    1862     13      668      669      670      693
    1863      7      671      669      670      677
    1864      7      671      669      670      678
    1865     13      671      669      670      693
    1866      8      668      669      671      672
    1867      8      668      669      671      679
    1868      8      670      669      671      672
    1869      8      670      669      671      679
    1870      8      669      671      672      666
    1871      8      669      671      672      680
    1872      8      679      671      672      666
    1873      8      679      671      672      680
    1874      8      671      672      666      665
    1875      8      671      672      666      667
    1876      8      680      672      666      665
    1877      8      680      672      666      667
    1878     14      601      602      665      666
    1879     15      601      602      665      673
    1880     15      601      602      665      674
    1881     16      603      602      665      666
    1882      7      603      602      665      673
    1883      7      603      602      665      674
    1884      3      683      681      682      685
    1885      3      683      681      682      686
    1886      6      683      681      682      699
    1887      3      684      681      682      685
    1888      3      684      681      682      686
    1889      6      684      681      682      699
    1890      3      650      681      682      685
    1891      3      650      681      682      686
    1892      7      650      681      682      699
    1893      5      649      650      681      682
    1894      3      649      650      681      683
    1895      3      649      650      681      684
    1896      3      657      650      681      682
    1897      3      657      650      681      683
    1898      3      657      650      681      684
    1899      3      658      650      681      682
    1900      3      658      650      681      683
    1901      3      658      650      681      684
    1902      3      689      687      688      691
    1903      3      689      687      688      692
    1904      3      689      687      688      757
    1905      3      690      687      688      691
    1906      3      690      687      688      692
    1907      3      690      687      688      757
    1908      3      660      687      688      691
    1909      3      660      687      688      692
    1910      5      660      687      688      757
    1911      5      659      660      687      688
    1912      3      659      660      687      689
    1913      3      659      660      687      690
    1914      3      663      660      687      688
    1915      3      663      660      687      689
    1916      3      663      660      687      690
    1917      3      664      660      687      688
    1918      3      664      660      687      689
    1919      3      664      660      687      690
    1920      3      695      693      694      697
    1921      3      695      693      694      698
    1922      6      695      693      694      773
    1923      3      696      693      694      697
    1924      3      696      693      694      698
    1925      6      696      693      694      773
    1926      3      670      693      694      697
    1927      3      670      693      694      698
    1928      7      670      693      694      773
    1929      7      669      670      693      694
    1930      6      669      670      693      695
    1931      6      669      670      693      696
    1932      3      677      670      693      694
    1933      3      677      670      693      695
    1934      3      677      670      693      696
    1935      3      678      670      693      694
    1936      3      678      670      693      695
    1937      3      678      670      693      696
    1938      8      736      699      700      701
    1939      8      736      699      700      737
    1940      8      682      699      700      701
    1941      8      682      699      700      737
    1942      8      699      700      701      702
    1943      8      699      700      701      738
    1944      8      737      700      701      702
    1945      8      737      700      701      738
    1946      8      700      701      702      703
    1947      8      700      701      702      735
    1948      8      738      701      702      703
    1949      8      738      701      702      735
    1950      9      701      702      703      704
    1951     10      701      702      703      728
    1952      9      735      702      703      704
    1953     10      735      702      703      728
    1954      8      702      703      704      705
    1955      8      728      703      704      705
    1956      8      703      704      705      706
    1957      8      703      704      705      726
    1958     11      704      705      706      707
    1959     11      704      705      706      739
    1960     11      726      705      706      707
    1961      8      726      705      706      739
    1962      8      705      706      707      708
    1963      8      705      706      707      724
    1964      8      739      706      707      708
    1965      8      739      706      707      724
    1966     10      706      707      708      709
    1967     10      706      707      708      723
    1968     10      724      707      708      709
    1969     10      724      707      708      723
    1970      8      707      708      709      710
    1971      8      707      708      709      740
    1972      8      723      708      709      710
    1973      8      723      708      709      740
    1974      8      708      709      710      711
    1975      8      708      709      710      741
    1976      8      740      709      710      711
    1977      8      740      709      710      741
    1978     11      709      710      711      712
    1979      8      709      710      711      722
    1980     11      741      710      711      712
    1981      8      741      710      711      722
    1982      8      710      711      712      713
    1983      8      722      711      712      713
    1984      8      711      712      713      714
    1985      8      711      712      713      831
    1986      8      712      713      714      715
    1987     12      712      713      714      721
    1988      8      831      713      714      715
    1989      8      831      713      714      721
    1990     10      713      714      715      716
    1991     10      713      714      715      720
    1992      9      721      714      715      716
    1993      9      721      714      715      720
    1994      8      714      715      716      717
    1995      8      714      715      716      742
    1996      8      720      715      716      717
    1997      8      720      715      716      742
    1998      8      715      716      717      718
    1999      8      715      716      717      743
    2000      8      742      716      717      718
    2001      8      742      716      717      743
    2002      8      716      717      718      719
    2003      8      716      717      718      744
    2004      8      743      717      718      719
    2005      8      743      717      718      744
    2006      8      717      718      719      720
    2007      8      717      718      719      745
    2008      8      744      718      719      720
    2009      8      744      718      719      745
    2010      8      718      719      720      715
    2011      8      718      719      720      746
    2012      8      745      719      720      715
    2013      8      745      719      720      746
    2014      8      713      714      721      722
    2015      8      715      714      721      722
    2016      8      714      721      722      723
    2017      8      714      721      722      711
    2018     11      721      722      723      708
    2019     11      721      722      723      747
    2020     11      711      722      723      708
    2021      8      711      722      723      747
    2022      8      706      707      724      725
    2023      8      706      707      724      748
    2024      8      708      707      724      725
    2025      8      708      707      724      748
    2026      8      707      724      725      726
    2027      8      707      724      725      749
    2028      8      748      724      725      726
    2029      8      748      724      725      749
    2030     11      724      725      726      727
    2031      8      724      725      726      705
    2032     11      749      725      726      727
    2033      8      749      725      726      705
    2034      8      725      726      727      728
    2035      8      705      726      727      728
    2036      8      726      727      728      729
    2037      8      726      727      728      703
    2038      9      727      728      729      730
    2039      9      727      728      729      734
    2040     10      703      728      729      730
    2041     10      703      728      729      734
    2042      8      728      729      730      731
    2043      8      728      729      730      750
    2044      8      734      729      730      731
    2045      8      734      729      730      750
    2046      8      729      730      731      732
    2047      8      729      730      731      751
    2048      8      750      730      731      732
    2049      8      750      730      731      751
    2050      8      730      731      732      733
    2051      8      730      731      732      752
    2052      8      751      731      732      733
    2053      8      751      731      732      752
    2054      8      731      732      733      734
    2055      8      731      732      733      753
    2056      8      752      732      733      734
    2057      8      752      732      733      753
    2058      8      732      733      734      729
    2059      8      732      733      734      754
    2060      8      753      733      734      729
    2061      8      753      733      734      754
    2062      8      701      702      735      736
    2063      8      701      702      735      755
    2064      8      703      702      735      736
    2065      8      703      702      735      755
    2066      8      702      735      736      699
    2067      8      702      735      736      756
    2068      8      755      735      736      699
    2069      8      755      735      736      756
    2070      8      735      736      699      700
    2071      8      735      736      699      682
    2072      8      756      736      699      700
    2073      8      756      736      699      682
    2074      9      727      728      703      702
    2075     12      727      728      703      704
    2076     10      729      728      703      702
    2077      9      729      728      703      704
    2078      8      733      734      729      728
    2079      8      733      734      729      730
    2080      8      754      734      729      728
    2081      8      754      734      729      730
    2082      8      725      726      705      704
    2083      8      725      726      705      706
    2084      8      727      726      705      704
    2085      8      727      726      705      706
    2086      8      722      723      708      707
    2087      8      722      723      708      709
    2088      8      747      723      708      707
    2089      8      747      723      708      709
    2090      8      721      722      711      710
    2091      8      721      722      711      712
    2092      8      723      722      711      710
    2093      8      723      722      711      712
    2094      8      719      720      715      714
    2095      8      719      720      715      716
    2096      8      746      720      715      714
    2097      8      746      720      715      716
    2098     13      681      682      699      700
    2099     13      681      682      699      736
    2100      7      685      682      699      700
    2101      7      685      682      699      736
    2102      7      686      682      699      700
    2103      7      686      682      699      736
    2104      7      765      757      758      759
    2105      7      765      757      758      764
    2106      7      766      757      758      759
    2107      7      766      757      758      764
    2108     13      688      757      758      759
    2109     13      688      757      758      764
    2110      8      757      758      759      760
    2111      8      757      758      759      767
    2112      8      764      758      759      760
    2113      8      764      758      759      767
    2114      8      758      759      760      761
    2115      8      758      759      760      768
    2116      8      767      759      760      761
    2117      8      767      759      760      768
    2118      8      759      760      761      762
    2119      8      759      760      761      763
    2120      8      768      760      761      762
    2121      8      768      760      761      763
    2122      7      760      761      762      769
    2123      7      760      761      762      770
    2124     13      760      761      762      847
    2125      7      763      761      762      769
    2126      7      763      761      762      770
    2127     13      763      761      762      847
    2128      8      760      761      763      764
    2129      8      760      761      763      771
    2130      8      762      761      763      764
    2131      8      762      761      763      771
    2132      8      761      763      764      758
    2133      8      761      763      764      772
    2134      8      771      763      764      758
    2135      8      771      763      764      772
    2136      8      763      764      758      757
    2137      8      763      764      758      759
    2138      8      772      764      758      757
    2139      8      772      764      758      759
    2140      7      687      688      757      758
    2141      3      687      688      757      765
    2142      3      687      688      757      766
    2143      6      691      688      757      758
    2144      3      691      688      757      765
    2145      3      691      688      757      766
    2146      6      692      688      757      758
    2147      3      692      688      757      765
    2148      3      692      688      757      766
    2149      8      810      773      774      775
    2150      8      810      773      774      811
    2151      8      694      773      774      775
    2152      8      694      773      774      811
    2153      8      773      774      775      776
    2154      8      773      774      775      812
    2155      8      811      774      775      776
    2156      8      811      774      775      812
    2157      8      774      775      776      777
    2158      8      774      775      776      809
    2159      8      812      775      776      777
    2160      8      812      775      776      809
    2161      9      775      776      777      778
    2162     10      775      776      777      802
    2163      9      809      776      777      778
    2164     10      809      776      777      802
    2165      8      776      777      778      779
    2166      8      802      777      778      779
    2167      8      777      778      779      780
    2168      8      777      778      779      800
    2169     11      778      779      780      781
    2170     11      778      779      780      813
    2171     11      800      779      780      781
    2172      8      800      779      780      813
    2173      8      779      780      781      782
    2174      8      779      780      781      798
    2175      8      813      780      781      782
    2176      8      813      780      781      798
    2177     10      780      781      782      783
    2178     10      780      781      782      797
    2179     10      798      781      782      783
    2180     10      798      781      782      797
    2181      8      781      782      783      784
    2182      8      781      782      783      814
    2183      8      797      782      783      784
    2184      8      797      782      783      814
    2185      8      782      783      784      785
    2186      8      782      783      784      815
    2187      8      814      783      784      785
    2188      8      814      783      784      815
    2189     11      783      784      785      786
    2190      8      783      784      785      796
    2191     11      815      784      785      786
    2192      8      815      784      785      796
    2193      8      784      785      786      787
    2194      8      796      785      786      787
    2195      8      785      786      787      788
    2196      8      785      786      787      866
    2197      8      786      787      788      789
    2198     12      786      787      788      795
    2199      8      866      787      788      789
    2200      8      866      787      788      795
    2201     10      787      788      789      790
    2202     10      787      788      789      794
    2203      9      795      788      789      790
    2204      9      795      788      789      794
    2205      8      788      789      790      791
    2206      8      788      789      790      816
    2207      8      794      789      790      791
    2208      8      794      789      790      816
    2209      8      789      790      791      792
    2210      8      789      790      791      817
    2211      8      816      790      791      792
    2212      8      816      790      791      817
    2213      8      790      791      792      793
    2214      8      790      791      792      818
    2215      8      817      791      792      793
    2216      8      817      791      792      818
    2217      8      791      792      793      794
    2218      8      791      792      793      819
    2219      8      818      792      793      794
    2220      8      818      792      793      819
    2221      8      792      793      794      789
    2222      8      792      793      794      820
    2223      8      819      793      794      789
    2224      8      819      793      794      820
    2225      8      787      788      795      796
    2226      8      789      788      795      796
    2227      8      788      795      796      797
    2228      8      788      795      796      785
    2229     11      795      796      797      782
    2230     11      795      796      797      821
    2231     11      785      796      797      782
    2232      8      785      796      797      821
    2233      8      780      781      798      799
    2234      8      780      781      798      822
    2235      8      782      781      798      799
    2236      8      782      781      798      822
    2237      8      781      798      799      800
    2238      8      781      798      799      823
    2239      8      822      798      799      800
    2240      8      822      798      799      823
    2241     11      798      799      800      801
    2242      8      798      799      800      779
    2243     11      823      799      800      801
    2244      8      823      799      800      779
    2245      8      799      800      801      802
    2246      8      779      800      801      802
    2247      8      800      801      802      803
    2248      8      800      801      802      777
    2249      9      801      802      803      804
    2250      9      801      802      803      808
    2251     10      777      802      803      804
    2252     10      777      802      803      808
    2253      8      802      803      804      805
    2254      8      802      803      804      824
    2255      8      808      803      804      805
    2256      8      808      803      804      824
    2257      8      803      804      805      806
    2258      8      803      804      805      825
    2259      8      824      804      805      806
    2260      8      824      804      805      825
    2261      8      804      805      806      807
    2262      8      804      805      806      826
    2263      8      825      805      806      807
    2264      8      825      805      806      826
    2265      8      805      806      807      808
    2266      8      805      806      807      827
    2267      8      826      806      807      808
    2268      8      826      806      807      827
    2269      8      806      807      808      803
    2270      8      806      807      808      828
    2271      8      827      807      808      803
    2272      8      827      807      808      828
    2273      8      775      776      809      810
    2274      8      775      776      809      829
    2275      8      777      776      809      810
    2276      8      777      776      809      829
    2277      8      776      809      810      773
    2278      8      776      809      810      830
    2279      8      829      809      810      773
    2280      8      829      809      810      830
    2281      8      809      810      773      774
    2282      8      809      810      773      694
    2283      8      830      810      773      774
    2284      8      830      810      773      694
    2285      9      801      802      777      776
    2286     12      801      802      777      778
    2287     10      803      802      777      776
    2288      9      803      802      777      778
    2289      8      807      808      803      802
    2290      8      807      808      803      804
    2291      8      828      808      803      802
    2292      8      828      808      803      804
    2293      8      799      800      779      778
    2294      8      799      800      779      780
    2295      8      801      800      779      778
    2296      8      801      800      779      780
    2297      8      796      797      782      781
    2298      8      796      797      782      783
    2299      8      821      797      782      781
    2300      8      821      797      782      783
    2301      8      795      796      785      784
    2302      8      795      796      785      786
    2303      8      797      796      785      784
    2304      8      797      796      785      786
    2305      8      793      794      789      788
    2306      8      793      794      789      790
    2307      8      820      794      789      788
    2308      8      820      794      789      790
    2309     13      693      694      773      774
    2310     13      693      694      773      810
    2311      7      697      694      773      774
    2312      7      697      694      773      810
    2313      7      698      694      773      774
    2314      7      698      694      773      810
    2315      7      839      831      832      833
    2316      7      839      831      832      838
    2317      7      840      831      832      833
    2318      7      840      831      832      838
    2319     16      713      831      832      833
    2320     16      713      831      832      838
    2321      8      831      832      833      834
    2322      8      831      832      833      841
    2323      8      838      832      833      834
    2324      8      838      832      833      841
    2325      8      832      833      834      835
    2326      8      832      833      834      842
    2327      8      841      833      834      835
    2328      8      841      833      834      842
    2329      8      833      834      835      836
    2330      8      833      834      835      837
    2331      8      842      834      835      836
    2332      8      842      834      835      837
    2333      7      834      835      836      843
    2334      7      834      835      836      844
    2335     16      834      835      836      874
    2336      7      837      835      836      843
    2337      7      837      835      836      844
    2338     16      837      835      836      874
    2339      8      834      835      837      838
    2340      8      834      835      837      845
    2341      8      836      835      837      838
    2342      8      836      835      837      845
    2343      8      835      837      838      832
    2344      8      835      837      838      846
    2345      8      845      837      838      832
    2346      8      845      837      838      846
    2347      8      837      838      832      831
    2348      8      837      838      832      833
    2349      8      846      838      832      831
    2350      8      846      838      832      833
    2351     14      712      713      831      832
    2352     15      712      713      831      839
    2353     15      712      713      831      840
    2354     16      714      713      831      832
    2355      7      714      713      831      839
    2356      7      714      713      831      840
    2357      7      855      847      848      849
    2358      7      855      847      848      854
    2359      7      856      847      848      849
    2360      7      856      847      848      854
    2361     13      762      847      848      849
    2362     13      762      847      848      854
    2363      8      847      848      849      850
    2364      8      847      848      849      857
    2365      8      854      848      849      850
    2366      8      854      848      849      857
    2367      8      848      849      850      851
    2368      8      848      849      850      858
    2369      8      857      849      850      851
    2370      8      857      849      850      858
    2371      8      849      850      851      852
    2372      8      849      850      851      853
    2373      8      858      850      851      852
    2374      8      858      850      851      853
    2375      7      850      851      852      859
    2376      7      850      851      852      860
    2377     13      850      851      852      932
    2378      7      853      851      852      859
    2379      7      853      851      852      860
    2380     13      853      851      852      932
    2381      8      850      851      853      854
    2382      8      850      851      853      861
    2383      8      852      851      853      854
    2384      8      852      851      853      861
    2385      8      851      853      854      848
    2386      8      851      853      854      862
    2387      8      861      853      854      848
    2388      8      861      853      854      862
    2389      8      853      854      848      847
    2390      8      853      854      848      849
    2391      8      862      854      848      847
    2392      8      862      854      848      849
    2393      7      761      762      847      848
    2394      6      761      762      847      855
    2395      6      761      762      847      856
    2396      6      769      762      847      848
    2397      3      769      762      847      855
    2398      3      769      762      847      856
    2399      6      770      762      847      848
    2400      3      770      762      847      855
    2401      3      770      762      847      856
    2402      1      867      863      864      865
    2403      1      868      863      864      865
    2404      1      869      863      864      865
    2405      2      863      864      865      866
    2406      1      863      864      865      870
    2407      1      863      864      865      871
    2408      3      864      865      866      872
    2409      3      864      865      866      873
    2410      4      864      865      866      787
    2411      3      870      865      866      872
    2412      3      870      865      866      873
    2413      6      870      865      866      787
    2414      3      871      865      866      872
    2415      3      871      865      866      873
    2416      6      871      865      866      787
    2417     14      786      787      866      865
    2418     15      786      787      866      872
    2419     15      786      787      866      873
    2420     16      788      787      866      865
    2421      7      788      787      866      872
    2422      7      788      787      866      873
    2423      8      911      874      875      876
    2424      8      911      874      875      912
    2425      8      836      874      875      876
    2426      8      836      874      875      912
    2427      8      874      875      876      877
    2428      8      874      875      876      913
    2429      8      912      875      876      877
    2430      8      912      875      876      913
    2431      8      875      876      877      878
    2432      8      875      876      877      910
    2433      8      913      876      877      878
    2434      8      913      876      877      910
    2435      9      876      877      878      879
    2436     10      876      877      878      903
    2437      9      910      877      878      879
    2438     10      910      877      878      903
    2439      8      877      878      879      880
    2440      8      903      878      879      880
    2441      8      878      879      880      881
    2442      8      878      879      880      901
    2443     11      879      880      881      882
    2444     11      879      880      881      914
    2445     11      901      880      881      882
    2446      8      901      880      881      914
    2447      8      880      881      882      883
    2448      8      880      881      882      899
    2449      8      914      881      882      883
    2450      8      914      881      882      899
    2451     10      881      882      883      884
    2452     10      881      882      883      898
    2453     10      899      882      883      884
    2454     10      899      882      883      898
    2455      8      882      883      884      885
    2456      8      882      883      884      915
    2457      8      898      883      884      885
    2458      8      898      883      884      915
    2459      8      883      884      885      886
    2460      8      883      884      885      916
    2461      8      915      884      885      886
    2462      8      915      884      885      916
    2463     11      884      885      886      887
    2464      8      884      885      886      897
    2465     11      916      885      886      887
    2466      8      916      885      886      897
    2467      8      885      886      887      888
    2468      8      897      886      887      888
    2469      8      886      887      888      889
    2470      8      886      887      888      948
    2471      8      887      888      889      890
    2472     12      887      888      889      896
    2473      8      948      888      889      890
    2474      8      948      888      889      896
    2475     10      888      889      890      891
    2476     10      888      889      890      895
    2477      9      896      889      890      891
    2478      9      896      889      890      895
    2479      8      889      890      891      892
    2480      8      889      890      891      917
    2481      8      895      890      891      892
    2482      8      895      890      891      917
    2483      8      890      891      892      893
    2484      8      890      891      892      918
    2485      8      917      891      892      893
    2486      8      917      891      892      918
    2487      8      891      892      893      894
    2488      8      891      892      893      919
    2489      8      918      892      893      894
    2490      8      918      892      893      919
    2491      8      892      893      894      895
    2492      8      892      893      894      920
    2493      8      919      893      894      895
    2494      8      919      893      894      920
    2495      8      893      894      895      890
    2496      8      893      894      895      921
    2497      8      920      894      895      890
    2498      8      920      894      895      921
    2499      8      888      889      896      897
    2500      8      890      889      896      897
    2501      8      889      896      897      898
    2502      8      889      896      897      886
    2503     11      896      897      898      883
    2504     11      896      897      898      922
    2505     11      886      897      898      883
    2506      8      886      897      898      922
    2507      8      881      882      899      900
    2508      8      881      882      899      923
    2509      8      883      882      899      900
    2510      8      883      882      899      923
    2511      8      882      899      900      901
    2512      8      882      899      900      924
    2513      8      923      899      900      901
    2514      8      923      899      900      924
    2515     11      899      900      901      902
    2516      8      899      900      901      880
    2517     11      924      900      901      902
    2518      8      924      900      901      880
    2519      8      900      901      902      903
    2520      8      880      901      902      903
    2521      8      901      902      903      904
    2522      8      901      902      903      878
    2523      9      902      903      904      905
    2524      9      902      903      904      909
    2525     10      878      903      904      905
    2526     10      878      903      904      909
    2527      8      903      904      905      906
    2528      8      903      904      905      925
    2529      8      909      904      905      906
    2530      8      909      904      905      925
    2531      8      904      905      906      907
    2532      8      904      905      906      926
    2533      8      925      905      906      907
    2534      8      925      905      906      926
    2535      8      905      906      907      908
    2536      8      905      906      907      927
    2537      8      926      906      907      908
    2538      8      926      906      907      927
    2539      8      906      907      908      909
    2540      8      906      907      908      928
    2541      8      927      907      908      909
    2542      8      927      907      908      928
    2543      8      907      908      909      904
    2544      8      907      908      909      929
    2545      8      928      908      909      904
    2546      8      928      908      909      929
    2547      8      876      877      910      911
    2548      8      876      877      910      930
    2549      8      878      877      910      911
    2550      8      878      877      910      930
    2551      8      877      910      911      874
    2552      8      877      910      911      931
    2553      8      930      910      911      874
    2554      8      930      910      911      931
    2555      8      910      911      874      875
    2556      8      910      911      874      836
    2557      8      931      911      874      875
    2558      8      931      911      874      836
    2559      9      902      903      878      877
    2560     12      902      903      878      879
    2561     10      904      903      878      877
    2562      9      904      903      878      879
    2563      8      908      909      904      903
    2564      8      908      909      904      905
    2565      8      929      909      904      903
    2566      8      929      909      904      905
    2567      8      900      901      880      879
    2568      8      900      901      880      881
    2569      8      902      901      880      879
    2570      8      902      901      880      881
    2571      8      897      898      883      882
    2572      8      897      898      883      884
    2573      8      922      898      883      882
    2574      8      922      898      883      884
    2575      8      896      897      886      885
    2576      8      896      897      886      887
    2577      8      898      897      886      885
    2578      8      898      897      886      887
    2579      8      894      895      890      889
    2580      8      894      895      890      891
    2581      8      921      895      890      889
    2582      8      921      895      890      891
    2583     16      835      836      874      875
    2584     16      835      836      874      911
    2585      7      843      836      874      875
    2586      7      843      836      874      911
    2587      7      844      836      874      875
    2588      7      844      836      874      911
    2589      3      937      932      933      934
    2590      3      937      932      933      939
    2591      3      937      932      933      940
    2592      3      938      932      933      934
    2593      3      938      932      933      939
    2594      3      938      932      933      940
    2595      4      852      932      933      934
    2596      3      852      932      933      939
    2597      3      852      932      933      940
    2598      2      932      933      934      935
    2599      1      939      933      934      935
    2600      1      940      933      934      935
    2601      2      933      934      935      936
    2602      1      933      934      935      941
    2603      1      933      934      935      942
    2604      3      934      935      936      943
    2605      3      934      935      936      944
    2606      4      934      935      936      959
    2607      3      941      935      936      943
    2608      3      941      935      936      944
    2609      3      941      935      936      959
    2610      3      942      935      936      943
    2611      3      942      935      936      944
    2612      3      942      935      936      959
    2613      7      851      852      932      933
    2614      6      851      852      932      937
    2615      6      851      852      932      938
    2616      3      859      852      932      933
    2617      3      859      852      932      937
    2618      3      859      852      932      938
    2619      3      860      852      932      933
    2620      3      860      852      932      937
    2621      3      860      852      932      938
    2622      1      949      945      946      947
    2623      1      950      945      946      947
    2624      1      951      945      946      947
    2625      2      945      946      947      948
    2626      1      945      946      947      952
    2627      1      945      946      947      953
    2628      3      946      947      948      954
    2629      3      946      947      948      955
    2630      4      946      947      948      888
    2631      3      952      947      948      954
    2632      3      952      947      948      955
    2633      6      952      947      948      888
    2634      3      953      947      948      954
    2635      3      953      947      948      955
    2636      6      953      947      948      888
    2637     14      887      888      948      947
    2638     15      887      888      948      954
    2639     15      887      888      948      955
    2640     16      889      888      948      947
    2641      7      889      888      948      954
    2642      7      889      888      948      955
    2643      1      960      956      957      958
    2644      1      961      956      957      958
    2645      1      962      956      957      958
    2646      2      956      957      958      959
    2647      1      956      957      958      963
    2648      1      956      957      958      964
    2649      3      957      958      959      965
    2650      3      957      958      959      966
    2651      4      957      958      959      936
    2652      3      963      958      959      965
    2653      3      963      958      959      966
    2654      3      963      958      959      936
    2655      3      964      958      959      965
    2656      3      964      958      959      966
    2657      3      964      958      959      936
    2658      5      935      936      959      958
    2659      3      935      936      959      965
    2660      3      935      936      959      966
    2661      3      943      936      959      958
    2662      3      943      936      959      965
    2663      3      943      936      959      966
    2664      3      944      936      959      958
    2665      3      944      936      959      965
    2666      3      944      936      959      966

Impropers

       1      1       24       25       61       19
       2      1       25       24       26       62
       3      1       26       27       25       63
       4      1       27       28       26       60
       5      1       28       27       53       29
       6      1       30       31       51       29
       7      1       31       32       30       64
       8      1       32       33       31       49
       9      1       33       32       34       48
      10      1       34       33       35       65
      11      1       35       34       36       66
      12      1       36       35       47       37
      13      1       38       39       82       37
      14      1       39       38       40       46
      15      1       40       39       41       45
      16      1       41       40       42       67
      17      1       42       41       43       68
      18      1       43       42       44       69
      19      1       44       43       45       70
      20      1       45       40       44       71
      21      1       47       48       36       46
      22      1       48       33       47       72
      23      1       49       32       50       73
      24      1       50       49       51       74
      25      1       51       50       30       52
      26      1       53       28       54       52
      27      1       54       53       55       59
      28      1       55       54       56       75
      29      1       56       55       57       76
      30      1       57       56       58       77
      31      1       58       57       59       78
      32      1       59       54       58       79
      33      1       60       27       61       80
      34      1       61       24       60       81
      35      1       82       38       83      119
      36      1       83       82       84      120
      37      1       84       85       83      121
      38      1       85       86       84      118
      39      1       86       85      111       87
      40      1       88       89      109       87
      41      1       89       90       88      122
      42      1       90       91       89      107
      43      1       91       90       92      106
      44      1       92       91       93      123
      45      1       93       92       94      124
      46      1       94       93      105       95
      47      1       96       97      140       95
      48      1       97       96       98      104
      49      1       98       97       99      103
      50      1       99       98      100      125
      51      1      100       99      101      126
      52      1      101      100      102      127
      53      1      102      101      103      128
      54      1      103       98      102      129
      55      1      105      106       94      104
      56      1      106       91      105      130
      57      1      107       90      108      131
      58      1      108      107      109      132
      59      1      109      108       88      110
      60      1      111       86      112      110
      61      1      112      111      113      117
      62      1      113      112      114      133
      63      1      114      113      115      134
      64      1      115      114      116      135
      65      1      116      115      117      136
      66      1      117      112      116      137
      67      1      118       85      119      138
      68      1      119       82      118      139
      69      1      140       96      141      177
      70      1      141      140      142      178
      71      1      142      143      141      179
      72      1      143      144      142      176
      73      1      144      143      169      145
      74      1      146      147      167      145
      75      1      147      148      146      180
      76      1      148      149      147      165
      77      1      149      148      150      164
      78      1      150      149      151      181
      79      1      151      150      152      182
      80      1      152      151      163      153
      81      1      154      155      198      153
      82      1      155      156      154      162
      83      1      156      155      157      161
      84      1      157      156      158      183
      85      1      158      157      159      184
      86      1      159      158      160      185
      87      1      160      159      161      186
      88      1      161      156      160      187
      89      1      163      164      152      162
      90      1      164      149      163      188
      91      1      165      148      166      189
      92      1      166      165      167      190
      93      1      167      166      146      168
      94      1      169      144      170      168
      95      1      170      169      171      175
      96      1      171      170      172      191
      97      1      172      171      173      192
      98      1      173      172      174      193
      99      1      174      173      175      194
     100      1      175      170      174      195
     101      1      176      143      177      196
     102      1      177      140      176      197
     103      1      217      218      254      212
     104      1      218      217      219      255
     105      1      219      220      218      256
     106      1      220      221      219      253
     107      1      221      220      246      222
     108      1      223      224      244      222
     109      1      224      225      223      257
     110      1      225      226      224      242
     111      1      226      225      227      241
     112      1      227      226      228      258
     113      1      228      227      229      259
     114      1      229      228      240      230
     115      1      231      232      275      230
     116      1      232      233      231      239
     117      1      233      232      234      238
     118      1      234      233      235      260
     119      1      235      234      236      261
     120      1      236      235      237      262
     121      1      237      236      238      263
     122      1      238      233      237      264
     123      1      240      241      229      239
     124      1      241      226      240      265
     125      1      242      225      243      266
     126      1      243      242      244      267
     127      1      244      243      223      245
     128      1      246      221      247      245
     129      1      247      246      248      252
     130      1      248      247      249      268
     131      1      249      248      250      269
     132      1      250      249      251      270
     133      1      251      250      252      271
     134      1      252      247      251      272
     135      1      253      220      254      273
     136      1      254      217      253      274
     137      1      276      277      282      275
     138      1      277      276      278      285
     139      1      278      277      279      286
     140      1      279      278      281      280
     141      1      281      279      282      289
     142      1      282      276      281      290
     143      1      377      378      383      376
     144      1      378      377      379      386
     145      1      379      378      380      387
     146      1      380      379      382      381
     147      1      382      380      383      390
     148      1      383      377      382      391
     149      1      392      393      429      358
     150      1      393      392      394      430
     151      1      394      395      393      431
     152      1      395      396      394      428
     153      1      396      395      421      397
     154      1      398      399      419      397
     155      1      399      400      398      432
     156      1      400      401      399      417
     157      1      401      400      402      416
     158      1      402      401      403      433
     159      1      403      402      404      434
     160      1      404      403      415      405
     161      1      406      407      514      405
     162      1      407      408      406      414
     163      1      408      407      409      413
     164      1      409      408      410      435
     165      1      410      409      411      436
     166      1      411      410      412      437
     167      1      412      411      413      438
     168      1      413      408      412      439
     169      1      415      416      404      414
     170      1      416      401      415      440
     171      1      417      400      418      441
     172      1      418      417      419      442
     173      1      419      418      398      420
     174      1      421      396      422      420
     175      1      422      421      423      427
     176      1      423      422      424      443
     177      1      424      423      425      444
     178      1      425      424      426      445
     179      1      426      425      427      446
     180      1      427      422      426      447
     181      1      428      395      429      448
     182      1      429      392      428      449
     183      1      456      457      493      381
     184      1      457      456      458      494
     185      1      458      459      457      495
     186      1      459      460      458      492
     187      1      460      459      485      461
     188      1      462      463      483      461
     189      1      463      464      462      496
     190      1      464      465      463      481
     191      1      465      464      466      480
     192      1      466      465      467      497
     193      1      467      466      468      498
     194      1      468      467      479      469
     195      1      470      471      588      469
     196      1      471      470      472      478
     197      1      472      471      473      477
     198      1      473      472      474      499
     199      1      474      473      475      500
     200      1      475      474      476      501
     201      1      476      475      477      502
     202      1      477      472      476      503
     203      1      479      480      468      478
     204      1      480      465      479      504
     205      1      481      464      482      505
     206      1      482      481      483      506
     207      1      483      482      462      484
     208      1      485      460      486      484
     209      1      486      485      487      491
     210      1      487      486      488      507
     211      1      488      487      489      508
     212      1      489      488      490      509
     213      1      490      489      491      510
     214      1      491      486      490      511
     215      1      492      459      493      512
     216      1      493      456      492      513
     217      1      515      516      521      514
     218      1      516      515      517      524
     219      1      517      516      518      525
     220      1      518      517      520      519
     221      1      520      518      521      528
     222      1      521      515      520      529
     223      1      530      531      567      451
     224      1      531      530      532      568
     225      1      532      533      531      569
     226      1      533      534      532      566
     227      1      534      533      559      535
     228      1      536      537      557      535
     229      1      537      538      536      570
     230      1      538      539      537      555
     231      1      539      538      540      554
     232      1      540      539      541      571
     233      1      541      540      542      572
     234      1      542      541      553      543
     235      1      544      545      659      543
     236      1      545      546      544      552
     237      1      546      545      547      551
     238      1      547      546      548      573
     239      1      548      547      549      574
     240      1      549      548      550      575
     241      1      550      549      551      576
     242      1      551      546      550      577
     243      1      553      554      542      552
     244      1      554      539      553      578
     245      1      555      538      556      579
     246      1      556      555      557      580
     247      1      557      556      536      558
     248      1      559      534      560      558
     249      1      560      559      561      565
     250      1      561      560      562      581
     251      1      562      561      563      582
     252      1      563      562      564      583
     253      1      564      563      565      584
     254      1      565      560      564      585
     255      1      566      533      567      586
     256      1      567      530      566      587
     257      1      588      470      589      625
     258      1      589      588      590      626
     259      1      590      591      589      627
     260      1      591      592      590      624
     261      1      592      591      617      593
     262      1      594      595      615      593
     263      1      595      596      594      628
     264      1      596      597      595      613
     265      1      597      596      598      612
     266      1      598      597      599      629
     267      1      599      598      600      630
     268      1      600      599      611      601
     269      1      602      603      665      601
     270      1      603      604      602      610
     271      1      604      603      605      609
     272      1      605      604      606      631
     273      1      606      605      607      632
     274      1      607      606      608      633
     275      1      608      607      609      634
     276      1      609      604      608      635
     277      1      611      612      600      610
     278      1      612      597      611      636
     279      1      613      596      614      637
     280      1      614      613      615      638
     281      1      615      614      594      616
     282      1      617      592      618      616
     283      1      618      617      619      623
     284      1      619      618      620      639
     285      1      620      619      621      640
     286      1      621      620      622      641
     287      1      622      621      623      642
     288      1      623      618      622      643
     289      1      624      591      625      644
     290      1      625      588      624      645
     291      1      666      667      672      665
     292      1      667      666      668      675
     293      1      668      667      669      676
     294      1      669      668      671      670
     295      1      671      669      672      679
     296      1      672      666      671      680
     297      1      699      700      736      682
     298      1      700      699      701      737
     299      1      701      702      700      738
     300      1      702      703      701      735
     301      1      703      702      728      704
     302      1      705      706      726      704
     303      1      706      707      705      739
     304      1      707      708      706      724
     305      1      708      707      709      723
     306      1      709      708      710      740
     307      1      710      709      711      741
     308      1      711      710      722      712
     309      1      713      714      831      712
     310      1      714      715      713      721
     311      1      715      714      716      720
     312      1      716      715      717      742
     313      1      717      716      718      743
     314      1      718      717      719      744
     315      1      719      718      720      745
     316      1      720      715      719      746
     317      1      722      723      711      721
     318      1      723      708      722      747
     319      1      724      707      725      748
     320      1      725      724      726      749
     321      1      726      725      705      727
     322      1      728      703      729      727
     323      1      729      728      730      734
     324      1      730      729      731      750
     325      1      731      730      732      751
     326      1      732      731      733      752
     327      1      733      732      734      753
     328      1      734      729      733      754
     329      1      735      702      736      755
     330      1      736      699      735      756
     331      1      758      759      764      757
     332      1      759      758      760      767
     333      1      760      759      761      768
     334      1      761      760      763      762
     335      1      763      761      764      771
     336      1      764      758      763      772
     337      1      773      774      810      694
     338      1      774      773      775      811
     339      1      775      776      774      812
     340      1      776      777      775      809
     341      1      777      776      802      778
     342      1      779      780      800      778
     343      1      780      781      779      813
     344      1      781      782      780      798
     345      1      782      781      783      797
     346      1      783      782      784      814
     347      1      784      783      785      815
     348      1      785      784      796      786
     349      1      787      788      866      786
     350      1      788      789      787      795
     351      1      789      788      790      794
     352      1      790      789      791      816
     353      1      791      790      792      817
     354      1      792      791      793      818
     355      1      793      792      794      819
     356      1      794      789      793      820
     357      1      796      797      785      795
     358      1      797      782      796      821
     359      1      798      781      799      822
     360      1      799      798      800      823
     361      1      800      799      779      801
     362      1      802      777      803      801
     363      1      803      802      804      808
     364      1      804      803      805      824
     365      1      805      804      806      825
     366      1      806      805      807      826
     367      1      807      806      808      827
     368      1      808      803      807      828
     369      1      809      776      810      829
     370      1      810      773      809      830
     371      1      832      833      838      831
     372      1      833      832      834      841
     373      1      834      833      835      842
     374      1      835      834      837      836
     375      1      837      835      838      845
     376      1      838      832      837      846
     377      1      848      849      854      847
     378      1      849      848      850      857
     379      1      850      849      851      858
     380      1      851      850      853      852
     381      1      853      851      854      861
     382      1      854      848      853      862
     383      1      874      875      911      836
     384      1      875      874      876      912
     385      1      876      877      875      913
     386      1      877      878      876      910
     387      1      878      877      903      879
     388      1      880      881      901      879
     389      1      881      882      880      914
     390      1      882      883      881      899
     391      1      883      882      884      898
     392      1      884      883      885      915
     393      1      885      884      886      916
     394      1      886      885      897      887
     395      1      888      889      948      887
     396      1      889      890      888      896
     397      1      890      889      891      895
     398      1      891      890      892      917
     399      1      892      891      893      918
     400      1      893      892      894      919
     401      1      894      893      895      920
     402      1      895      890      894      921
     403      1      897      898      886      896
     404      1      898      883      897      922
     405      1      899      882      900      923
     406      1      900      899      901      924
     407      1      901      900      880      902
     408      1      903      878      904      902
     409      1      904      903      905      909
     410      1      905      904      906      925
     411      1      906      905      907      926
     412      1      907      906      908      927
     413      1      908      907      909      928
     414      1      909      904      908      929
     415      1      910      877      911      930
     416      1      911      874      910      931

