LAMMPS data file from Part3 phase8.resolved.q.json (OPLS-AA)
# chain_id=linear_orth800_uid000175_sk1_rg0_pl1_alternating__8f49a11ba492 topology=linear
# assumes: units real; atom_style full; bond_style harmonic; angle_style harmonic; dihedral_style opls; improper_style cvff
# special_bonds lj/coul 0.0 0.0 0.5
# cvff improper: K=v2/2, d=-1, n=2

     909 atoms
     965 bonds
    1679 angles
    2406 dihedrals
     304 impropers

      10 atom types
      18 bond types
      30 angle types
      19 dihedral types
       2 improper types

   -127.150900      10.195600 xlo xhi
     -3.857700      56.254900 ylo yhi
    -40.007000      37.976300 zlo zhi

Masses

       1     1.008000 # boss_type=HA count=133
       2     1.008000 # boss_type=HC count=255
       3    12.011000 # boss_type=CZ count=2
       4    12.011000 # boss_type=CT count=118
       5    12.011000 # boss_type=C count=266
       6    12.011000 # boss_type=CB count=38
       7    14.007000 # boss_type=NZ count=2
       8    15.999000 # boss_type=OS count=38
       9    15.999000 # boss_type=O count=38
      10    32.067000 # boss_type=SA count=19

Pair Coeffs

       1     0.030000     2.420000 # boss_type=HA count=133
       2     0.030000     2.500000 # boss_type=HC count=255
       3     0.066000     3.300000 # boss_type=CZ count=2
       4     0.066000     3.500000 # boss_type=CT count=118
       5     0.070000     3.550000 # boss_type=C count=266
       6     0.080000     3.500000 # boss_type=CB count=38
       7     0.170000     3.200000 # boss_type=NZ count=2
       8     0.140000     2.900000 # boss_type=OS count=38
       9     0.210000     2.960000 # boss_type=O count=38
      10     0.355000     3.600000 # boss_type=SA count=19

Bond Coeffs

       1   650.000000     1.157000 # pattern=CZ-NZ
       2   390.000000     1.470000 # pattern=CT-CZ
       3   268.000000     1.529000 # pattern=CT-CT
       4   340.000000     1.090000 # pattern=CT-HC
       5   214.000000     1.327000 # pattern=C-OS
       6   570.000000     1.229000 # pattern=C-O
       7   400.000000     1.490000 # pattern=C-CA
       8   469.000000     1.400000 # pattern=CA-CA
       9   469.000000     1.404000 # pattern=CA-CB
      10   520.000000     1.370000 # pattern=CB-CB
      11   320.000000     1.410000 # pattern=CT-OS
      12   367.000000     1.080000 # pattern=CA-HA
      13   546.000000     1.380000 # pattern=CP-CS
      14   469.000000     1.424000 # pattern=CS-CS
      15   317.000000     1.495000 # pattern=CS-CT
      16   250.000000     1.740000 # pattern=CP-SA
      17   278.000000     1.496000 # pattern=CP-CT
      18   340.000000     1.356000 # pattern=CP-OS

Angle Coeffs

       1   150.000000   180.000000 # pattern=CT-CZ-NZ
       2    58.350000   112.700000 # pattern=CT-CT-CZ
       3    35.000000   108.500000 # pattern=CZ-CT-HC
       4    37.500000   110.700000 # pattern=CT-CT-HC
       5    33.000000   107.800000 # pattern=HC-CT-HC
       6    50.000000   109.500000 # pattern=CT-CT-OS
       7    35.000000   109.500000 # pattern=HC-CT-OS
       8    83.000000   116.900000 # pattern=C-OS-CT
       9    83.000000   123.400000 # pattern=O-C-OS
      10    81.000000   111.400000 # pattern=CA-C-OS
      11    80.000000   120.400000 # pattern=CA-C-O
      12    85.000000   120.000000 # pattern=C-CA-CA
      13    63.000000   120.000000 # pattern=CA-CA-CA
      14    35.000000   120.000000 # pattern=CA-CA-HA
      15    85.000000   117.300000 # pattern=CA-CB-CB
      16    85.000000   134.900000 # pattern=CA-CB-CA
      17    63.000000   114.000000 # pattern=CP-CT-CT
      18    70.000000   111.000000 # pattern=CS-CP-SA
      19    70.000000   128.500000 # pattern=CS-CP-CT
      20    70.000000   121.400000 # pattern=CT-CP-SA
      21    70.000000   112.300000 # pattern=CP-CS-CS
      22    35.000000   123.100000 # pattern=CP-CS-HA
      23    35.000000   127.500000 # pattern=CS-CS-HA
      24    70.000000   120.000000 # pattern=CS-CS-CT
      25    70.000000   125.000000 # pattern=CP-CS-CT
      26    63.000000   115.600000 # pattern=CS-CT-CT
      27    60.000000   128.000000 # pattern=CS-CP-OS
      28    60.000000   120.300000 # pattern=OS-CP-SA
      29    70.000000    92.200000 # pattern=CP-SA-CP
      30    68.020000   115.290000 # pattern=C-OS-CP

Dihedral Coeffs

       1     0.000000     0.000000     0.000000     0.000000 # pattern=CT-CT-CZ-NZ
       2     0.000000     0.000000     0.366000     0.000000 # pattern=CZ-CT-CT-HC
       3     1.300000    -0.500000     0.000000     0.000000 # pattern=CZ-CT-CT-OS
       4     0.000000     0.000000     0.300000     0.000000 # pattern=HC-CT-CT-HC
       5     0.000000     5.000000     0.000000     0.000000 # pattern=CT-OS-C-O
       6     4.000000     5.000000     0.000000     0.000000 # pattern=CA-C-OS-CT
       7     0.000000     2.100000     0.000000     0.000000 # pattern=CA-CA-C-OS
       8     0.000000     7.250000     0.000000     0.000000 # pattern=C-CA-CA-CB
       9    -1.220000    -0.126000     0.422000     0.000000 # pattern=C-OS-CT-CT
      10     0.000000     0.000000     0.198000     0.000000 # pattern=C-OS-CT-HC
      11     0.000000    10.750000     0.000000     0.000000 # pattern=HA-CS-CP-SA
      12     0.850000    -0.200000     0.200000     0.000000 # pattern=CS-CT-CT-CT
      13     0.000000     0.000000     0.462000     0.000000 # pattern=CS-CT-CT-HC
      14     0.000000     0.260000     0.100000     0.000000 # pattern=CT-CT-CP-SA
      15     0.970000     0.080000     0.140000     0.000000 # pattern=HC-CT-CP-SA
      16     0.000000     5.124000     0.000000     0.000000 # pattern=CP-OS-C-O
      17     0.000000     3.370000     0.000000     0.300000 # pattern=C-OS-CP-CS
      18     0.610000     0.000000     0.500000     0.000000 # pattern=C-OS-CP-SA
      19     0.000000    -0.650000     0.000000     0.000000 # pattern=CP-CT-CT-CZ

Improper Coeffs

       1    10.500000  -1   2 # pattern=C-CA-O-OS
       2     2.500000  -1   2 # pattern=CA-C-CA-CA

Atoms

       1      1      7 -0.40411400     0.255600     8.346200     5.065000
       2      1      3  0.12368300     0.534200     7.890700     4.034900
       3      1      4 -0.10628700     0.869500     7.305500     2.735000
       4      1      4 -0.02174000    -0.256600     7.539400     1.735400
       5      1      2  0.11503200     1.807800     7.729900     2.362200
       6      1      2  0.11503200     1.048500     6.228900     2.839200
       7      1      2  0.08919700    -0.426600     8.607900     1.549700
       8      1      2  0.08919700    -1.199800     7.139100     2.125900
       9      1      8 -0.34793600    -0.002300     6.846600     0.499700
      10      1      5  0.49655600     0.848300     7.470800    -0.353800
      11      1      9 -0.43626200     1.427500     8.521100    -0.128600
      12      1      5 -0.12211500     1.003100     6.692900    -1.612300
      13      1      5 -0.04923100     1.891600     7.177300    -2.582200
      14      1      6 -0.03169900     2.081100     6.491600    -3.792300
      15      1      6 -0.02870500     1.362900     5.297700    -4.034300
      16      1      5 -0.12016100     0.475800     4.820100    -3.057500
      17      1      5 -0.08712400     0.296000     5.510500    -1.855500
      18      1      5 -0.05353200     1.541700     4.620700    -5.251600
      19      1      5 -0.11841500     2.424700     5.111700    -6.222700
      20      1      5 -0.08008000     3.133400     6.291200    -5.977400
      21      1      5 -0.12796800     2.961400     6.974500    -4.771300
      22      1      5  0.50000000     2.521700     4.388600    -7.516700
      23      1      9 -0.43853000     1.697600     3.569500    -7.891600
      24      1      8 -0.35259500     3.620300     4.787900    -8.199600
      25      1      4  0.01291800     3.656600     4.429000    -9.591200
      26      1      4 -0.10099700     4.151300     5.634300   -10.397600
      27      1      1  0.16927600     2.438700     8.100500    -2.393800
      28      1      1  0.16004000    -0.088200     3.904600    -3.227800
      29      1      1  0.17575000    -0.402700     5.112600    -1.123800
      30      1      1  0.17732000     0.981200     3.709400    -5.455600
      31      1      1  0.17041700     3.800100     6.715200    -6.725200
      32      1      1  0.15540700     3.509200     7.903600    -4.619400
      33      1      2  0.11824800     2.675600     4.111000    -9.963400
      34      1      2  0.11824800     4.353900     3.592800    -9.707900
      35      1      2  0.12058500     5.195600     5.829100   -10.123000
      36      1      2  0.12058500     4.135700     5.394700   -11.467100
      37      1      5 -0.16855200     3.317500     6.863300   -10.147100
      38      1      5 -0.13795300     1.946100     7.002300   -10.188300
      39      1      5 -0.07013000     1.502200     8.296700    -9.756500
      40      1      4 -0.11209300     0.054500     8.692800    -9.658400
      41      1      4 -0.16889600    -0.692100     8.017000    -8.503000
      42      1      4 -0.18246600    -0.210500     8.476300    -7.125000
      43      1      4 -0.23719900    -1.031800     7.847200    -6.010400
      44      1      5 -0.03249400     2.573200     9.114000    -9.429200
      45      1     10  0.09796900     4.072700     8.336800    -9.725700
      46      1      1  0.18285700     1.274800     6.196200   -10.463500
      47      1      2  0.10452400    -0.038800     9.782200    -9.569900
      48      1      2  0.10452400    -0.438500     8.420800   -10.600600
      49      1      2  0.09065200    -1.759600     8.250300    -8.602600
      50      1      2  0.09065200    -0.598900     6.926500    -8.579300
      51      1      2  0.09894700    -0.277900     9.567700    -7.049800
      52      1      2  0.09894700     0.839300     8.203200    -6.982000
      53      1      2  0.08023700    -0.967700     6.755100    -6.044200
      54      1      2  0.08023700    -2.085600     8.132000    -6.091100
      55      1      2  0.08023700    -0.664200     8.179900    -5.034600
      56      1      8 -0.22991700     2.523100    10.381600    -9.030400
      57      1      5  0.48796200     2.880500    10.590300    -7.741900
      58      1      9 -0.41132300     3.201100     9.760900    -6.902000
      59      1      5 -0.12774900     2.804700    12.046700    -7.429900
      60      1      5 -0.05712500     2.519400    13.016900    -8.402400
      61      1      6 -0.03600600     2.456700    14.379900    -8.063500
      62      1      6 -0.03457400     2.686400    14.775500    -6.725600
      63      1      5 -0.12686300     2.972500    13.799500    -5.760000
      64      1      5 -0.09127200     3.031600    12.448100    -6.108500
      65      1      5 -0.05825300     2.625000    16.137400    -6.388500
      66      1      5 -0.12493400     2.338300    17.107900    -7.358700
      67      1      5 -0.08641900     2.111700    16.711500    -8.680900
      68      1      5 -0.13248000     2.171100    15.358700    -9.028300
      69      1      5  0.49528400     2.290200    18.532800    -6.932100
      70      1      9 -0.44464700     2.517700    18.902700    -5.791400
      71      1      8 -0.35747000     1.953900    19.333800    -7.973500
      72      1      4  0.00803800     1.893300    20.740400    -7.677400
      73      1      4 -0.10633900     0.544000    21.104600    -7.059000
      74      1      1  0.16485300     2.345900    12.722200    -9.435300
      75      1      1  0.15401300     3.152900    14.082800    -4.724300
      76      1      1  0.17076200     3.255700    11.710700    -5.339200
      77      1      1  0.17150200     2.802000    16.449200    -5.359500
      78      1      1  0.16456900     1.889200    17.442200    -9.454900
      79      1      1  0.15063800     1.991900    15.076600   -10.064400
      80      1      2  0.11299900     2.733500    21.036800    -7.036400
      81      1      2  0.11299900     2.029200    21.266300    -8.629400
      82      1      2  0.11587600     0.393300    20.542000    -6.129400
      83      1      2  0.11587600    -0.264600    20.775900    -7.724200
      84      1      5 -0.16855200     0.442000    22.571200    -6.772800
      85      1      5 -0.13795300     0.828600    23.242300    -5.633100
      86      1      5 -0.07013000     0.579100    24.654500    -5.701900
      87      1      4 -0.11209300     0.942000    25.616200    -4.601700
      88      1      4 -0.16889600     0.064200    25.446100    -3.358200
      89      1      4 -0.18246600     0.296500    26.529300    -2.302700
      90      1      4 -0.23719900     1.693700    26.501600    -1.702900
      91      1      5 -0.03249400    -0.017300    24.999100    -6.907400
      92      1     10  0.09796900    -0.205600    23.640000    -7.933500
      93      1      1  0.18285700     1.277600    22.746000    -4.779400
      94      1      2  0.10452400     0.868800    26.647400    -4.967600
      95      1      2  0.10452400     1.995300    25.454700    -4.341800
      96      1      2  0.09065200     0.235100    24.458200    -2.912000
      97      1      2  0.09065200    -0.993300    25.472100    -3.647200
      98      1      2  0.09894700     0.104300    27.518200    -2.735000
      99      1      2  0.09894700    -0.432500    26.389800    -1.495500
     100      1      2  0.08023700     1.925000    25.514400    -1.290700
     101      1      2  0.08023700     1.768800    27.233400    -0.892200
     102      1      2  0.08023700     2.454600    26.753500    -2.447300
     103      1      8 -0.22991700    -0.358800    26.199300    -7.366100
     104      1      5  0.48796200    -1.459900    26.731100    -6.789100
     105      1      9 -0.41132300    -2.175800    26.236800    -5.930300
     106      1      5 -0.12774900    -1.717500    28.087600    -7.352700
     107      1      5 -0.05712500    -2.770700    28.837300    -6.807700
     108      1      6 -0.03600600    -3.070500    30.121600    -7.290100
     109      1      6 -0.03457400    -2.298400    30.664400    -8.342200
     110      1      5 -0.12686300    -1.246900    29.908800    -8.883200
     111      1      5 -0.09127200    -0.957100    28.631300    -8.394500
     112      1      5 -0.05825300    -2.599900    31.947500    -8.826800
     113      1      5 -0.12493400    -3.653000    32.694800    -8.280700
     114      1      5 -0.08641900    -4.413600    32.152300    -7.239300
     115      1      5 -0.13248000    -4.122800    30.876100    -6.749200
     116      1      5  0.49528400    -3.923700    34.043600    -8.847900
     117      1      9 -0.44464700    -3.313800    34.514500    -9.794800
     118      1      8 -0.35747000    -4.924800    34.652300    -8.168700
     119      1      4  0.00803800    -5.304300    35.935600    -8.689100
     120      1      4 -0.10633900    -6.506600    36.463000    -7.905900
     121      1      1  0.16485300    -3.363700    28.412500    -5.998000
     122      1      1  0.15401300    -0.642600    30.310100    -9.695200
     123      1      1  0.17076200    -0.136300    28.077600    -8.844400
     124      1      1  0.17150200    -2.011900    32.372700    -9.639500
     125      1      1  0.16456900    -5.239400    32.706900    -6.799800
     126      1      1  0.15063800    -4.729700    30.474800    -5.939200
     127      1      2  0.11299900    -5.540800    35.851600    -9.756900
     128      1      2  0.11299900    -4.462400    36.625800    -8.559300
     129      1      2  0.11587600    -6.293100    36.430000    -6.830500
     130      1      2  0.11587600    -6.672000    37.514900    -8.169400
     131      1      5 -0.16855200    -7.761500    35.692400    -8.210500
     132      1      5 -0.13795300    -8.606500    35.832100    -9.290700
     133      1      5 -0.07013000    -9.710100    34.914800    -9.261900
     134      1      4 -0.11209300   -10.750600    34.834200   -10.345300
     135      1      4 -0.16889600   -10.534600    33.629800   -11.265100
     136      1      4 -0.18246600   -11.596900    33.571400   -12.362400
     137      1      4 -0.23719900   -11.388500    32.374200   -13.275900
     138      1      5 -0.03249400    -9.678100    34.128600    -8.118100
     139      1     10  0.09796900    -8.299000    34.459700    -7.159200
     140      1      1  0.18285700    -8.439600    36.553200   -10.082900
     141      1      2  0.10452400   -11.749900    34.787300    -9.897900
     142      1      2  0.10452400   -10.726000    35.756200   -10.940200
     143      1      2  0.09065200   -10.563000    32.702100   -10.679700
     144      1      2  0.09065200    -9.537200    33.685200   -11.719500
     145      1      2  0.09894700   -11.566100    34.489700   -12.960100
     146      1      2  0.09894700   -12.594400    33.510200   -11.911800
     147      1      2  0.08023700   -12.158800    32.351800   -14.053100
     148      1      2  0.08023700   -11.446200    31.436800   -12.713400
     149      1      2  0.08023700   -10.411400    32.420900   -13.767100
     150      1      8 -0.22991700   -10.494100    33.146400    -7.748800
     151      1      5  0.48796200   -11.709400    33.552900    -7.318100
     152      1      9 -0.41132300   -12.126200    34.696900    -7.206200
     153      1      5 -0.12774900   -12.544400    32.364600    -6.977700
     154      1      5 -0.05712500   -12.064000    31.049400    -7.065200
     155      1      6 -0.03600600   -12.887000    29.958400    -6.735900
     156      1      6 -0.03457400   -14.216300    30.190800    -6.312000
     157      1      5 -0.12686300   -14.688100    31.509000    -6.227200
     158      1      5 -0.09127200   -13.860500    32.585400    -6.556100
     159      1      5 -0.05825300   -15.039200    29.099800    -5.983000
     160      1      5 -0.12493400   -14.557200    27.786200    -6.069300
     161      1      5 -0.08641900   -13.241400    27.563700    -6.488700
     162      1      5 -0.13248000   -12.414400    28.640000    -6.819200
     163      1      5  0.49528400   -15.393700    26.603000    -5.729400
     164      1      9 -0.44464700   -14.988700    25.453000    -5.787100
     165      1      8 -0.35747000   -16.639800    26.986500    -5.356500
     166      1      4  0.00803800   -17.514300    25.897300    -5.020300
     167      1      4 -0.10633900   -18.870400    26.475300    -4.624400
     168      1      1  0.16485300   -11.042400    30.859700    -7.388700
     169      1      1  0.15401300   -15.707000    31.712400    -5.902600
     170      1      1  0.17076200   -14.251100    33.599300    -6.480300
     171      1      1  0.17150200   -16.061100    29.283200    -5.657700
     172      1      1  0.16456900   -12.851800    26.549400    -6.560800
     173      1      1  0.15063800   -11.395100    28.436100    -7.142200
     174      1      2  0.11299900   -17.084200    25.330700    -4.185100
     175      1      2  0.11299900   -17.619000    25.234400    -5.887800
     176      1      2  0.11587600   -18.734100    27.182500    -3.795800
     177      1      2  0.11587600   -19.270700    27.077900    -5.449900
     178      1      5 -0.16855200   -19.840400    25.408400    -4.221000
     179      1      5 -0.13795300   -20.073600    24.899700    -2.961800
     180      1      5 -0.07013000   -21.082700    23.878500    -2.947600
     181      1      4 -0.11209300   -21.499000    23.134700    -1.707100
     182      1      4 -0.16889600   -22.292200    23.986800    -0.710100
     183      1      4 -0.18246600   -23.684500    24.413800    -1.183800
     184      1      4 -0.23719900   -24.655100    23.251700    -1.328700
     185      1      5 -0.03249400   -21.602900    23.668400    -4.216000
     186      1     10  0.09796900   -20.823100    24.647600    -5.390000
     187      1      1  0.18285700   -19.540800    25.236500    -2.079600
     188      1      2  0.10452400   -20.587000    22.781700    -1.207500
     189      1      2  0.10452400   -22.059600    22.230900    -1.970200
     190      1      2  0.09065200   -22.395300    23.422800     0.225500
     191      1      2  0.09065200   -21.719100    24.889400    -0.463600
     192      1      2  0.09894700   -23.617500    24.961700    -2.129300
     193      1      2  0.09894700   -24.097800    25.115000    -0.448500
     194      1      2  0.08023700   -24.762000    22.711900    -0.382400
     195      1      2  0.08023700   -25.643400    23.622100    -1.619600
     196      1      2  0.08023700   -24.328400    22.541500    -2.092300
     197      1      8 -0.22991700   -22.506600    22.762100    -4.576800
     198      1      5  0.48796200   -23.712700    23.266500    -4.924400
     199      1      9 -0.41132300   -24.088500    24.428900    -4.873900
     200      1      5 -0.12774900   -24.607400    22.160900    -5.373000
     201      1      5 -0.05712500   -25.944400    22.471900    -5.662200
     202      1      6 -0.03600600   -26.842000    21.480000    -6.089800
     203      1      6 -0.03457400   -26.388000    20.149100    -6.230400
     204      1      5 -0.12686300   -25.049300    19.845100    -5.940000
     205      1      5 -0.09127200   -24.164600    20.840700    -5.515500
     206      1      5 -0.05825300   -27.284500    19.157400    -6.660300
     207      1      5 -0.12493400   -28.619900    19.469900    -6.952100
     208      1      5 -0.08641900   -29.064100    20.788600    -6.810000
     209      1      5 -0.13248000   -28.180800    21.784000    -6.381900
     210      1      5  0.49528400   -29.512200    18.370000    -7.408400
     211      1      9 -0.44464700   -29.146400    17.211000    -7.524000
     212      1      8 -0.35747000   -30.758600    18.837800    -7.667300
     213      1      4  0.00803800   -31.695400    17.860400    -8.153700
     214      1      4 -0.10633900   -32.326200    17.091300    -6.993400
     215      1      1  0.16485300   -26.287500    23.500500    -5.552800
     216      1      1  0.15401300   -24.681500    18.825600    -6.044700
     217      1      1  0.17076200   -23.134100    20.563900    -5.305700
     218      1      1  0.17150200   -26.941800    18.129200    -6.772600
     219      1      1  0.16456900   -30.093700    21.060700    -7.029200
     220      1      1  0.15063800   -28.548700    22.803700    -6.279800
     221      1      2  0.11299900   -32.465000    18.411200    -8.706500
     222      1      2  0.11299900   -31.213400    17.191200    -8.878000
     223      1      2  0.11587600   -31.544000    16.615100    -6.389400
     224      1      2  0.11587600   -32.821500    17.795500    -6.312800
     225      1      5 -0.16855200   -33.283900    16.046300    -7.477300
     226      1      5 -0.13795300   -33.014400    14.733000    -7.796100
     227      1      5 -0.07013000   -34.174300    14.015200    -8.240900
     228      1      4 -0.11209300   -34.138800    12.578400    -8.685600
     229      1      4 -0.16889600   -34.210300    12.441900   -10.208600
     230      1      4 -0.18246600   -34.163600    10.975700   -10.637400
     231      1      4 -0.23719900   -34.238300    10.835100   -12.149400
     232      1      5 -0.03249400   -35.305200    14.820500    -8.207200
     233      1     10  0.09796900   -34.931700    16.417900    -7.714000
     234      1      1  0.18285700   -32.021700    14.301200    -7.726000
     235      1      2  0.10452400   -33.215900    12.109400    -8.321100
     236      1      2  0.10452400   -34.963900    12.025700    -8.222200
     237      1      2  0.09065200   -35.133400    12.902300   -10.582800
     238      1      2  0.09065200   -33.376900    12.987900   -10.668600
     239      1      2  0.09894700   -34.998300    10.428500   -10.183900
     240      1      2  0.09894700   -33.237600    10.511800   -10.278300
     241      1      2  0.08023700   -35.169300    11.260600   -12.537400
     242      1      2  0.08023700   -34.203100     9.778900   -12.434000
     243      1      2  0.08023700   -33.399100    11.345400   -12.632800
     244      1      8 -0.22991700   -36.549400    14.539400    -8.581100
     245      1      5  0.48796200   -37.217700    13.706500    -7.752600
     246      1      9 -0.41132300   -36.840800    13.239000    -6.687400
     247      1      5 -0.12774900   -38.553500    13.387200    -8.334100
     248      1      5 -0.05712500   -39.365000    12.466900    -7.654000
     249      1      6 -0.03600600   -40.627300    12.106900    -8.153700
     250      1      6 -0.03457400   -41.085500    12.685100    -9.359300
     251      1      5 -0.12686300   -40.271600    13.609900   -10.030900
     252      1      5 -0.09127200   -39.016000    13.959000    -9.525100
     253      1      5 -0.05825300   -42.344700    12.321400    -9.862900
     254      1      5 -0.12493400   -43.148300    11.391000    -9.189100
     255      1      5 -0.08641900   -42.693200    10.826900    -7.992800
     256      1      5 -0.13248000   -41.442300    11.183100    -7.481000
     257      1      5  0.49528400   -44.467000    11.044400    -9.783300
     258      1      9 -0.44464700   -44.937600    11.608300   -10.758400
     259      1      8 -0.35747000   -45.043500    10.025800    -9.100500
     260      1      4  0.00803800   -46.339800     9.615200    -9.569500
     261      1      4 -0.10633900   -47.446700    10.533300    -9.045900
     262      1      1  0.16485300   -39.005100    12.023600    -6.725700
     263      1      1  0.15401300   -40.609600    14.067500   -10.959400
     264      1      1  0.17076200   -38.416500    14.679100   -10.077400
     265      1      1  0.17150200   -42.706000    12.762200   -10.791400
     266      1      1  0.16456900   -43.300900    10.110700    -7.444600
     267      1      1  0.15063800   -41.108600    10.730200    -6.549000
     268      1      2  0.11299900   -46.349900     9.585300   -10.665900
     269      1      2  0.11299900   -46.492000     8.585600    -9.226500
     270      1      2  0.11587600   -48.385800    10.279500    -9.553200
     271      1      2  0.11587600   -47.228300    11.579600    -9.289100
     272      1      5 -0.16855200   -47.652200    10.379600    -7.564100
     273      1      5 -0.13795300   -48.387400     9.419900    -6.901800
     274      1      5 -0.07013000   -48.372800     9.586700    -5.476300
     275      1      4 -0.11209300   -49.066900     8.653500    -4.520200
     276      1      4 -0.16889600   -50.591300     8.795200    -4.560400
     277      1      4 -0.18246600   -51.309800     7.866500    -3.579300
     278      1      4 -0.23719900   -51.071100     8.227800    -2.120900
     279      1      5 -0.03249400   -47.633800    10.704000    -5.110600
     280      1     10  0.09796900   -46.928000    11.471100    -6.469100
     281      1      1  0.18285700   -48.917500     8.623700    -7.412100
     282      1      2  0.10452400   -48.788700     7.622300    -4.773200
     283      1      2  0.10452400   -48.694100     8.830900    -3.505600
     284      1      2  0.09065200   -50.884100     9.832500    -4.361500
     285      1      2  0.09065200   -50.948200     8.566000    -5.572800
     286      1      2  0.09894700   -51.006900     6.827800    -3.754800
     287      1      2  0.09894700   -52.387100     7.920500    -3.777100
     288      1      2  0.08023700   -51.690100     7.599200    -1.472700
     289      1      2  0.08023700   -51.331000     9.273300    -1.926900
     290      1      2  0.08023700   -50.027700     8.071700    -1.832700
     291      1      8 -0.22991700   -47.359400    11.166500    -3.894100
     292      1      5  0.48796200   -48.400200    11.780100    -3.286000
     293      1      9 -0.41132300   -49.513600    12.004600    -3.738300
     294      1      5 -0.12774900   -48.021500    12.156000    -1.894000
     295      1      5 -0.05712500   -46.713500    12.031700    -1.402800
     296      1      6 -0.03600600   -46.405900    12.386700    -0.077500
     297      1      6 -0.03457400   -47.429300    12.876500     0.767300
     298      1      5 -0.12686300   -48.732700    13.002700     0.265900
     299      1      5 -0.09127200   -49.026100    12.647200    -1.052300
     300      1      5 -0.05825300   -47.124800    13.226100     2.093200
     301      1      5 -0.12493400   -45.819400    13.096000     2.588000
     302      1      5 -0.08641900   -44.811200    12.612200     1.748300
     303      1      5 -0.13248000   -45.102000    12.262700     0.427000
     304      1      5  0.49528400   -45.464800    13.431000     3.993900
     305      1      9 -0.44464700   -44.366600    13.224100     4.483600
     306      1      8 -0.35747000   -46.532900    13.962500     4.633800
     307      1      4  0.00803800   -46.363200    14.229400     6.037900
     308      1      4 -0.10633900   -46.505000    12.954400     6.874100
     309      1      1  0.16485300   -45.920000    11.658900    -2.047500
     310      1      1  0.15401300   -49.534700    13.380800     0.897500
     311      1      1  0.17076200   -50.046400    12.754900    -1.417900
     312      1      1  0.17150200   -47.917200    13.595800     2.741500
     313      1      1  0.16456900   -43.793200    12.502400     2.118900
     314      1      1  0.15063800   -44.297400    11.889300    -0.204100
     315      1      2  0.11299900   -47.130200    14.961000     6.315400
     316      1      2  0.11299900   -45.391700    14.705900     6.216600
     317      1      2  0.11587600   -46.316800    13.188600     7.928700
     318      1      2  0.11587600   -45.746200    12.221600     6.574400
     319      1      5 -0.16855200   -47.861300    12.324000     6.717900
     320      1      5 -0.13795300   -48.239200    11.336500     5.833100
     321      1      5 -0.07013000   -49.622400    10.976600     5.951400
     322      1      4 -0.11209300   -50.297600     9.956400     5.077100
     323      1      4 -0.16889600   -50.431300     8.570700     5.714600
     324      1      4 -0.18246600   -49.086600     7.877500     5.945500
     325      1      4 -0.23719900   -49.275900     6.468900     6.487400
     326      1      5 -0.03249400   -50.242000    11.697800     6.960800
     327      1     10  0.09796900   -49.172300    12.821400     7.690700
     328      1      1  0.18285700   -47.554900    10.891000     5.119900
     329      1      2  0.10452400   -51.300100    10.322900     4.820700
     330      1      2  0.10452400   -49.755500     9.871700     4.126500
     331      1      2  0.09065200   -50.975200     8.639600     6.663400
     332      1      2  0.09065200   -51.041700     7.947700     5.048800
     333      1      2  0.09894700   -48.481600     8.447800     6.658600
     334      1      2  0.09894700   -48.525500     7.828600     5.005200
     335      1      2  0.08023700   -48.304400     5.991400     6.649000
     336      1      2  0.08023700   -49.809900     6.485100     7.442900
     337      1      2  0.08023700   -49.845100     5.851200     5.785400
     338      1      8 -0.22991700   -51.522100    11.662200     7.318100
     339      1      5  0.48796200   -51.769700    10.870300     8.387600
     340      1      9 -0.41132300   -50.976200    10.194900     9.027600
     341      1      5 -0.12774900   -53.228700    10.886100     8.694300
     342      1      5 -0.05712500   -54.127700    11.754600     8.057200
     343      1      6 -0.03600600   -55.497400    11.730300     8.371400
     344      1      6 -0.03457400   -55.971300    10.819000     9.343500
     345      1      5 -0.12686300   -55.065100     9.958700     9.979900
     346      1      5 -0.09127200   -53.706500     9.991700     9.658700
     347      1      5 -0.05825300   -57.339300    10.794000     9.658600
     348      1      5 -0.12493400   -58.239000    11.659900     9.019900
     349      1      5 -0.08641900   -57.764700    12.563300     8.064600
     350      1      5 -0.13248000   -56.405800    12.595700     7.741300
     351      1      5  0.49528400   -59.688000    11.682100     9.355200
     352      1      9 -0.44464700   -60.453100    12.563200     8.999500
     353      1      8 -0.35747000   -59.999700    10.610500    10.119100
     354      1      4  0.00803800   -61.310500    10.609100    10.715300
     355      1      4 -0.10633900   -61.373900    11.552700    11.920100
     356      1      1  0.16485300   -53.770200    12.462100     7.311800
     357      1      1  0.15401300   -55.409100     9.253700    10.734800
     358      1      1  0.17076200   -53.022500     9.313700    10.167200
     359      1      1  0.17150200   -57.699300    10.101600    10.417700
     360      1      1  0.16456900   -58.450500    13.249100     7.569900
     361      1      1  0.15063800   -56.063400    13.308600     6.993500
     362      1      2  0.11299900   -62.067700    10.871200     9.967200
     363      1      2  0.11299900   -61.512300     9.577800    11.024500
     364      1      2  0.11587600   -61.308900    12.591200    11.572800
     365      1      2  0.11587600   -62.341500    11.454700    12.419800
     366      1      5 -0.16855200   -60.264000    11.312000    12.906100
     367      1      5 -0.13795300   -59.154700    12.097700    13.132400
     368      1      5 -0.07013000   -58.275200    11.554600    14.126700
     369      1      4 -0.11209300   -56.966300    12.192200    14.502100
     370      1      4 -0.16889600   -55.864200    11.865900    13.489300
     371      1      4 -0.18246600   -54.537200    12.514700    13.880300
     372      1      4 -0.23719900   -53.446800    12.207100    12.866400
     373      1      5 -0.03249400   -58.797500    10.389800    14.671400
     374      1     10  0.09796900   -60.253000     9.925900    13.898000
     375      1      1  0.18285700   -58.964200    13.017700    12.590800
     376      1      2  0.10452400   -56.653200    11.864900    15.499800
     377      1      2  0.10452400   -57.104000    13.279300    14.562500
     378      1      2  0.09065200   -56.161200    12.214400    12.492100
     379      1      2  0.09065200   -55.736300    10.778100    13.418200
     380      1      2  0.09894700   -54.661600    13.601300    13.955000
     381      1      2  0.09894700   -54.223400    12.154900    14.867100
     382      1      2  0.08023700   -52.506200    12.679800    13.165900
     383      1      2  0.08023700   -53.275400    11.128700    12.790000
     384      1      2  0.08023700   -53.715500    12.585100    11.874900
     385      1      8 -0.22991700   -58.289600     9.590600    15.603800
     386      1      5  0.48796200   -58.339300    10.096000    16.857000
     387      1      9 -0.41132300   -58.782400    11.171000    17.233600
     388      1      5 -0.12774900   -57.700000     9.132000    17.788900
     389      1      5 -0.05712500   -57.665200     7.755000    17.527200
     390      1      6 -0.03600600   -57.057100     6.870100    18.432700
     391      1      6 -0.03457400   -56.467700     7.380400    19.614100
     392      1      5 -0.12686300   -56.518500     8.759500    19.868000
     393      1      5 -0.09127200   -57.136300     9.628900    18.967500
     394      1      5 -0.05825300   -55.849400     6.497600    20.514300
     395      1      5 -0.12493400   -55.822600     5.119700    20.257600
     396      1      5 -0.08641900   -56.423400     4.617100    19.100400
     397      1      5 -0.13248000   -57.028700     5.487400    18.191200
     398      1      5  0.49528400   -55.195100     4.160400    21.200300
     399      1      9 -0.44464700   -55.488400     2.978300    21.261000
     400      1      8 -0.35747000   -54.252300     4.794000    21.935900
     401      1      4  0.00803800   -53.610000     3.986000    22.936000
     402      1      4 -0.10633900   -52.312600     4.664100    23.375600
     403      1      1  0.16485300   -58.122600     7.362300    16.621000
     404      1      1  0.15401300   -56.079400     9.170300    20.774000
     405      1      1  0.17076200   -57.169800    10.695000    19.186200
     406      1      1  0.17150200   -55.399300     6.885500    21.426400
     407      1      1  0.16456900   -56.418700     3.547000    18.900200
     408      1      1  0.15063800   -57.483100     5.072700    17.293200
     409      1      2  0.11299900   -54.298200     3.863600    23.780000
     410      1      2  0.11299900   -53.366200     2.998600    22.526300
     411      1      2  0.11587600   -51.771400     4.007500    24.067400
     412      1      2  0.11587600   -51.666900     4.806400    22.499500
     413      1      5 -0.16855200   -52.548000     6.003700    24.014600
     414      1      5 -0.13795300   -52.494500     7.245800    23.418700
     415      1      5 -0.07013000   -52.770400     8.317700    24.330500
     416      1      4 -0.11209300   -52.800000     9.765800    23.922600
     417      1      4 -0.16889600   -54.146000    10.211800    23.342100
     418      1      4 -0.18246600   -55.261200    10.289200    24.388100
     419      1      4 -0.23719900   -56.538700    10.870700    23.801100
     420      1      5 -0.03249400   -52.989900     7.835700    25.613800
     421      1     10  0.09796900   -52.937400     6.125900    25.671300
     422      1      1  0.18285700   -52.273200     7.384500    22.366400
     423      1      2  0.10452400   -52.527000    10.412500    24.763700
     424      1      2  0.10452400   -52.025000     9.923300    23.161000
     425      1      2  0.09065200   -54.011300    11.203700    22.893300
     426      1      2  0.09065200   -54.447200     9.536500    22.532700
     427      1      2  0.09894700   -55.479800     9.292000    24.784700
     428      1      2  0.09894700   -54.941400    10.911900    25.230800
     429      1      2  0.08023700   -57.316900    10.926000    24.568900
     430      1      2  0.08023700   -56.913400    10.248200    22.982800
     431      1      2  0.08023700   -56.371500    11.881500    23.416000
     432      1      8 -0.22991700   -53.312900     8.514400    26.709500
     433      1      5  0.48796200   -52.285800     9.202200    27.258400
     434      1      9 -0.41132300   -51.097700     9.132400    26.979300
     435      1      5 -0.12774900   -52.814100    10.155900    28.275200
     436      1      5 -0.05712500   -54.185900    10.301800    28.527800
     437      1      6 -0.03600600   -54.651700    11.282800    29.416700
     438      1      6 -0.03457400   -53.724600    12.122200    30.078000
     439      1      5 -0.12686300   -52.352700    11.944700    29.847800
     440      1      5 -0.09127200   -51.901400    10.974300    28.950000
     441      1      5 -0.05825300   -54.197000    13.138500    30.923400
     442      1      5 -0.12493400   -55.572200    13.342500    31.095700
     443      1      5 -0.08641900   -56.483700    12.491000    30.462100
     444      1      5 -0.13248000   -56.024900    11.465200    29.634200
     445      1      5  0.49528400   -56.012900    14.522900    31.885000
     446      1      9 -0.44464700   -55.280900    15.178900    32.606700
     447      1      8 -0.35747000   -57.296100    14.813900    31.569600
     448      1      4  0.00803800   -57.756200    16.134400    31.902800
     449      1      4 -0.10633900   -57.073100    17.228600    31.068700
     450      1      1  0.16485300   -54.909000     9.673800    28.011500
     451      1      1  0.15401300   -51.621600    12.577700    30.348000
     452      1      1  0.17076200   -50.832400    10.874300    28.766800
     453      1      1  0.17150200   -53.493500    13.806300    31.419100
     454      1      1  0.16456900   -57.555500    12.629900    30.583900
     455      1      1  0.15063800   -56.754500    10.827900    29.137900
     456      1      2  0.11299900   -58.834300    16.141400    31.706800
     457      1      2  0.11299900   -57.629400    16.318000    32.976300
     458      1      2  0.11587600   -57.628200    18.168900    31.170700
     459      1      2  0.11587600   -56.074500    17.421200    31.480400
     460      1      5 -0.16855200   -56.923300    16.864800    29.616200
     461      1      5 -0.13795300   -55.755600    16.573200    28.942600
     462      1      5 -0.07013000   -55.972900    16.193300    27.577300
     463      1      4 -0.11209300   -54.866700    15.763300    26.652500
     464      1      4 -0.16889600   -54.694600    14.241600    26.641600
     465      1      4 -0.18246600   -53.476200    13.773900    25.844400
     466      1      4 -0.23719900   -53.582400    14.063300    24.355700
     467      1      5 -0.03249400   -57.318900    16.262200    27.247900
     468      1     10  0.09796900   -58.278200    16.734200    28.588600
     469      1      1  0.18285700   -54.780800    16.595900    29.417400
     470      1      2  0.10452400   -53.929500    16.237200    26.971100
     471      1      2  0.10452400   -55.068300    16.129500    25.640400
     472      1      2  0.09065200   -55.600400    13.763700    26.247000
     473      1      2  0.09065200   -54.583100    13.886600    27.672400
     474      1      2  0.09894700   -52.567200    14.238700    26.243500
     475      1      2  0.09894700   -53.363400    12.692700    25.983600
     476      1      2  0.08023700   -54.506700    13.651300    23.939500
     477      1      2  0.08023700   -52.739500    13.610300    23.824100
     478      1      2  0.08023700   -53.562200    15.138400    24.154500
     479      1      8 -0.22991700   -57.919900    15.939800    26.106800
     480      1      5  0.48796200   -57.763600    16.848800    25.117800
     481      1      9 -0.41132300   -57.156800    17.909300    25.150900
     482      1      5 -0.12774900   -58.503300    16.391100    23.909500
     483      1      5 -0.05712500   -58.884300    15.054000    23.720900
     484      1      6 -0.03600600   -59.606200    14.667700    22.577900
     485      1      6 -0.03457400   -59.946900    15.641500    21.610400
     486      1      5 -0.12686300   -59.540100    16.970900    21.797300
     487      1      5 -0.09127200   -58.821600    17.342700    22.935200
     488      1      5 -0.05825300   -60.696900    15.263800    20.485400
     489      1      5 -0.12493400   -61.115000    13.937400    20.309000
     490      1      5 -0.08641900   -60.755500    12.972700    21.256100
     491      1      5 -0.13248000   -60.007000    13.336400    22.380300
     492      1      5  0.49528400   -61.965900    13.624800    19.128300
     493      1      9 -0.44464700   -62.301500    14.459700    18.303300
     494      1      8 -0.35747000   -62.337900    12.320900    19.136800
     495      1      4  0.00803800   -63.260600    11.936500    18.102900
     496      1      4 -0.10633900   -62.536900    11.658400    16.786400
     497      1      1  0.16485300   -58.626700    14.303600    24.465400
     498      1      1  0.15401300   -59.787300    17.733000    21.060000
     499      1      1  0.17076200   -58.523300    18.382300    23.062700
     500      1      1  0.17150200   -60.975200    16.011600    19.743200
     501      1      1  0.16456900   -61.061500    11.935700    21.140400
     502      1      1  0.15063800   -59.751800    12.569200    23.108800
     503      1      2  0.11299900   -64.046400    12.694000    17.989400
     504      1      2  0.11299900   -63.758900    11.026700    18.457800
     505      1      2  0.11587600   -62.062000    12.571100    16.406700
     506      1      2  0.11587600   -61.710200    10.961300    16.973400
     507      1      5 -0.16855200   -63.461300    11.078100    15.757200
     508      1      5 -0.13795300   -63.645700     9.752400    15.430900
     509      1      5 -0.07013000   -64.581700     9.561000    14.359000
     510      1      4 -0.11209300   -64.950000     8.207800    13.814600
     511      1      4 -0.16889600   -63.797600     7.551600    13.048600
     512      1      4 -0.18246600   -64.220000     6.212200    12.446500
     513      1      4 -0.23719900   -63.076400     5.560600    11.685600
     514      1      5 -0.03249400   -65.088300    10.774900    13.914600
     515      1     10  0.09796900   -64.460200    12.091000    14.815700
     516      1      1  0.18285700   -63.115100     8.945200    15.923100
     517      1      2  0.10452400   -65.249200     7.563000    14.651000
     518      1      2  0.10452400   -65.827600     8.291600    13.162400
     519      1      2  0.09065200   -62.944100     7.396700    13.720600
     520      1      2  0.09065200   -63.449000     8.217400    12.250600
     521      1      2  0.09894700   -64.556100     5.535900    13.241000
     522      1      2  0.09894700   -65.066200     6.360300    11.765500
     523      1      2  0.08023700   -62.224400     5.369400    12.345900
     524      1      2  0.08023700   -63.399100     4.604500    11.261800
     525      1      2  0.08023700   -62.737700     6.199700    10.863800
     526      1      8 -0.22991700   -66.004000    11.020400    12.982000
     527      1      5  0.48796200   -65.583400    10.835900    11.710900
     528      1      9 -0.41132300   -64.482800    10.469300    11.323700
     529      1      5 -0.12774900   -66.680300    11.175300    10.761900
     530      1      5 -0.05712500   -66.360400    11.284000     9.400500
     531      1      6 -0.03600600   -67.344300    11.597700     8.449700
     532      1      6 -0.03457400   -68.677800    11.800100     8.872500
     533      1      5 -0.12686300   -68.990500    11.686600    10.236200
     534      1      5 -0.09127200   -68.001700    11.377600    11.175300
     535      1      5 -0.05825300   -69.661800    12.111000     7.919600
     536      1      5 -0.12493400   -69.337400    12.227300     6.560300
     537      1      5 -0.08641900   -68.015300    12.027400     6.149200
     538      1      5 -0.13248000   -67.028300    11.714700     7.087700
     539      1      5  0.49528400   -70.428800    12.556800     5.603500
     540      1      9 -0.44464700   -71.602900    12.648900     5.923800
     541      1      8 -0.35747000   -69.929400    12.741000     4.356800
     542      1      4  0.00803800   -70.916000    13.054900     3.360900
     543      1      4 -0.10633900   -70.190500    13.340400     2.049000
     544      1      1  0.16485300   -65.330600    11.126900     9.080000
     545      1      1  0.15401300   -70.012200    11.839700    10.580400
     546      1      1  0.17076200   -68.284700    11.296700    12.222200
     547      1      1  0.17150200   -70.692900    12.266700     8.235500
     548      1      1  0.16456900   -67.734600    12.108400     5.101800
     549      1      1  0.15063800   -66.006100    11.563800     6.744100
     550      1      2  0.11299900   -71.492000    13.934300     3.674600
     551      1      2  0.11299900   -71.595500    12.201500     3.248200
     552      1      2  0.11587600   -69.549800    12.487800     1.789100
     553      1      2  0.11587600   -69.499100    14.180900     2.194000
     554      1      5 -0.16855200   -71.139600    13.658100     0.935800
     555      1      5 -0.13795300   -71.689500    14.877900     0.604700
     556      1      5 -0.07013000   -72.549700    14.811100    -0.542700
     557      1      4 -0.11209300   -73.292400    15.994400    -1.098800
     558      1      4 -0.16889600   -72.386800    16.932200    -1.900300
     559      1      4 -0.18246600   -73.174700    18.112600    -2.468100
     560      1      4 -0.23719900   -72.279600    19.047000    -3.266300
     561      1      5 -0.03249400   -72.598300    13.523800    -1.057300
     562      1     10  0.09796900   -71.678200    12.427300    -0.116900
     563      1      1  0.18285700   -71.486800    15.788800     1.156800
     564      1      2  0.10452400   -73.749600    16.545600    -0.267000
     565      1      2  0.10452400   -74.120100    15.650000    -1.731100
     566      1      2  0.09065200   -71.910500    16.382200    -2.720500
     567      1      2  0.09065200   -71.577100    17.305400    -1.260600
     568      1      2  0.09894700   -73.644400    18.674000    -1.652100
     569      1      2  0.09894700   -73.979500    17.745900    -3.115800
     570      1      2  0.08023700   -71.819200    18.523300    -4.110100
     571      1      2  0.08023700   -71.481500    19.456700    -2.639000
     572      1      2  0.08023700   -72.863100    19.883600    -3.663200
     573      1      8 -0.22991700   -73.302900    13.067200    -2.088500
     574      1      5  0.48796200   -72.698200    13.260900    -3.284100
     575      1      9 -0.41132300   -71.622600    13.798100    -3.507500
     576      1      5 -0.12774900   -73.550200    12.707500    -4.376000
     577      1      5 -0.05712500   -73.082600    12.817300    -5.693900
     578      1      6 -0.03600600   -73.828400    12.313100    -6.771400
     579      1      6 -0.03457400   -75.071100    11.686300    -6.523000
     580      1      5 -0.12686300   -75.533800    11.582600    -5.201800
     581      1      5 -0.09127200   -74.781800    12.087300    -4.136300
     582      1      5 -0.05825300   -75.816100    11.177300    -7.601000
     583      1      5 -0.12493400   -75.339900    11.283300    -8.915500
     584      1      5 -0.08641900   -74.110300    11.906800    -9.152800
     585      1      5 -0.13248000   -73.361800    12.417500    -8.090000
     586      1      5  0.49528400   -76.090400    10.749400   -10.084500
     587      1      9 -0.44464700   -75.688300    10.827800   -11.234000
     588      1      8 -0.35747000   -77.249800    10.168300    -9.687400
     589      1      4  0.00803800   -78.052600     9.606800   -10.741700
     590      1      4 -0.10633900   -77.579600     8.192900   -11.076300
     591      1      1  0.16485300   -72.122900    13.299100    -5.880500
     592      1      1  0.15401300   -76.487500    11.102700    -4.988700
     593      1      1  0.17076200   -75.175000    11.982400    -3.127800
     594      1      1  0.17150200   -76.771400    10.694300    -7.407000
     595      1      1  0.16456900   -73.725800    11.996800   -10.167700
     596      1      1  0.15063800   -72.407200    12.895900    -8.302700
     597      1      2  0.11299900   -79.083500     9.583500   -10.369900
     598      1      2  0.11299900   -78.054700    10.261600   -11.622200
     599      1      2  0.11587600   -77.558900     7.593800   -10.156500
     600      1      2  0.11587600   -76.539700     8.213000   -11.425100
     601      1      5 -0.16855200   -78.466600     7.529900   -12.085000
     602      1      5 -0.13795300   -79.603700     6.783400   -11.863300
     603      1      5 -0.07013000   -80.198700     6.295800   -13.075300
     604      1      4 -0.11209300   -81.463900     5.483000   -13.111600
     605      1      4 -0.16889600   -82.673500     6.316400   -13.542500
     606      1      4 -0.18246600   -83.948700     5.474300   -13.564600
     607      1      4 -0.23719900   -85.152100     6.297400   -13.995600
     608      1      5 -0.03249400   -79.452900     6.669900   -14.185000
     609      1     10  0.09796900   -78.121600     7.655700   -13.751200
     610      1      1  0.18285700   -80.002800     6.592600   -10.873500
     611      1      2  0.10452400   -81.338500     4.630500   -13.788900
     612      1      2  0.10452400   -81.649600     5.057700   -12.117000
     613      1      2  0.09065200   -82.802400     7.163700   -12.857000
     614      1      2  0.09065200   -82.498900     6.741200   -14.539100
     615      1      2  0.09894700   -84.136700     5.056500   -12.568800
     616      1      2  0.09894700   -83.825500     4.630200   -14.253200
     617      1      2  0.08023700   -85.009500     6.703300   -15.002300
     618      1      2  0.08023700   -86.053000     5.675900   -14.004500
     619      1      2  0.08023700   -85.322200     7.132800   -13.308900
     620      1      8 -0.22991700   -79.686200     6.439200   -15.473200
     621      1      5  0.48796200   -79.439600     5.169600   -15.868700
     622      1      9 -0.41132300   -79.036500     4.233600   -15.192700
     623      1      5 -0.12774900   -79.736400     5.030000   -17.323700
     624      1      5 -0.05712500   -79.542900     3.773500   -17.917000
     625      1      6 -0.03600600   -79.799400     3.570200   -19.282600
     626      1      6 -0.03457400   -80.257800     4.651900   -20.069700
     627      1      5 -0.12686300   -80.454200     5.904600   -19.468800
     628      1      5 -0.09127200   -80.195700     6.094700   -18.108100
     629      1      5 -0.05825300   -80.510000     4.452600   -21.436500
     630      1      5 -0.12493400   -80.310700     3.195500   -22.024500
     631      1      5 -0.08641900   -79.871400     2.125600   -21.239900
     632      1      5 -0.13248000   -79.613200     2.313700   -19.880200
     633      1      5  0.49528400   -80.577400     2.951700   -23.465100
     634      1      9 -0.44464700   -80.750800     1.845000   -23.948200
     635      1      8 -0.35747000   -80.571300     4.125700   -24.139900
     636      1      4  0.00803800   -80.930400     4.021800   -25.526000
     637      1      4 -0.10633900   -80.779300     5.391900   -26.187700
     638      1      1  0.16485300   -79.187000     2.944500   -17.305600
     639      1      1  0.15401300   -80.813100     6.746900   -20.058200
     640      1      1  0.17076200   -80.358600     7.082000   -17.682300
     641      1      1  0.17150200   -80.875900     5.280800   -22.040800
     642      1      1  0.16456900   -79.726100     1.142300   -21.683600
     643      1      1  0.15063800   -79.267000     1.467200   -19.289700
     644      1      2  0.11299900   -81.961700     3.658400   -25.605000
     645      1      2  0.11299900   -80.259600     3.311200   -26.023500
     646      1      2  0.11587600   -79.742900     5.734000   -26.071700
     647      1      2  0.11587600   -80.968800     5.304200   -27.264100
     648      1      5 -0.16855200   -81.692300     6.424700   -25.587700
     649      1      5 -0.13795300   -81.376000     7.406600   -24.673000
     650      1      5 -0.07013000   -82.502900     8.213500   -24.302900
     651      1      4 -0.11209300   -82.415700     9.369000   -23.343800
     652      1      4 -0.16889600   -82.431700    10.720000   -24.063300
     653      1      4 -0.18246600   -82.330700    11.878300   -23.071400
     654      1      4 -0.23719900   -82.350200    13.222500   -23.781500
     655      1      5 -0.03249400   -83.657300     7.782600   -24.942900
     656      1     10  0.09796900   -83.338200     6.497100   -26.029600
     657      1      1  0.18285700   -80.374700     7.544700   -24.280900
     658      1      2  0.10452400   -81.494100     9.280800   -22.754300
     659      1      2  0.10452400   -83.241500     9.319900   -22.625200
     660      1      2  0.09065200   -81.598200    10.770000   -24.775500
     661      1      2  0.09065200   -83.353700    10.820400   -24.649700
     662      1      2  0.09894700   -81.405200    11.791800   -22.490500
     663      1      2  0.09894700   -83.165200    11.834600   -22.361900
     664      1      2  0.08023700   -81.509500    13.311100   -24.476900
     665      1      2  0.08023700   -83.278800    13.354600   -24.345900
     666      1      2  0.08023700   -82.276400    14.036700   -23.053700
     667      1      8 -0.22991700   -84.889600     8.277200   -24.884300
     668      1      5  0.48796200   -85.541100     8.034300   -23.724700
     669      1      9 -0.41132300   -85.136900     7.421300   -22.746700
     670      1      5 -0.12774900   -86.902900     8.640900   -23.777300
     671      1      5 -0.05712500   -87.374200     9.351300   -24.891500
     672      1      6 -0.03600600   -88.667100     9.903100   -24.900000
     673      1      6 -0.03457400   -89.502100     9.740400   -23.769900
     674      1      5 -0.12686300   -89.021500     9.031100   -22.659300
     675      1      5 -0.09127200   -87.735000     8.486300   -22.662800
     676      1      5 -0.05825300   -90.796400    10.288400   -23.780500
     677      1      5 -0.12493400   -91.268300    10.991800   -24.897500
     678      1      5 -0.08641900   -90.436300    11.150900   -26.010700
     679      1      5 -0.13248000   -89.147700    10.611700   -26.011400
     680      1      5  0.49528400   -92.634700    11.579100   -24.954800
     681      1      9 -0.44464700   -93.064500    12.192200   -25.918800
     682      1      8 -0.35747000   -93.313300    11.330000   -23.807400
     683      1      4  0.00803800   -94.652800    11.849100   -23.791500
     684      1      4 -0.10633900   -95.290900    11.488200   -22.452800
     685      1      1  0.16485300   -86.741100     9.480200   -25.767200
     686      1      1  0.15401300   -89.646200     8.892400   -21.778600
     687      1      1  0.17076200   -87.387700     7.937000   -21.788800
     688      1      1  0.17150200   -91.435800    10.159500   -22.909800
     689      1      1  0.16456900   -90.788000    11.694400   -26.886300
     690      1      1  0.15063800   -88.523700    10.749500   -26.892700
     691      1      2  0.11299900   -95.223000    11.405000   -24.616900
     692      1      2  0.11299900   -94.623600    12.938000   -23.920200
     693      1      2  0.11587600   -95.224700    10.402700   -22.301400
     694      1      2  0.11587600   -94.705200    11.925900   -21.634200
     695      1      5 -0.16855200   -96.723100    11.918400   -22.377700
     696      1      5 -0.13795300   -97.847200    11.196600   -22.716600
     697      1      5 -0.07013000   -99.065000    11.928100   -22.512500
     698      1      4 -0.11209300  -100.430500    11.382500   -22.835100
     699      1      4 -0.16889600  -100.893300    10.325600   -21.828100
     700      1      4 -0.18246600  -102.279400     9.758600   -22.141900
     701      1      4 -0.23719900  -103.399900    10.773300   -21.970400
     702      1      5 -0.03249400   -98.810000    13.191700   -21.997600
     703      1     10  0.09796900   -97.130900    13.481400   -21.826900
     704      1      1  0.18285700   -97.807200    10.183400   -23.100500
     705      1      2  0.10452400  -100.404700    10.944000   -23.840900
     706      1      2  0.10452400  -101.149500    12.208000   -22.878400
     707      1      2  0.09065200  -100.176600     9.494300   -21.822100
     708      1      2  0.09065200  -100.889600    10.739200   -20.813000
     709      1      2  0.09894700  -102.299200     9.358800   -23.162300
     710      1      2  0.09894700  -102.469600     8.915500   -21.467000
     711      1      2  0.08023700  -103.329800    11.579000   -22.706700
     712      1      2  0.08023700  -104.370900    10.286000   -22.105500
     713      1      2  0.08023700  -103.379700    11.216200   -20.969500
     714      1      8 -0.22991700   -99.667100    14.170400   -21.723500
     715      1      5  0.48796200  -100.362400    13.995900   -20.576500
     716      1      9 -0.41132300  -100.248600    13.097400   -19.755300
     717      1      5 -0.12774900  -101.363300    15.091000   -20.423300
     718      1      5 -0.05712500  -101.466800    16.156800   -21.329800
     719      1      6 -0.03600600  -102.434100    17.161600   -21.152900
     720      1      6 -0.03457400  -103.311500    17.095900   -20.046000
     721      1      5 -0.12686300  -103.198900    16.029100   -19.142600
     722      1      5 -0.09127200  -102.234300    15.036100   -19.329100
     723      1      5 -0.05825300  -104.279000    18.098700   -19.871900
     724      1      5 -0.12493400  -104.386900    19.161700   -20.779600
     725      1      5 -0.08641900  -103.515700    19.223000   -21.872200
     726      1      5 -0.13248000  -102.548100    18.230700   -22.055300
     727      1      5  0.49528400  -105.437100    20.187700   -20.536000
     728      1      9 -0.44464700  -106.204700    20.154200   -19.587500
     729      1      8 -0.35747000  -105.408000    21.141500   -21.499500
     730      1      4  0.00803800  -106.398300    22.177700   -21.375000
     731      1      4 -0.10633900  -105.924800    23.262300   -20.408300
     732      1      1  0.16485300  -100.794900    16.216500   -22.183600
     733      1      1  0.15401300  -103.863300    15.960200   -18.282800
     734      1      1  0.17076200  -102.168500    14.217600   -18.613600
     735      1      1  0.17150200  -104.958600    18.053900   -19.021300
     736      1      1  0.16456900  -103.575500    20.035800   -22.592200
     737      1      1  0.15063800  -101.882400    18.301600   -22.913800
     738      1      2  0.11299900  -107.366000    21.754500   -21.076800
     739      1      2  0.11299900  -106.539400    22.597200   -22.377700
     740      1      2  0.11587600  -105.737300    22.826300   -19.419200
     741      1      2  0.11587600  -104.951500    23.647900   -20.737900
     742      1      5 -0.16855200  -106.925300    24.369600   -20.281100
     743      1      5 -0.13795300  -107.974300    24.467900   -19.392700
     744      1      5 -0.07013000  -108.731500    25.676800   -19.552000
     745      1      4 -0.11209300  -109.942800    26.015300   -18.727500
     746      1      4 -0.16889600  -109.582500    26.459300   -17.307900
     747      1      4 -0.18246600  -110.832300    26.822600   -16.506400
     748      1      4 -0.23719900  -110.479900    27.264400   -15.095100
     749      1      5 -0.03249400  -108.202000    26.469600   -20.560100
     750      1     10  0.09796900  -106.860300    25.722500   -21.318900
     751      1      1  0.18285700  -108.197200    23.704400   -18.655000
     752      1      2  0.10452400  -110.523500    26.802400   -19.224500
     753      1      2  0.10452400  -110.595300    25.133800   -18.683200
     754      1      2  0.09065200  -108.908000    27.322900   -17.345100
     755      1      2  0.09065200  -109.037400    25.657600   -16.793700
     756      1      2  0.09894700  -111.376000    27.630200   -17.010300
     757      1      2  0.09894700  -111.506100    25.959400   -16.455600
     758      1      2  0.08023700  -111.388000    27.519500   -14.539900
     759      1      2  0.08023700  -109.832100    28.146700   -15.110500
     760      1      2  0.08023700  -109.962300    26.467200   -14.552100
     761      1      8 -0.22991700  -108.648200    27.631900   -21.026500
     762      1      5  0.48796200  -108.287800    28.699100   -20.276800
     763      1      9 -0.41132300  -107.604200    28.712900   -19.263300
     764      1      5 -0.12774900  -108.862300    29.944200   -20.863900
     765      1      5 -0.05712500  -109.631900    29.946000   -22.036900
     766      1      6 -0.03600600  -110.155800    31.144200   -22.553000
     767      1      6 -0.03457400  -109.902700    32.362600   -21.880500
     768      1      5 -0.12686300  -109.131800    32.351500   -20.708900
     769      1      5 -0.09127200  -108.616600    31.154500   -20.205400
     770      1      5 -0.05825300  -110.426100    33.560500   -22.396600
     771      1      5 -0.12493400  -111.195300    33.561200   -23.568600
     772      1      5 -0.08641900  -111.442000    32.352700   -24.228600
     773      1      5 -0.13248000  -110.926700    31.155700   -23.725300
     774      1      5  0.49528400  -111.768700    34.806300   -24.148600
     775      1      9 -0.44464700  -112.443100    34.826100   -25.165400
     776      1      8 -0.35747000  -111.441200    35.882500   -23.391800
     777      1      4  0.00803800  -111.932700    37.148900   -23.866400
     778      1      4 -0.10633900  -113.369100    37.377400   -23.397700
     779      1      1  0.16485300  -109.830800    29.014300   -22.562800
     780      1      1  0.15401300  -108.923100    33.276700   -20.174600
     781      1      1  0.17076200  -108.020400    31.173700   -19.294100
     782      1      1  0.17150200  -110.228100    34.495400   -21.876300
     783      1      1  0.16456900  -112.037600    32.336200   -25.140100
     784      1      1  0.15063800  -111.134700    30.231000   -24.260600
     785      1      2  0.11299900  -111.838300    37.219800   -24.957300
     786      1      2  0.11299900  -111.270200    37.915100   -23.447000
     787      1      2  0.11587600  -114.034800    36.620800   -23.830700
     788      1      2  0.11587600  -113.423700    37.217700   -22.312900
     789      1      5 -0.16855200  -113.848500    38.758600   -23.724100
     790      1      5 -0.13795300  -113.741400    39.900300   -22.960000
     791      1      5 -0.07013000  -114.317100    41.054200   -23.591500
     792      1      4 -0.11209300  -114.298500    42.430000   -22.982000
     793      1      4 -0.16889600  -115.268800    42.564900   -21.804200
     794      1      4 -0.18246600  -115.196000    43.933300   -21.125400
     795      1      4 -0.23719900  -115.746800    45.061200   -21.982100
     796      1      5 -0.03249400  -114.865800    40.728600   -24.823600
     797      1     10  0.09796900  -114.629000    39.076000   -25.207600
     798      1      1  0.18285700  -113.266100    39.919700   -21.985600
     799      1      2  0.10452400  -114.531300    43.172600   -23.753000
     800      1      2  0.10452400  -113.277300    42.645500   -22.643600
     801      1      2  0.09065200  -116.296200    42.368900   -22.132500
     802      1      2  0.09065200  -115.034700    41.799900   -21.052800
     803      1      2  0.09894700  -115.771700    43.894300   -20.193000
     804      1      2  0.09894700  -114.160200    44.154400   -20.847400
     805      1      2  0.08023700  -115.216000    45.151500   -22.932300
     806      1      2  0.08023700  -116.808400    44.905100   -22.198000
     807      1      2  0.08023700  -115.641600    46.012900   -21.454000
     808      1      8 -0.22991700  -115.438900    41.521900   -25.723000
     809      1      5  0.48796200  -116.719100    41.854100   -25.440900
     810      1      9 -0.41132300  -117.385200    41.537700   -24.466100
     811      1      5 -0.12774900  -117.267700    42.702800   -26.538500
     812      1      5 -0.05712500  -118.615300    43.086800   -26.465300
     813      1      6 -0.03600600  -119.198400    43.879200   -27.468100
     814      1      6 -0.03457400  -118.411400    44.295600   -28.565600
     815      1      5 -0.12686300  -117.063700    43.910400   -28.631400
     816      1      5 -0.09127200  -116.494700    43.120700   -27.628300
     817      1      5 -0.05825300  -118.989800    45.091800   -29.567500
     818      1      5 -0.12493400  -120.334200    45.484900   -29.488600
     819      1      5 -0.08641900  -121.108200    45.067400   -28.401700
     820      1      5 -0.13248000  -120.545500    44.268800   -27.402100
     821      1      5  0.49528400  -120.960000    46.382400   -30.499300
     822      1      9 -0.44464700  -122.086400    46.840500   -30.399500
     823      1      8 -0.35747000  -120.083000    46.644400   -31.497600
     824      1      4  0.00803800  -120.443800    47.706300   -32.398600
     825      1      4 -0.10633900  -120.203000    49.085700   -31.771300
     826      1      1  0.16485300  -119.216800    42.760700   -25.616900
     827      1      1  0.15401300  -116.443800    44.220900   -29.470800
     828      1      1  0.17076200  -115.448500    42.839200   -27.720000
     829      1      1  0.17150200  -118.377200    45.420700   -30.404700
     830      1      1  0.16456900  -122.150900    45.369900   -28.321400
     831      1      1  0.15063800  -121.169000    43.959600   -26.565000
     832      1      2  0.11299900  -119.821800    47.584000   -33.292500
     833      1      2  0.11299900  -121.486900    47.596800   -32.718100
     834      1      2  0.11587600  -120.867800    49.230300   -30.911400
     835      1      2  0.11587600  -120.461900    49.861500   -32.501900
     836      1      5 -0.16855200  -118.770800    49.265600   -31.345000
     837      1      5 -0.13795300  -117.688900    49.669300   -32.098500
     838      1      5 -0.07013000  -116.455900    49.646200   -31.361500
     839      1      4 -0.11209300  -115.117200    49.994500   -31.950000
     840      1      4 -0.16889600  -114.381200    48.757500   -32.472400
     841      1      4 -0.18246600  -112.966900    49.060300   -32.971300
     842      1      4 -0.23719900  -112.935600    49.957600   -34.198700
     843      1      5 -0.03249400  -116.661300    49.251400   -30.049600
     844      1     10  0.09796900  -118.313100    48.934000   -29.732600
     845      1      1  0.18285700  -117.763900    49.941300   -33.145200
     846      1      2  0.10452400  -114.506200    50.499700   -31.191500
     847      1      2  0.10452400  -115.266100    50.716900   -32.761300
     848      1      2  0.09065200  -114.307700    48.011700   -31.670400
     849      1      2  0.09065200  -114.963300    48.288600   -33.275900
     850      1      2  0.09894700  -112.476600    48.111800   -33.221100
     851      1      2  0.09894700  -112.378100    49.519100   -32.168400
     852      1      2  0.08023700  -113.304200    50.962100   -33.971200
     853      1      2  0.08023700  -113.543900    49.539600   -35.007000
     854      1      2  0.08023700  -111.908600    50.057400   -34.564600
     855      1      8 -0.22991700  -115.749200    49.009300   -29.114000
     856      1      5  0.48796200  -115.653400    49.972100   -28.169900
     857      1      9 -0.41132300  -116.091300    51.112500   -28.211400
     858      1      5 -0.12774900  -114.923700    49.432900   -26.986000
     859      1      5 -0.05712500  -114.383300    48.137700   -26.954500
     860      1      6 -0.03600600  -113.757900    47.645900   -25.796300
     861      1      6 -0.03457400  -113.671100    48.470800   -24.651200
     862      1      5 -0.12686300  -114.194500    49.771500   -24.698400
     863      1      5 -0.09127200  -114.816700    50.247900   -25.854100
     864      1      5 -0.05825300  -113.078000    47.968600   -23.482100
     865      1      5 -0.12493400  -112.572500    46.661500   -23.437500
     866      1      5 -0.08641900  -112.641300    45.857900   -24.580100
     867      1      5 -0.13248000  -113.230200    46.346000   -25.748900
     868      1      5  0.49528400  -112.011500    46.068400   -22.193300
     869      1      9 -0.44464700  -111.588900    44.926100   -22.118100
     870      1      8 -0.35747000  -112.091800    46.956000   -21.174800
     871      1      4  0.00803800  -111.811900    46.412300   -19.874800
     872      1      4 -0.10633900  -112.223700    47.431400   -18.811700
     873      1      1  0.16485300  -114.458600    47.491500   -27.826500
     874      1      1  0.15401300  -114.135800    50.423500   -23.828900
     875      1      1  0.17076200  -115.231600    51.254900   -25.860100
     876      1      1  0.17150200  -113.031600    48.599200   -22.597000
     877      1      1  0.16456900  -112.254100    44.840500   -24.560300
     878      1      1  0.15063800  -113.283300    45.694800   -26.619200
     879      1      2  0.11299900  -110.735100    46.222900   -19.800800
     880      1      2  0.11299900  -112.352900    45.469300   -19.733500
     881      1      2  0.11587600  -111.681700    48.370300   -18.982800
     882      1      2  0.11587600  -111.931000    47.068400   -17.819400
     883      1      5 -0.17507600  -113.699800    47.721300   -18.843500
     884      1      5 -0.13290900  -114.343300    48.766900   -19.469300
     885      1      5 -0.06603400  -115.770600    48.728200   -19.320400
     886      1      4 -0.09733300  -116.682400    49.759300   -19.934800
     887      1      4 -0.15867300  -116.849200    49.598600   -21.450000
     888      1      4 -0.16765500  -117.785800    48.449500   -21.827300
     889      1      4 -0.22868700  -117.873300    48.274800   -23.335600
     890      1      5 -0.18000900  -116.152500    47.645700   -18.539800
     891      1     10  0.11530300  -114.808000    46.699900   -18.049300
     892      1      1  0.18781900  -113.813700    49.529300   -20.029000
     893      1      2  0.10790600  -116.248600    50.748500   -19.737100
     894      1      2  0.10790600  -117.662800    49.757100   -19.445600
     895      1      2  0.10381300  -117.264200    50.530900   -21.853100
     896      1      2  0.10381300  -115.872200    49.455500   -21.926800
     897      1      2  0.10082200  -118.787900    48.645100   -21.428300
     898      1      2  0.10082200  -117.441300    47.511600   -21.383100
     899      1      2  0.09272400  -118.565900    47.464300   -23.583400
     900      1      2  0.09272400  -116.895300    48.023500   -23.757700
     901      1      2  0.09272400  -118.232400    49.189300   -23.818000
     902      1      7 -0.40223000  -116.919500    47.158300   -14.650100
     903      1      3  0.15056800  -117.395500    47.522800   -15.643700
     904      1      4 -0.08052400  -118.030500    47.987700   -16.884200
     905      1      4 -0.10586600  -117.534500    47.224600   -18.111500
     906      1      2  0.11717600  -117.870300    49.065600   -17.001400
     907      1      2  0.11717600  -119.113200    47.837400   -16.794300
     908      1      2  0.10185000  -118.224800    47.414900   -18.942800
     909      1      2  0.10185000  -117.573700    46.141900   -17.933900

Bonds

       1      1        1        2
       2      2        2        3
       3      3        3        4
       4      4        3        5
       5      4        3        6
       6      4        4        7
       7      4        4        8
       8      5        9       10
       9      6       10       11
      10      7       10       12
      11      8       12       13
      12      9       13       14
      13     10       14       15
      14      9       15       16
      15      8       16       17
      16      9       15       18
      17      8       18       19
      18      8       19       20
      19      8       20       21
      20      7       19       22
      21      6       22       23
      22      5       22       24
      23     11       24       25
      24      3       25       26
      25      8       17       12
      26      9       21       14
      27     12       13       27
      28     12       16       28
      29     12       17       29
      30     12       18       30
      31     12       20       31
      32     12       21       32
      33      4       25       33
      34      4       25       34
      35      4       26       35
      36      4       26       36
      37     11        4        9
      38     13       37       38
      39     14       38       39
      40     15       39       40
      41      3       40       41
      42      3       41       42
      43      3       42       43
      44     13       39       44
      45     16       44       45
      46     16       45       37
      47     12       38       46
      48      4       40       47
      49      4       40       48
      50      4       41       49
      51      4       41       50
      52      4       42       51
      53      4       42       52
      54      4       43       53
      55      4       43       54
      56      4       43       55
      57     17       26       37
      58      5       56       57
      59      6       57       58
      60      7       57       59
      61      8       59       60
      62      9       60       61
      63     10       61       62
      64      9       62       63
      65      8       63       64
      66      9       62       65
      67      8       65       66
      68      8       66       67
      69      8       67       68
      70      7       66       69
      71      6       69       70
      72      5       69       71
      73     11       71       72
      74      3       72       73
      75      8       64       59
      76      9       68       61
      77     12       60       74
      78     12       63       75
      79     12       64       76
      80     12       65       77
      81     12       67       78
      82     12       68       79
      83      4       72       80
      84      4       72       81
      85      4       73       82
      86      4       73       83
      87     18       44       56
      88     13       84       85
      89     14       85       86
      90     15       86       87
      91      3       87       88
      92      3       88       89
      93      3       89       90
      94     13       86       91
      95     16       91       92
      96     16       92       84
      97     12       85       93
      98      4       87       94
      99      4       87       95
     100      4       88       96
     101      4       88       97
     102      4       89       98
     103      4       89       99
     104      4       90      100
     105      4       90      101
     106      4       90      102
     107     17       73       84
     108      5      103      104
     109      6      104      105
     110      7      104      106
     111      8      106      107
     112      9      107      108
     113     10      108      109
     114      9      109      110
     115      8      110      111
     116      9      109      112
     117      8      112      113
     118      8      113      114
     119      8      114      115
     120      7      113      116
     121      6      116      117
     122      5      116      118
     123     11      118      119
     124      3      119      120
     125      8      111      106
     126      9      115      108
     127     12      107      121
     128     12      110      122
     129     12      111      123
     130     12      112      124
     131     12      114      125
     132     12      115      126
     133      4      119      127
     134      4      119      128
     135      4      120      129
     136      4      120      130
     137     18       91      103
     138     13      131      132
     139     14      132      133
     140     15      133      134
     141      3      134      135
     142      3      135      136
     143      3      136      137
     144     13      133      138
     145     16      138      139
     146     16      139      131
     147     12      132      140
     148      4      134      141
     149      4      134      142
     150      4      135      143
     151      4      135      144
     152      4      136      145
     153      4      136      146
     154      4      137      147
     155      4      137      148
     156      4      137      149
     157     17      120      131
     158      5      150      151
     159      6      151      152
     160      7      151      153
     161      8      153      154
     162      9      154      155
     163     10      155      156
     164      9      156      157
     165      8      157      158
     166      9      156      159
     167      8      159      160
     168      8      160      161
     169      8      161      162
     170      7      160      163
     171      6      163      164
     172      5      163      165
     173     11      165      166
     174      3      166      167
     175      8      158      153
     176      9      162      155
     177     12      154      168
     178     12      157      169
     179     12      158      170
     180     12      159      171
     181     12      161      172
     182     12      162      173
     183      4      166      174
     184      4      166      175
     185      4      167      176
     186      4      167      177
     187     18      138      150
     188     13      178      179
     189     14      179      180
     190     15      180      181
     191      3      181      182
     192      3      182      183
     193      3      183      184
     194     13      180      185
     195     16      185      186
     196     16      186      178
     197     12      179      187
     198      4      181      188
     199      4      181      189
     200      4      182      190
     201      4      182      191
     202      4      183      192
     203      4      183      193
     204      4      184      194
     205      4      184      195
     206      4      184      196
     207     17      167      178
     208      5      197      198
     209      6      198      199
     210      7      198      200
     211      8      200      201
     212      9      201      202
     213     10      202      203
     214      9      203      204
     215      8      204      205
     216      9      203      206
     217      8      206      207
     218      8      207      208
     219      8      208      209
     220      7      207      210
     221      6      210      211
     222      5      210      212
     223     11      212      213
     224      3      213      214
     225      8      205      200
     226      9      209      202
     227     12      201      215
     228     12      204      216
     229     12      205      217
     230     12      206      218
     231     12      208      219
     232     12      209      220
     233      4      213      221
     234      4      213      222
     235      4      214      223
     236      4      214      224
     237     18      185      197
     238     13      225      226
     239     14      226      227
     240     15      227      228
     241      3      228      229
     242      3      229      230
     243      3      230      231
     244     13      227      232
     245     16      232      233
     246     16      233      225
     247     12      226      234
     248      4      228      235
     249      4      228      236
     250      4      229      237
     251      4      229      238
     252      4      230      239
     253      4      230      240
     254      4      231      241
     255      4      231      242
     256      4      231      243
     257     17      214      225
     258      5      244      245
     259      6      245      246
     260      7      245      247
     261      8      247      248
     262      9      248      249
     263     10      249      250
     264      9      250      251
     265      8      251      252
     266      9      250      253
     267      8      253      254
     268      8      254      255
     269      8      255      256
     270      7      254      257
     271      6      257      258
     272      5      257      259
     273     11      259      260
     274      3      260      261
     275      8      252      247
     276      9      256      249
     277     12      248      262
     278     12      251      263
     279     12      252      264
     280     12      253      265
     281     12      255      266
     282     12      256      267
     283      4      260      268
     284      4      260      269
     285      4      261      270
     286      4      261      271
     287     18      232      244
     288     13      272      273
     289     14      273      274
     290     15      274      275
     291      3      275      276
     292      3      276      277
     293      3      277      278
     294     13      274      279
     295     16      279      280
     296     16      280      272
     297     12      273      281
     298      4      275      282
     299      4      275      283
     300      4      276      284
     301      4      276      285
     302      4      277      286
     303      4      277      287
     304      4      278      288
     305      4      278      289
     306      4      278      290
     307     17      261      272
     308      5      291      292
     309      6      292      293
     310      7      292      294
     311      8      294      295
     312      9      295      296
     313     10      296      297
     314      9      297      298
     315      8      298      299
     316      9      297      300
     317      8      300      301
     318      8      301      302
     319      8      302      303
     320      7      301      304
     321      6      304      305
     322      5      304      306
     323     11      306      307
     324      3      307      308
     325      8      299      294
     326      9      303      296
     327     12      295      309
     328     12      298      310
     329     12      299      311
     330     12      300      312
     331     12      302      313
     332     12      303      314
     333      4      307      315
     334      4      307      316
     335      4      308      317
     336      4      308      318
     337     18      279      291
     338     13      319      320
     339     14      320      321
     340     15      321      322
     341      3      322      323
     342      3      323      324
     343      3      324      325
     344     13      321      326
     345     16      326      327
     346     16      327      319
     347     12      320      328
     348      4      322      329
     349      4      322      330
     350      4      323      331
     351      4      323      332
     352      4      324      333
     353      4      324      334
     354      4      325      335
     355      4      325      336
     356      4      325      337
     357     17      308      319
     358      5      338      339
     359      6      339      340
     360      7      339      341
     361      8      341      342
     362      9      342      343
     363     10      343      344
     364      9      344      345
     365      8      345      346
     366      9      344      347
     367      8      347      348
     368      8      348      349
     369      8      349      350
     370      7      348      351
     371      6      351      352
     372      5      351      353
     373     11      353      354
     374      3      354      355
     375      8      346      341
     376      9      350      343
     377     12      342      356
     378     12      345      357
     379     12      346      358
     380     12      347      359
     381     12      349      360
     382     12      350      361
     383      4      354      362
     384      4      354      363
     385      4      355      364
     386      4      355      365
     387     18      326      338
     388     13      366      367
     389     14      367      368
     390     15      368      369
     391      3      369      370
     392      3      370      371
     393      3      371      372
     394     13      368      373
     395     16      373      374
     396     16      374      366
     397     12      367      375
     398      4      369      376
     399      4      369      377
     400      4      370      378
     401      4      370      379
     402      4      371      380
     403      4      371      381
     404      4      372      382
     405      4      372      383
     406      4      372      384
     407     17      355      366
     408      5      385      386
     409      6      386      387
     410      7      386      388
     411      8      388      389
     412      9      389      390
     413     10      390      391
     414      9      391      392
     415      8      392      393
     416      9      391      394
     417      8      394      395
     418      8      395      396
     419      8      396      397
     420      7      395      398
     421      6      398      399
     422      5      398      400
     423     11      400      401
     424      3      401      402
     425      8      393      388
     426      9      397      390
     427     12      389      403
     428     12      392      404
     429     12      393      405
     430     12      394      406
     431     12      396      407
     432     12      397      408
     433      4      401      409
     434      4      401      410
     435      4      402      411
     436      4      402      412
     437     18      373      385
     438     13      413      414
     439     14      414      415
     440     15      415      416
     441      3      416      417
     442      3      417      418
     443      3      418      419
     444     13      415      420
     445     16      420      421
     446     16      421      413
     447     12      414      422
     448      4      416      423
     449      4      416      424
     450      4      417      425
     451      4      417      426
     452      4      418      427
     453      4      418      428
     454      4      419      429
     455      4      419      430
     456      4      419      431
     457     17      402      413
     458      5      432      433
     459      6      433      434
     460      7      433      435
     461      8      435      436
     462      9      436      437
     463     10      437      438
     464      9      438      439
     465      8      439      440
     466      9      438      441
     467      8      441      442
     468      8      442      443
     469      8      443      444
     470      7      442      445
     471      6      445      446
     472      5      445      447
     473     11      447      448
     474      3      448      449
     475      8      440      435
     476      9      444      437
     477     12      436      450
     478     12      439      451
     479     12      440      452
     480     12      441      453
     481     12      443      454
     482     12      444      455
     483      4      448      456
     484      4      448      457
     485      4      449      458
     486      4      449      459
     487     18      420      432
     488     13      460      461
     489     14      461      462
     490     15      462      463
     491      3      463      464
     492      3      464      465
     493      3      465      466
     494     13      462      467
     495     16      467      468
     496     16      468      460
     497     12      461      469
     498      4      463      470
     499      4      463      471
     500      4      464      472
     501      4      464      473
     502      4      465      474
     503      4      465      475
     504      4      466      476
     505      4      466      477
     506      4      466      478
     507     17      449      460
     508      5      479      480
     509      6      480      481
     510      7      480      482
     511      8      482      483
     512      9      483      484
     513     10      484      485
     514      9      485      486
     515      8      486      487
     516      9      485      488
     517      8      488      489
     518      8      489      490
     519      8      490      491
     520      7      489      492
     521      6      492      493
     522      5      492      494
     523     11      494      495
     524      3      495      496
     525      8      487      482
     526      9      491      484
     527     12      483      497
     528     12      486      498
     529     12      487      499
     530     12      488      500
     531     12      490      501
     532     12      491      502
     533      4      495      503
     534      4      495      504
     535      4      496      505
     536      4      496      506
     537     18      467      479
     538     13      507      508
     539     14      508      509
     540     15      509      510
     541      3      510      511
     542      3      511      512
     543      3      512      513
     544     13      509      514
     545     16      514      515
     546     16      515      507
     547     12      508      516
     548      4      510      517
     549      4      510      518
     550      4      511      519
     551      4      511      520
     552      4      512      521
     553      4      512      522
     554      4      513      523
     555      4      513      524
     556      4      513      525
     557     17      496      507
     558      5      526      527
     559      6      527      528
     560      7      527      529
     561      8      529      530
     562      9      530      531
     563     10      531      532
     564      9      532      533
     565      8      533      534
     566      9      532      535
     567      8      535      536
     568      8      536      537
     569      8      537      538
     570      7      536      539
     571      6      539      540
     572      5      539      541
     573     11      541      542
     574      3      542      543
     575      8      534      529
     576      9      538      531
     577     12      530      544
     578     12      533      545
     579     12      534      546
     580     12      535      547
     581     12      537      548
     582     12      538      549
     583      4      542      550
     584      4      542      551
     585      4      543      552
     586      4      543      553
     587     18      514      526
     588     13      554      555
     589     14      555      556
     590     15      556      557
     591      3      557      558
     592      3      558      559
     593      3      559      560
     594     13      556      561
     595     16      561      562
     596     16      562      554
     597     12      555      563
     598      4      557      564
     599      4      557      565
     600      4      558      566
     601      4      558      567
     602      4      559      568
     603      4      559      569
     604      4      560      570
     605      4      560      571
     606      4      560      572
     607     17      543      554
     608      5      573      574
     609      6      574      575
     610      7      574      576
     611      8      576      577
     612      9      577      578
     613     10      578      579
     614      9      579      580
     615      8      580      581
     616      9      579      582
     617      8      582      583
     618      8      583      584
     619      8      584      585
     620      7      583      586
     621      6      586      587
     622      5      586      588
     623     11      588      589
     624      3      589      590
     625      8      581      576
     626      9      585      578
     627     12      577      591
     628     12      580      592
     629     12      581      593
     630     12      582      594
     631     12      584      595
     632     12      585      596
     633      4      589      597
     634      4      589      598
     635      4      590      599
     636      4      590      600
     637     18      561      573
     638     13      601      602
     639     14      602      603
     640     15      603      604
     641      3      604      605
     642      3      605      606
     643      3      606      607
     644     13      603      608
     645     16      608      609
     646     16      609      601
     647     12      602      610
     648      4      604      611
     649      4      604      612
     650      4      605      613
     651      4      605      614
     652      4      606      615
     653      4      606      616
     654      4      607      617
     655      4      607      618
     656      4      607      619
     657     17      590      601
     658      5      620      621
     659      6      621      622
     660      7      621      623
     661      8      623      624
     662      9      624      625
     663     10      625      626
     664      9      626      627
     665      8      627      628
     666      9      626      629
     667      8      629      630
     668      8      630      631
     669      8      631      632
     670      7      630      633
     671      6      633      634
     672      5      633      635
     673     11      635      636
     674      3      636      637
     675      8      628      623
     676      9      632      625
     677     12      624      638
     678     12      627      639
     679     12      628      640
     680     12      629      641
     681     12      631      642
     682     12      632      643
     683      4      636      644
     684      4      636      645
     685      4      637      646
     686      4      637      647
     687     18      608      620
     688     13      648      649
     689     14      649      650
     690     15      650      651
     691      3      651      652
     692      3      652      653
     693      3      653      654
     694     13      650      655
     695     16      655      656
     696     16      656      648
     697     12      649      657
     698      4      651      658
     699      4      651      659
     700      4      652      660
     701      4      652      661
     702      4      653      662
     703      4      653      663
     704      4      654      664
     705      4      654      665
     706      4      654      666
     707     17      637      648
     708      5      667      668
     709      6      668      669
     710      7      668      670
     711      8      670      671
     712      9      671      672
     713     10      672      673
     714      9      673      674
     715      8      674      675
     716      9      673      676
     717      8      676      677
     718      8      677      678
     719      8      678      679
     720      7      677      680
     721      6      680      681
     722      5      680      682
     723     11      682      683
     724      3      683      684
     725      8      675      670
     726      9      679      672
     727     12      671      685
     728     12      674      686
     729     12      675      687
     730     12      676      688
     731     12      678      689
     732     12      679      690
     733      4      683      691
     734      4      683      692
     735      4      684      693
     736      4      684      694
     737     18      655      667
     738     13      695      696
     739     14      696      697
     740     15      697      698
     741      3      698      699
     742      3      699      700
     743      3      700      701
     744     13      697      702
     745     16      702      703
     746     16      703      695
     747     12      696      704
     748      4      698      705
     749      4      698      706
     750      4      699      707
     751      4      699      708
     752      4      700      709
     753      4      700      710
     754      4      701      711
     755      4      701      712
     756      4      701      713
     757     17      684      695
     758      5      714      715
     759      6      715      716
     760      7      715      717
     761      8      717      718
     762      9      718      719
     763     10      719      720
     764      9      720      721
     765      8      721      722
     766      9      720      723
     767      8      723      724
     768      8      724      725
     769      8      725      726
     770      7      724      727
     771      6      727      728
     772      5      727      729
     773     11      729      730
     774      3      730      731
     775      8      722      717
     776      9      726      719
     777     12      718      732
     778     12      721      733
     779     12      722      734
     780     12      723      735
     781     12      725      736
     782     12      726      737
     783      4      730      738
     784      4      730      739
     785      4      731      740
     786      4      731      741
     787     18      702      714
     788     13      742      743
     789     14      743      744
     790     15      744      745
     791      3      745      746
     792      3      746      747
     793      3      747      748
     794     13      744      749
     795     16      749      750
     796     16      750      742
     797     12      743      751
     798      4      745      752
     799      4      745      753
     800      4      746      754
     801      4      746      755
     802      4      747      756
     803      4      747      757
     804      4      748      758
     805      4      748      759
     806      4      748      760
     807     17      731      742
     808      5      761      762
     809      6      762      763
     810      7      762      764
     811      8      764      765
     812      9      765      766
     813     10      766      767
     814      9      767      768
     815      8      768      769
     816      9      767      770
     817      8      770      771
     818      8      771      772
     819      8      772      773
     820      7      771      774
     821      6      774      775
     822      5      774      776
     823     11      776      777
     824      3      777      778
     825      8      769      764
     826      9      773      766
     827     12      765      779
     828     12      768      780
     829     12      769      781
     830     12      770      782
     831     12      772      783
     832     12      773      784
     833      4      777      785
     834      4      777      786
     835      4      778      787
     836      4      778      788
     837     18      749      761
     838     13      789      790
     839     14      790      791
     840     15      791      792
     841      3      792      793
     842      3      793      794
     843      3      794      795
     844     13      791      796
     845     16      796      797
     846     16      797      789
     847     12      790      798
     848      4      792      799
     849      4      792      800
     850      4      793      801
     851      4      793      802
     852      4      794      803
     853      4      794      804
     854      4      795      805
     855      4      795      806
     856      4      795      807
     857     17      778      789
     858      5      808      809
     859      6      809      810
     860      7      809      811
     861      8      811      812
     862      9      812      813
     863     10      813      814
     864      9      814      815
     865      8      815      816
     866      9      814      817
     867      8      817      818
     868      8      818      819
     869      8      819      820
     870      7      818      821
     871      6      821      822
     872      5      821      823
     873     11      823      824
     874      3      824      825
     875      8      816      811
     876      9      820      813
     877     12      812      826
     878     12      815      827
     879     12      816      828
     880     12      817      829
     881     12      819      830
     882     12      820      831
     883      4      824      832
     884      4      824      833
     885      4      825      834
     886      4      825      835
     887     18      796      808
     888     13      836      837
     889     14      837      838
     890     15      838      839
     891      3      839      840
     892      3      840      841
     893      3      841      842
     894     13      838      843
     895     16      843      844
     896     16      844      836
     897     12      837      845
     898      4      839      846
     899      4      839      847
     900      4      840      848
     901      4      840      849
     902      4      841      850
     903      4      841      851
     904      4      842      852
     905      4      842      853
     906      4      842      854
     907     17      825      836
     908      5      855      856
     909      6      856      857
     910      7      856      858
     911      8      858      859
     912      9      859      860
     913     10      860      861
     914      9      861      862
     915      8      862      863
     916      9      861      864
     917      8      864      865
     918      8      865      866
     919      8      866      867
     920      7      865      868
     921      6      868      869
     922      5      868      870
     923     11      870      871
     924      3      871      872
     925      8      863      858
     926      9      867      860
     927     12      859      873
     928     12      862      874
     929     12      863      875
     930     12      864      876
     931     12      866      877
     932     12      867      878
     933      4      871      879
     934      4      871      880
     935      4      872      881
     936      4      872      882
     937     18      843      855
     938     13      883      884
     939     14      884      885
     940     15      885      886
     941      3      886      887
     942      3      887      888
     943      3      888      889
     944     13      885      890
     945     16      890      891
     946     16      891      883
     947     12      884      892
     948      4      886      893
     949      4      886      894
     950      4      887      895
     951      4      887      896
     952      4      888      897
     953      4      888      898
     954      4      889      899
     955      4      889      900
     956      4      889      901
     957     17      872      883
     958      1      902      903
     959      2      903      904
     960      3      904      905
     961      4      904      906
     962      4      904      907
     963      4      905      908
     964      4      905      909
     965     17      890      905

Angles

       1      1        1        2        3
       2      2        2        3        4
       3      3        2        3        5
       4      3        2        3        6
       5      4        4        3        5
       6      4        4        3        6
       7      5        5        3        6
       8      4        3        4        7
       9      4        3        4        8
      10      6        3        4        9
      11      5        7        4        8
      12      7        7        4        9
      13      7        8        4        9
      14      8       10        9        4
      15      9        9       10       11
      16     10        9       10       12
      17     11       11       10       12
      18     12       10       12       13
      19     12       10       12       17
      20     13       13       12       17
      21     13       12       13       14
      22     14       12       13       27
      23     14       14       13       27
      24     15       13       14       15
      25     16       13       14       21
      26     15       15       14       21
      27     15       14       15       16
      28     15       14       15       18
      29     16       16       15       18
      30     13       15       16       17
      31     14       15       16       28
      32     14       17       16       28
      33     13       16       17       12
      34     14       16       17       29
      35     14       12       17       29
      36     13       15       18       19
      37     14       15       18       30
      38     14       19       18       30
      39     13       18       19       20
      40     12       18       19       22
      41     12       20       19       22
      42     13       19       20       21
      43     14       19       20       31
      44     14       21       20       31
      45     13       20       21       14
      46     14       20       21       32
      47     14       14       21       32
      48     11       19       22       23
      49     10       19       22       24
      50      9       23       22       24
      51      8       22       24       25
      52      6       24       25       26
      53      7       24       25       33
      54      7       24       25       34
      55      4       26       25       33
      56      4       26       25       34
      57      5       33       25       34
      58      4       25       26       35
      59      4       25       26       36
      60     17       25       26       37
      61      5       35       26       36
      62      7       35       26       37
      63      7       36       26       37
      64     18       38       37       45
      65     19       38       37       26
      66     20       45       37       26
      67     21       37       38       39
      68     22       37       38       46
      69     23       39       38       46
      70     24       38       39       40
      71     21       38       39       44
      72     25       40       39       44
      73     26       39       40       41
      74      7       39       40       47
      75      7       39       40       48
      76      4       41       40       47
      77      4       41       40       48
      78      5       47       40       48
      79      2       40       41       42
      80      4       40       41       49
      81      4       40       41       50
      82      4       42       41       49
      83      4       42       41       50
      84      5       49       41       50
      85      2       41       42       43
      86      4       41       42       51
      87      4       41       42       52
      88      4       43       42       51
      89      4       43       42       52
      90      5       51       42       52
      91      4       42       43       53
      92      4       42       43       54
      93      4       42       43       55
      94      5       53       43       54
      95      5       53       43       55
      96      5       54       43       55
      97     18       39       44       45
      98     27       39       44       56
      99     28       45       44       56
     100     29       44       45       37
     101     30       57       56       44
     102      9       56       57       58
     103     10       56       57       59
     104     11       58       57       59
     105     12       57       59       60
     106     12       57       59       64
     107     13       60       59       64
     108     13       59       60       61
     109     14       59       60       74
     110     14       61       60       74
     111     15       60       61       62
     112     16       60       61       68
     113     15       62       61       68
     114     15       61       62       63
     115     15       61       62       65
     116     16       63       62       65
     117     13       62       63       64
     118     14       62       63       75
     119     14       64       63       75
     120     13       63       64       59
     121     14       63       64       76
     122     14       59       64       76
     123     13       62       65       66
     124     14       62       65       77
     125     14       66       65       77
     126     13       65       66       67
     127     12       65       66       69
     128     12       67       66       69
     129     13       66       67       68
     130     14       66       67       78
     131     14       68       67       78
     132     13       67       68       61
     133     14       67       68       79
     134     14       61       68       79
     135     11       66       69       70
     136     10       66       69       71
     137      9       70       69       71
     138      8       69       71       72
     139      6       71       72       73
     140      7       71       72       80
     141      7       71       72       81
     142      4       73       72       80
     143      4       73       72       81
     144      5       80       72       81
     145      4       72       73       82
     146      4       72       73       83
     147     17       72       73       84
     148      5       82       73       83
     149      7       82       73       84
     150      7       83       73       84
     151     18       85       84       92
     152     19       85       84       73
     153     20       92       84       73
     154     21       84       85       86
     155     22       84       85       93
     156     23       86       85       93
     157     24       85       86       87
     158     21       85       86       91
     159     25       87       86       91
     160     26       86       87       88
     161      7       86       87       94
     162      7       86       87       95
     163      4       88       87       94
     164      4       88       87       95
     165      5       94       87       95
     166      2       87       88       89
     167      4       87       88       96
     168      4       87       88       97
     169      4       89       88       96
     170      4       89       88       97
     171      5       96       88       97
     172      2       88       89       90
     173      4       88       89       98
     174      4       88       89       99
     175      4       90       89       98
     176      4       90       89       99
     177      5       98       89       99
     178      4       89       90      100
     179      4       89       90      101
     180      4       89       90      102
     181      5      100       90      101
     182      5      100       90      102
     183      5      101       90      102
     184     18       86       91       92
     185     27       86       91      103
     186     28       92       91      103
     187     29       91       92       84
     188     30      104      103       91
     189      9      103      104      105
     190     10      103      104      106
     191     11      105      104      106
     192     12      104      106      107
     193     12      104      106      111
     194     13      107      106      111
     195     13      106      107      108
     196     14      106      107      121
     197     14      108      107      121
     198     15      107      108      109
     199     16      107      108      115
     200     15      109      108      115
     201     15      108      109      110
     202     15      108      109      112
     203     16      110      109      112
     204     13      109      110      111
     205     14      109      110      122
     206     14      111      110      122
     207     13      110      111      106
     208     14      110      111      123
     209     14      106      111      123
     210     13      109      112      113
     211     14      109      112      124
     212     14      113      112      124
     213     13      112      113      114
     214     12      112      113      116
     215     12      114      113      116
     216     13      113      114      115
     217     14      113      114      125
     218     14      115      114      125
     219     13      114      115      108
     220     14      114      115      126
     221     14      108      115      126
     222     11      113      116      117
     223     10      113      116      118
     224      9      117      116      118
     225      8      116      118      119
     226      6      118      119      120
     227      7      118      119      127
     228      7      118      119      128
     229      4      120      119      127
     230      4      120      119      128
     231      5      127      119      128
     232      4      119      120      129
     233      4      119      120      130
     234     17      119      120      131
     235      5      129      120      130
     236      7      129      120      131
     237      7      130      120      131
     238     18      132      131      139
     239     19      132      131      120
     240     20      139      131      120
     241     21      131      132      133
     242     22      131      132      140
     243     23      133      132      140
     244     24      132      133      134
     245     21      132      133      138
     246     25      134      133      138
     247     26      133      134      135
     248      7      133      134      141
     249      7      133      134      142
     250      4      135      134      141
     251      4      135      134      142
     252      5      141      134      142
     253      2      134      135      136
     254      4      134      135      143
     255      4      134      135      144
     256      4      136      135      143
     257      4      136      135      144
     258      5      143      135      144
     259      2      135      136      137
     260      4      135      136      145
     261      4      135      136      146
     262      4      137      136      145
     263      4      137      136      146
     264      5      145      136      146
     265      4      136      137      147
     266      4      136      137      148
     267      4      136      137      149
     268      5      147      137      148
     269      5      147      137      149
     270      5      148      137      149
     271     18      133      138      139
     272     27      133      138      150
     273     28      139      138      150
     274     29      138      139      131
     275     30      151      150      138
     276      9      150      151      152
     277     10      150      151      153
     278     11      152      151      153
     279     12      151      153      154
     280     12      151      153      158
     281     13      154      153      158
     282     13      153      154      155
     283     14      153      154      168
     284     14      155      154      168
     285     15      154      155      156
     286     16      154      155      162
     287     15      156      155      162
     288     15      155      156      157
     289     15      155      156      159
     290     16      157      156      159
     291     13      156      157      158
     292     14      156      157      169
     293     14      158      157      169
     294     13      157      158      153
     295     14      157      158      170
     296     14      153      158      170
     297     13      156      159      160
     298     14      156      159      171
     299     14      160      159      171
     300     13      159      160      161
     301     12      159      160      163
     302     12      161      160      163
     303     13      160      161      162
     304     14      160      161      172
     305     14      162      161      172
     306     13      161      162      155
     307     14      161      162      173
     308     14      155      162      173
     309     11      160      163      164
     310     10      160      163      165
     311      9      164      163      165
     312      8      163      165      166
     313      6      165      166      167
     314      7      165      166      174
     315      7      165      166      175
     316      4      167      166      174
     317      4      167      166      175
     318      5      174      166      175
     319      4      166      167      176
     320      4      166      167      177
     321     17      166      167      178
     322      5      176      167      177
     323      7      176      167      178
     324      7      177      167      178
     325     18      179      178      186
     326     19      179      178      167
     327     20      186      178      167
     328     21      178      179      180
     329     22      178      179      187
     330     23      180      179      187
     331     24      179      180      181
     332     21      179      180      185
     333     25      181      180      185
     334     26      180      181      182
     335      7      180      181      188
     336      7      180      181      189
     337      4      182      181      188
     338      4      182      181      189
     339      5      188      181      189
     340      2      181      182      183
     341      4      181      182      190
     342      4      181      182      191
     343      4      183      182      190
     344      4      183      182      191
     345      5      190      182      191
     346      2      182      183      184
     347      4      182      183      192
     348      4      182      183      193
     349      4      184      183      192
     350      4      184      183      193
     351      5      192      183      193
     352      4      183      184      194
     353      4      183      184      195
     354      4      183      184      196
     355      5      194      184      195
     356      5      194      184      196
     357      5      195      184      196
     358     18      180      185      186
     359     27      180      185      197
     360     28      186      185      197
     361     29      185      186      178
     362     30      198      197      185
     363      9      197      198      199
     364     10      197      198      200
     365     11      199      198      200
     366     12      198      200      201
     367     12      198      200      205
     368     13      201      200      205
     369     13      200      201      202
     370     14      200      201      215
     371     14      202      201      215
     372     15      201      202      203
     373     16      201      202      209
     374     15      203      202      209
     375     15      202      203      204
     376     15      202      203      206
     377     16      204      203      206
     378     13      203      204      205
     379     14      203      204      216
     380     14      205      204      216
     381     13      204      205      200
     382     14      204      205      217
     383     14      200      205      217
     384     13      203      206      207
     385     14      203      206      218
     386     14      207      206      218
     387     13      206      207      208
     388     12      206      207      210
     389     12      208      207      210
     390     13      207      208      209
     391     14      207      208      219
     392     14      209      208      219
     393     13      208      209      202
     394     14      208      209      220
     395     14      202      209      220
     396     11      207      210      211
     397     10      207      210      212
     398      9      211      210      212
     399      8      210      212      213
     400      6      212      213      214
     401      7      212      213      221
     402      7      212      213      222
     403      4      214      213      221
     404      4      214      213      222
     405      5      221      213      222
     406      4      213      214      223
     407      4      213      214      224
     408     17      213      214      225
     409      5      223      214      224
     410      7      223      214      225
     411      7      224      214      225
     412     18      226      225      233
     413     19      226      225      214
     414     20      233      225      214
     415     21      225      226      227
     416     22      225      226      234
     417     23      227      226      234
     418     24      226      227      228
     419     21      226      227      232
     420     25      228      227      232
     421     26      227      228      229
     422      7      227      228      235
     423      7      227      228      236
     424      4      229      228      235
     425      4      229      228      236
     426      5      235      228      236
     427      2      228      229      230
     428      4      228      229      237
     429      4      228      229      238
     430      4      230      229      237
     431      4      230      229      238
     432      5      237      229      238
     433      2      229      230      231
     434      4      229      230      239
     435      4      229      230      240
     436      4      231      230      239
     437      4      231      230      240
     438      5      239      230      240
     439      4      230      231      241
     440      4      230      231      242
     441      4      230      231      243
     442      5      241      231      242
     443      5      241      231      243
     444      5      242      231      243
     445     18      227      232      233
     446     27      227      232      244
     447     28      233      232      244
     448     29      232      233      225
     449     30      245      244      232
     450      9      244      245      246
     451     10      244      245      247
     452     11      246      245      247
     453     12      245      247      248
     454     12      245      247      252
     455     13      248      247      252
     456     13      247      248      249
     457     14      247      248      262
     458     14      249      248      262
     459     15      248      249      250
     460     16      248      249      256
     461     15      250      249      256
     462     15      249      250      251
     463     15      249      250      253
     464     16      251      250      253
     465     13      250      251      252
     466     14      250      251      263
     467     14      252      251      263
     468     13      251      252      247
     469     14      251      252      264
     470     14      247      252      264
     471     13      250      253      254
     472     14      250      253      265
     473     14      254      253      265
     474     13      253      254      255
     475     12      253      254      257
     476     12      255      254      257
     477     13      254      255      256
     478     14      254      255      266
     479     14      256      255      266
     480     13      255      256      249
     481     14      255      256      267
     482     14      249      256      267
     483     11      254      257      258
     484     10      254      257      259
     485      9      258      257      259
     486      8      257      259      260
     487      6      259      260      261
     488      7      259      260      268
     489      7      259      260      269
     490      4      261      260      268
     491      4      261      260      269
     492      5      268      260      269
     493      4      260      261      270
     494      4      260      261      271
     495     17      260      261      272
     496      5      270      261      271
     497      7      270      261      272
     498      7      271      261      272
     499     18      273      272      280
     500     19      273      272      261
     501     20      280      272      261
     502     21      272      273      274
     503     22      272      273      281
     504     23      274      273      281
     505     24      273      274      275
     506     21      273      274      279
     507     25      275      274      279
     508     26      274      275      276
     509      7      274      275      282
     510      7      274      275      283
     511      4      276      275      282
     512      4      276      275      283
     513      5      282      275      283
     514      2      275      276      277
     515      4      275      276      284
     516      4      275      276      285
     517      4      277      276      284
     518      4      277      276      285
     519      5      284      276      285
     520      2      276      277      278
     521      4      276      277      286
     522      4      276      277      287
     523      4      278      277      286
     524      4      278      277      287
     525      5      286      277      287
     526      4      277      278      288
     527      4      277      278      289
     528      4      277      278      290
     529      5      288      278      289
     530      5      288      278      290
     531      5      289      278      290
     532     18      274      279      280
     533     27      274      279      291
     534     28      280      279      291
     535     29      279      280      272
     536     30      292      291      279
     537      9      291      292      293
     538     10      291      292      294
     539     11      293      292      294
     540     12      292      294      295
     541     12      292      294      299
     542     13      295      294      299
     543     13      294      295      296
     544     14      294      295      309
     545     14      296      295      309
     546     15      295      296      297
     547     16      295      296      303
     548     15      297      296      303
     549     15      296      297      298
     550     15      296      297      300
     551     16      298      297      300
     552     13      297      298      299
     553     14      297      298      310
     554     14      299      298      310
     555     13      298      299      294
     556     14      298      299      311
     557     14      294      299      311
     558     13      297      300      301
     559     14      297      300      312
     560     14      301      300      312
     561     13      300      301      302
     562     12      300      301      304
     563     12      302      301      304
     564     13      301      302      303
     565     14      301      302      313
     566     14      303      302      313
     567     13      302      303      296
     568     14      302      303      314
     569     14      296      303      314
     570     11      301      304      305
     571     10      301      304      306
     572      9      305      304      306
     573      8      304      306      307
     574      6      306      307      308
     575      7      306      307      315
     576      7      306      307      316
     577      4      308      307      315
     578      4      308      307      316
     579      5      315      307      316
     580      4      307      308      317
     581      4      307      308      318
     582     17      307      308      319
     583      5      317      308      318
     584      7      317      308      319
     585      7      318      308      319
     586     18      320      319      327
     587     19      320      319      308
     588     20      327      319      308
     589     21      319      320      321
     590     22      319      320      328
     591     23      321      320      328
     592     24      320      321      322
     593     21      320      321      326
     594     25      322      321      326
     595     26      321      322      323
     596      7      321      322      329
     597      7      321      322      330
     598      4      323      322      329
     599      4      323      322      330
     600      5      329      322      330
     601      2      322      323      324
     602      4      322      323      331
     603      4      322      323      332
     604      4      324      323      331
     605      4      324      323      332
     606      5      331      323      332
     607      2      323      324      325
     608      4      323      324      333
     609      4      323      324      334
     610      4      325      324      333
     611      4      325      324      334
     612      5      333      324      334
     613      4      324      325      335
     614      4      324      325      336
     615      4      324      325      337
     616      5      335      325      336
     617      5      335      325      337
     618      5      336      325      337
     619     18      321      326      327
     620     27      321      326      338
     621     28      327      326      338
     622     29      326      327      319
     623     30      339      338      326
     624      9      338      339      340
     625     10      338      339      341
     626     11      340      339      341
     627     12      339      341      342
     628     12      339      341      346
     629     13      342      341      346
     630     13      341      342      343
     631     14      341      342      356
     632     14      343      342      356
     633     15      342      343      344
     634     16      342      343      350
     635     15      344      343      350
     636     15      343      344      345
     637     15      343      344      347
     638     16      345      344      347
     639     13      344      345      346
     640     14      344      345      357
     641     14      346      345      357
     642     13      345      346      341
     643     14      345      346      358
     644     14      341      346      358
     645     13      344      347      348
     646     14      344      347      359
     647     14      348      347      359
     648     13      347      348      349
     649     12      347      348      351
     650     12      349      348      351
     651     13      348      349      350
     652     14      348      349      360
     653     14      350      349      360
     654     13      349      350      343
     655     14      349      350      361
     656     14      343      350      361
     657     11      348      351      352
     658     10      348      351      353
     659      9      352      351      353
     660      8      351      353      354
     661      6      353      354      355
     662      7      353      354      362
     663      7      353      354      363
     664      4      355      354      362
     665      4      355      354      363
     666      5      362      354      363
     667      4      354      355      364
     668      4      354      355      365
     669     17      354      355      366
     670      5      364      355      365
     671      7      364      355      366
     672      7      365      355      366
     673     18      367      366      374
     674     19      367      366      355
     675     20      374      366      355
     676     21      366      367      368
     677     22      366      367      375
     678     23      368      367      375
     679     24      367      368      369
     680     21      367      368      373
     681     25      369      368      373
     682     26      368      369      370
     683      7      368      369      376
     684      7      368      369      377
     685      4      370      369      376
     686      4      370      369      377
     687      5      376      369      377
     688      2      369      370      371
     689      4      369      370      378
     690      4      369      370      379
     691      4      371      370      378
     692      4      371      370      379
     693      5      378      370      379
     694      2      370      371      372
     695      4      370      371      380
     696      4      370      371      381
     697      4      372      371      380
     698      4      372      371      381
     699      5      380      371      381
     700      4      371      372      382
     701      4      371      372      383
     702      4      371      372      384
     703      5      382      372      383
     704      5      382      372      384
     705      5      383      372      384
     706     18      368      373      374
     707     27      368      373      385
     708     28      374      373      385
     709     29      373      374      366
     710     30      386      385      373
     711      9      385      386      387
     712     10      385      386      388
     713     11      387      386      388
     714     12      386      388      389
     715     12      386      388      393
     716     13      389      388      393
     717     13      388      389      390
     718     14      388      389      403
     719     14      390      389      403
     720     15      389      390      391
     721     16      389      390      397
     722     15      391      390      397
     723     15      390      391      392
     724     15      390      391      394
     725     16      392      391      394
     726     13      391      392      393
     727     14      391      392      404
     728     14      393      392      404
     729     13      392      393      388
     730     14      392      393      405
     731     14      388      393      405
     732     13      391      394      395
     733     14      391      394      406
     734     14      395      394      406
     735     13      394      395      396
     736     12      394      395      398
     737     12      396      395      398
     738     13      395      396      397
     739     14      395      396      407
     740     14      397      396      407
     741     13      396      397      390
     742     14      396      397      408
     743     14      390      397      408
     744     11      395      398      399
     745     10      395      398      400
     746      9      399      398      400
     747      8      398      400      401
     748      6      400      401      402
     749      7      400      401      409
     750      7      400      401      410
     751      4      402      401      409
     752      4      402      401      410
     753      5      409      401      410
     754      4      401      402      411
     755      4      401      402      412
     756     17      401      402      413
     757      5      411      402      412
     758      7      411      402      413
     759      7      412      402      413
     760     18      414      413      421
     761     19      414      413      402
     762     20      421      413      402
     763     21      413      414      415
     764     22      413      414      422
     765     23      415      414      422
     766     24      414      415      416
     767     21      414      415      420
     768     25      416      415      420
     769     26      415      416      417
     770      7      415      416      423
     771      7      415      416      424
     772      4      417      416      423
     773      4      417      416      424
     774      5      423      416      424
     775      2      416      417      418
     776      4      416      417      425
     777      4      416      417      426
     778      4      418      417      425
     779      4      418      417      426
     780      5      425      417      426
     781      2      417      418      419
     782      4      417      418      427
     783      4      417      418      428
     784      4      419      418      427
     785      4      419      418      428
     786      5      427      418      428
     787      4      418      419      429
     788      4      418      419      430
     789      4      418      419      431
     790      5      429      419      430
     791      5      429      419      431
     792      5      430      419      431
     793     18      415      420      421
     794     27      415      420      432
     795     28      421      420      432
     796     29      420      421      413
     797     30      433      432      420
     798      9      432      433      434
     799     10      432      433      435
     800     11      434      433      435
     801     12      433      435      436
     802     12      433      435      440
     803     13      436      435      440
     804     13      435      436      437
     805     14      435      436      450
     806     14      437      436      450
     807     15      436      437      438
     808     16      436      437      444
     809     15      438      437      444
     810     15      437      438      439
     811     15      437      438      441
     812     16      439      438      441
     813     13      438      439      440
     814     14      438      439      451
     815     14      440      439      451
     816     13      439      440      435
     817     14      439      440      452
     818     14      435      440      452
     819     13      438      441      442
     820     14      438      441      453
     821     14      442      441      453
     822     13      441      442      443
     823     12      441      442      445
     824     12      443      442      445
     825     13      442      443      444
     826     14      442      443      454
     827     14      444      443      454
     828     13      443      444      437
     829     14      443      444      455
     830     14      437      444      455
     831     11      442      445      446
     832     10      442      445      447
     833      9      446      445      447
     834      8      445      447      448
     835      6      447      448      449
     836      7      447      448      456
     837      7      447      448      457
     838      4      449      448      456
     839      4      449      448      457
     840      5      456      448      457
     841      4      448      449      458
     842      4      448      449      459
     843     17      448      449      460
     844      5      458      449      459
     845      7      458      449      460
     846      7      459      449      460
     847     18      461      460      468
     848     19      461      460      449
     849     20      468      460      449
     850     21      460      461      462
     851     22      460      461      469
     852     23      462      461      469
     853     24      461      462      463
     854     21      461      462      467
     855     25      463      462      467
     856     26      462      463      464
     857      7      462      463      470
     858      7      462      463      471
     859      4      464      463      470
     860      4      464      463      471
     861      5      470      463      471
     862      2      463      464      465
     863      4      463      464      472
     864      4      463      464      473
     865      4      465      464      472
     866      4      465      464      473
     867      5      472      464      473
     868      2      464      465      466
     869      4      464      465      474
     870      4      464      465      475
     871      4      466      465      474
     872      4      466      465      475
     873      5      474      465      475
     874      4      465      466      476
     875      4      465      466      477
     876      4      465      466      478
     877      5      476      466      477
     878      5      476      466      478
     879      5      477      466      478
     880     18      462      467      468
     881     27      462      467      479
     882     28      468      467      479
     883     29      467      468      460
     884     30      480      479      467
     885      9      479      480      481
     886     10      479      480      482
     887     11      481      480      482
     888     12      480      482      483
     889     12      480      482      487
     890     13      483      482      487
     891     13      482      483      484
     892     14      482      483      497
     893     14      484      483      497
     894     15      483      484      485
     895     16      483      484      491
     896     15      485      484      491
     897     15      484      485      486
     898     15      484      485      488
     899     16      486      485      488
     900     13      485      486      487
     901     14      485      486      498
     902     14      487      486      498
     903     13      486      487      482
     904     14      486      487      499
     905     14      482      487      499
     906     13      485      488      489
     907     14      485      488      500
     908     14      489      488      500
     909     13      488      489      490
     910     12      488      489      492
     911     12      490      489      492
     912     13      489      490      491
     913     14      489      490      501
     914     14      491      490      501
     915     13      490      491      484
     916     14      490      491      502
     917     14      484      491      502
     918     11      489      492      493
     919     10      489      492      494
     920      9      493      492      494
     921      8      492      494      495
     922      6      494      495      496
     923      7      494      495      503
     924      7      494      495      504
     925      4      496      495      503
     926      4      496      495      504
     927      5      503      495      504
     928      4      495      496      505
     929      4      495      496      506
     930     17      495      496      507
     931      5      505      496      506
     932      7      505      496      507
     933      7      506      496      507
     934     18      508      507      515
     935     19      508      507      496
     936     20      515      507      496
     937     21      507      508      509
     938     22      507      508      516
     939     23      509      508      516
     940     24      508      509      510
     941     21      508      509      514
     942     25      510      509      514
     943     26      509      510      511
     944      7      509      510      517
     945      7      509      510      518
     946      4      511      510      517
     947      4      511      510      518
     948      5      517      510      518
     949      2      510      511      512
     950      4      510      511      519
     951      4      510      511      520
     952      4      512      511      519
     953      4      512      511      520
     954      5      519      511      520
     955      2      511      512      513
     956      4      511      512      521
     957      4      511      512      522
     958      4      513      512      521
     959      4      513      512      522
     960      5      521      512      522
     961      4      512      513      523
     962      4      512      513      524
     963      4      512      513      525
     964      5      523      513      524
     965      5      523      513      525
     966      5      524      513      525
     967     18      509      514      515
     968     27      509      514      526
     969     28      515      514      526
     970     29      514      515      507
     971     30      527      526      514
     972      9      526      527      528
     973     10      526      527      529
     974     11      528      527      529
     975     12      527      529      530
     976     12      527      529      534
     977     13      530      529      534
     978     13      529      530      531
     979     14      529      530      544
     980     14      531      530      544
     981     15      530      531      532
     982     16      530      531      538
     983     15      532      531      538
     984     15      531      532      533
     985     15      531      532      535
     986     16      533      532      535
     987     13      532      533      534
     988     14      532      533      545
     989     14      534      533      545
     990     13      533      534      529
     991     14      533      534      546
     992     14      529      534      546
     993     13      532      535      536
     994     14      532      535      547
     995     14      536      535      547
     996     13      535      536      537
     997     12      535      536      539
     998     12      537      536      539
     999     13      536      537      538
    1000     14      536      537      548
    1001     14      538      537      548
    1002     13      537      538      531
    1003     14      537      538      549
    1004     14      531      538      549
    1005     11      536      539      540
    1006     10      536      539      541
    1007      9      540      539      541
    1008      8      539      541      542
    1009      6      541      542      543
    1010      7      541      542      550
    1011      7      541      542      551
    1012      4      543      542      550
    1013      4      543      542      551
    1014      5      550      542      551
    1015      4      542      543      552
    1016      4      542      543      553
    1017     17      542      543      554
    1018      5      552      543      553
    1019      7      552      543      554
    1020      7      553      543      554
    1021     18      555      554      562
    1022     19      555      554      543
    1023     20      562      554      543
    1024     21      554      555      556
    1025     22      554      555      563
    1026     23      556      555      563
    1027     24      555      556      557
    1028     21      555      556      561
    1029     25      557      556      561
    1030     26      556      557      558
    1031      7      556      557      564
    1032      7      556      557      565
    1033      4      558      557      564
    1034      4      558      557      565
    1035      5      564      557      565
    1036      2      557      558      559
    1037      4      557      558      566
    1038      4      557      558      567
    1039      4      559      558      566
    1040      4      559      558      567
    1041      5      566      558      567
    1042      2      558      559      560
    1043      4      558      559      568
    1044      4      558      559      569
    1045      4      560      559      568
    1046      4      560      559      569
    1047      5      568      559      569
    1048      4      559      560      570
    1049      4      559      560      571
    1050      4      559      560      572
    1051      5      570      560      571
    1052      5      570      560      572
    1053      5      571      560      572
    1054     18      556      561      562
    1055     27      556      561      573
    1056     28      562      561      573
    1057     29      561      562      554
    1058     30      574      573      561
    1059      9      573      574      575
    1060     10      573      574      576
    1061     11      575      574      576
    1062     12      574      576      577
    1063     12      574      576      581
    1064     13      577      576      581
    1065     13      576      577      578
    1066     14      576      577      591
    1067     14      578      577      591
    1068     15      577      578      579
    1069     16      577      578      585
    1070     15      579      578      585
    1071     15      578      579      580
    1072     15      578      579      582
    1073     16      580      579      582
    1074     13      579      580      581
    1075     14      579      580      592
    1076     14      581      580      592
    1077     13      580      581      576
    1078     14      580      581      593
    1079     14      576      581      593
    1080     13      579      582      583
    1081     14      579      582      594
    1082     14      583      582      594
    1083     13      582      583      584
    1084     12      582      583      586
    1085     12      584      583      586
    1086     13      583      584      585
    1087     14      583      584      595
    1088     14      585      584      595
    1089     13      584      585      578
    1090     14      584      585      596
    1091     14      578      585      596
    1092     11      583      586      587
    1093     10      583      586      588
    1094      9      587      586      588
    1095      8      586      588      589
    1096      6      588      589      590
    1097      7      588      589      597
    1098      7      588      589      598
    1099      4      590      589      597
    1100      4      590      589      598
    1101      5      597      589      598
    1102      4      589      590      599
    1103      4      589      590      600
    1104     17      589      590      601
    1105      5      599      590      600
    1106      7      599      590      601
    1107      7      600      590      601
    1108     18      602      601      609
    1109     19      602      601      590
    1110     20      609      601      590
    1111     21      601      602      603
    1112     22      601      602      610
    1113     23      603      602      610
    1114     24      602      603      604
    1115     21      602      603      608
    1116     25      604      603      608
    1117     26      603      604      605
    1118      7      603      604      611
    1119      7      603      604      612
    1120      4      605      604      611
    1121      4      605      604      612
    1122      5      611      604      612
    1123      2      604      605      606
    1124      4      604      605      613
    1125      4      604      605      614
    1126      4      606      605      613
    1127      4      606      605      614
    1128      5      613      605      614
    1129      2      605      606      607
    1130      4      605      606      615
    1131      4      605      606      616
    1132      4      607      606      615
    1133      4      607      606      616
    1134      5      615      606      616
    1135      4      606      607      617
    1136      4      606      607      618
    1137      4      606      607      619
    1138      5      617      607      618
    1139      5      617      607      619
    1140      5      618      607      619
    1141     18      603      608      609
    1142     27      603      608      620
    1143     28      609      608      620
    1144     29      608      609      601
    1145     30      621      620      608
    1146      9      620      621      622
    1147     10      620      621      623
    1148     11      622      621      623
    1149     12      621      623      624
    1150     12      621      623      628
    1151     13      624      623      628
    1152     13      623      624      625
    1153     14      623      624      638
    1154     14      625      624      638
    1155     15      624      625      626
    1156     16      624      625      632
    1157     15      626      625      632
    1158     15      625      626      627
    1159     15      625      626      629
    1160     16      627      626      629
    1161     13      626      627      628
    1162     14      626      627      639
    1163     14      628      627      639
    1164     13      627      628      623
    1165     14      627      628      640
    1166     14      623      628      640
    1167     13      626      629      630
    1168     14      626      629      641
    1169     14      630      629      641
    1170     13      629      630      631
    1171     12      629      630      633
    1172     12      631      630      633
    1173     13      630      631      632
    1174     14      630      631      642
    1175     14      632      631      642
    1176     13      631      632      625
    1177     14      631      632      643
    1178     14      625      632      643
    1179     11      630      633      634
    1180     10      630      633      635
    1181      9      634      633      635
    1182      8      633      635      636
    1183      6      635      636      637
    1184      7      635      636      644
    1185      7      635      636      645
    1186      4      637      636      644
    1187      4      637      636      645
    1188      5      644      636      645
    1189      4      636      637      646
    1190      4      636      637      647
    1191     17      636      637      648
    1192      5      646      637      647
    1193      7      646      637      648
    1194      7      647      637      648
    1195     18      649      648      656
    1196     19      649      648      637
    1197     20      656      648      637
    1198     21      648      649      650
    1199     22      648      649      657
    1200     23      650      649      657
    1201     24      649      650      651
    1202     21      649      650      655
    1203     25      651      650      655
    1204     26      650      651      652
    1205      7      650      651      658
    1206      7      650      651      659
    1207      4      652      651      658
    1208      4      652      651      659
    1209      5      658      651      659
    1210      2      651      652      653
    1211      4      651      652      660
    1212      4      651      652      661
    1213      4      653      652      660
    1214      4      653      652      661
    1215      5      660      652      661
    1216      2      652      653      654
    1217      4      652      653      662
    1218      4      652      653      663
    1219      4      654      653      662
    1220      4      654      653      663
    1221      5      662      653      663
    1222      4      653      654      664
    1223      4      653      654      665
    1224      4      653      654      666
    1225      5      664      654      665
    1226      5      664      654      666
    1227      5      665      654      666
    1228     18      650      655      656
    1229     27      650      655      667
    1230     28      656      655      667
    1231     29      655      656      648
    1232     30      668      667      655
    1233      9      667      668      669
    1234     10      667      668      670
    1235     11      669      668      670
    1236     12      668      670      671
    1237     12      668      670      675
    1238     13      671      670      675
    1239     13      670      671      672
    1240     14      670      671      685
    1241     14      672      671      685
    1242     15      671      672      673
    1243     16      671      672      679
    1244     15      673      672      679
    1245     15      672      673      674
    1246     15      672      673      676
    1247     16      674      673      676
    1248     13      673      674      675
    1249     14      673      674      686
    1250     14      675      674      686
    1251     13      674      675      670
    1252     14      674      675      687
    1253     14      670      675      687
    1254     13      673      676      677
    1255     14      673      676      688
    1256     14      677      676      688
    1257     13      676      677      678
    1258     12      676      677      680
    1259     12      678      677      680
    1260     13      677      678      679
    1261     14      677      678      689
    1262     14      679      678      689
    1263     13      678      679      672
    1264     14      678      679      690
    1265     14      672      679      690
    1266     11      677      680      681
    1267     10      677      680      682
    1268      9      681      680      682
    1269      8      680      682      683
    1270      6      682      683      684
    1271      7      682      683      691
    1272      7      682      683      692
    1273      4      684      683      691
    1274      4      684      683      692
    1275      5      691      683      692
    1276      4      683      684      693
    1277      4      683      684      694
    1278     17      683      684      695
    1279      5      693      684      694
    1280      7      693      684      695
    1281      7      694      684      695
    1282     18      696      695      703
    1283     19      696      695      684
    1284     20      703      695      684
    1285     21      695      696      697
    1286     22      695      696      704
    1287     23      697      696      704
    1288     24      696      697      698
    1289     21      696      697      702
    1290     25      698      697      702
    1291     26      697      698      699
    1292      7      697      698      705
    1293      7      697      698      706
    1294      4      699      698      705
    1295      4      699      698      706
    1296      5      705      698      706
    1297      2      698      699      700
    1298      4      698      699      707
    1299      4      698      699      708
    1300      4      700      699      707
    1301      4      700      699      708
    1302      5      707      699      708
    1303      2      699      700      701
    1304      4      699      700      709
    1305      4      699      700      710
    1306      4      701      700      709
    1307      4      701      700      710
    1308      5      709      700      710
    1309      4      700      701      711
    1310      4      700      701      712
    1311      4      700      701      713
    1312      5      711      701      712
    1313      5      711      701      713
    1314      5      712      701      713
    1315     18      697      702      703
    1316     27      697      702      714
    1317     28      703      702      714
    1318     29      702      703      695
    1319     30      715      714      702
    1320      9      714      715      716
    1321     10      714      715      717
    1322     11      716      715      717
    1323     12      715      717      718
    1324     12      715      717      722
    1325     13      718      717      722
    1326     13      717      718      719
    1327     14      717      718      732
    1328     14      719      718      732
    1329     15      718      719      720
    1330     16      718      719      726
    1331     15      720      719      726
    1332     15      719      720      721
    1333     15      719      720      723
    1334     16      721      720      723
    1335     13      720      721      722
    1336     14      720      721      733
    1337     14      722      721      733
    1338     13      721      722      717
    1339     14      721      722      734
    1340     14      717      722      734
    1341     13      720      723      724
    1342     14      720      723      735
    1343     14      724      723      735
    1344     13      723      724      725
    1345     12      723      724      727
    1346     12      725      724      727
    1347     13      724      725      726
    1348     14      724      725      736
    1349     14      726      725      736
    1350     13      725      726      719
    1351     14      725      726      737
    1352     14      719      726      737
    1353     11      724      727      728
    1354     10      724      727      729
    1355      9      728      727      729
    1356      8      727      729      730
    1357      6      729      730      731
    1358      7      729      730      738
    1359      7      729      730      739
    1360      4      731      730      738
    1361      4      731      730      739
    1362      5      738      730      739
    1363      4      730      731      740
    1364      4      730      731      741
    1365     17      730      731      742
    1366      5      740      731      741
    1367      7      740      731      742
    1368      7      741      731      742
    1369     18      743      742      750
    1370     19      743      742      731
    1371     20      750      742      731
    1372     21      742      743      744
    1373     22      742      743      751
    1374     23      744      743      751
    1375     24      743      744      745
    1376     21      743      744      749
    1377     25      745      744      749
    1378     26      744      745      746
    1379      7      744      745      752
    1380      7      744      745      753
    1381      4      746      745      752
    1382      4      746      745      753
    1383      5      752      745      753
    1384      2      745      746      747
    1385      4      745      746      754
    1386      4      745      746      755
    1387      4      747      746      754
    1388      4      747      746      755
    1389      5      754      746      755
    1390      2      746      747      748
    1391      4      746      747      756
    1392      4      746      747      757
    1393      4      748      747      756
    1394      4      748      747      757
    1395      5      756      747      757
    1396      4      747      748      758
    1397      4      747      748      759
    1398      4      747      748      760
    1399      5      758      748      759
    1400      5      758      748      760
    1401      5      759      748      760
    1402     18      744      749      750
    1403     27      744      749      761
    1404     28      750      749      761
    1405     29      749      750      742
    1406     30      762      761      749
    1407      9      761      762      763
    1408     10      761      762      764
    1409     11      763      762      764
    1410     12      762      764      765
    1411     12      762      764      769
    1412     13      765      764      769
    1413     13      764      765      766
    1414     14      764      765      779
    1415     14      766      765      779
    1416     15      765      766      767
    1417     16      765      766      773
    1418     15      767      766      773
    1419     15      766      767      768
    1420     15      766      767      770
    1421     16      768      767      770
    1422     13      767      768      769
    1423     14      767      768      780
    1424     14      769      768      780
    1425     13      768      769      764
    1426     14      768      769      781
    1427     14      764      769      781
    1428     13      767      770      771
    1429     14      767      770      782
    1430     14      771      770      782
    1431     13      770      771      772
    1432     12      770      771      774
    1433     12      772      771      774
    1434     13      771      772      773
    1435     14      771      772      783
    1436     14      773      772      783
    1437     13      772      773      766
    1438     14      772      773      784
    1439     14      766      773      784
    1440     11      771      774      775
    1441     10      771      774      776
    1442      9      775      774      776
    1443      8      774      776      777
    1444      6      776      777      778
    1445      7      776      777      785
    1446      7      776      777      786
    1447      4      778      777      785
    1448      4      778      777      786
    1449      5      785      777      786
    1450      4      777      778      787
    1451      4      777      778      788
    1452     17      777      778      789
    1453      5      787      778      788
    1454      7      787      778      789
    1455      7      788      778      789
    1456     18      790      789      797
    1457     19      790      789      778
    1458     20      797      789      778
    1459     21      789      790      791
    1460     22      789      790      798
    1461     23      791      790      798
    1462     24      790      791      792
    1463     21      790      791      796
    1464     25      792      791      796
    1465     26      791      792      793
    1466      7      791      792      799
    1467      7      791      792      800
    1468      4      793      792      799
    1469      4      793      792      800
    1470      5      799      792      800
    1471      2      792      793      794
    1472      4      792      793      801
    1473      4      792      793      802
    1474      4      794      793      801
    1475      4      794      793      802
    1476      5      801      793      802
    1477      2      793      794      795
    1478      4      793      794      803
    1479      4      793      794      804
    1480      4      795      794      803
    1481      4      795      794      804
    1482      5      803      794      804
    1483      4      794      795      805
    1484      4      794      795      806
    1485      4      794      795      807
    1486      5      805      795      806
    1487      5      805      795      807
    1488      5      806      795      807
    1489     18      791      796      797
    1490     27      791      796      808
    1491     28      797      796      808
    1492     29      796      797      789
    1493     30      809      808      796
    1494      9      808      809      810
    1495     10      808      809      811
    1496     11      810      809      811
    1497     12      809      811      812
    1498     12      809      811      816
    1499     13      812      811      816
    1500     13      811      812      813
    1501     14      811      812      826
    1502     14      813      812      826
    1503     15      812      813      814
    1504     16      812      813      820
    1505     15      814      813      820
    1506     15      813      814      815
    1507     15      813      814      817
    1508     16      815      814      817
    1509     13      814      815      816
    1510     14      814      815      827
    1511     14      816      815      827
    1512     13      815      816      811
    1513     14      815      816      828
    1514     14      811      816      828
    1515     13      814      817      818
    1516     14      814      817      829
    1517     14      818      817      829
    1518     13      817      818      819
    1519     12      817      818      821
    1520     12      819      818      821
    1521     13      818      819      820
    1522     14      818      819      830
    1523     14      820      819      830
    1524     13      819      820      813
    1525     14      819      820      831
    1526     14      813      820      831
    1527     11      818      821      822
    1528     10      818      821      823
    1529      9      822      821      823
    1530      8      821      823      824
    1531      6      823      824      825
    1532      7      823      824      832
    1533      7      823      824      833
    1534      4      825      824      832
    1535      4      825      824      833
    1536      5      832      824      833
    1537      4      824      825      834
    1538      4      824      825      835
    1539     17      824      825      836
    1540      5      834      825      835
    1541      7      834      825      836
    1542      7      835      825      836
    1543     18      837      836      844
    1544     19      837      836      825
    1545     20      844      836      825
    1546     21      836      837      838
    1547     22      836      837      845
    1548     23      838      837      845
    1549     24      837      838      839
    1550     21      837      838      843
    1551     25      839      838      843
    1552     26      838      839      840
    1553      7      838      839      846
    1554      7      838      839      847
    1555      4      840      839      846
    1556      4      840      839      847
    1557      5      846      839      847
    1558      2      839      840      841
    1559      4      839      840      848
    1560      4      839      840      849
    1561      4      841      840      848
    1562      4      841      840      849
    1563      5      848      840      849
    1564      2      840      841      842
    1565      4      840      841      850
    1566      4      840      841      851
    1567      4      842      841      850
    1568      4      842      841      851
    1569      5      850      841      851
    1570      4      841      842      852
    1571      4      841      842      853
    1572      4      841      842      854
    1573      5      852      842      853
    1574      5      852      842      854
    1575      5      853      842      854
    1576     18      838      843      844
    1577     27      838      843      855
    1578     28      844      843      855
    1579     29      843      844      836
    1580     30      856      855      843
    1581      9      855      856      857
    1582     10      855      856      858
    1583     11      857      856      858
    1584     12      856      858      859
    1585     12      856      858      863
    1586     13      859      858      863
    1587     13      858      859      860
    1588     14      858      859      873
    1589     14      860      859      873
    1590     15      859      860      861
    1591     16      859      860      867
    1592     15      861      860      867
    1593     15      860      861      862
    1594     15      860      861      864
    1595     16      862      861      864
    1596     13      861      862      863
    1597     14      861      862      874
    1598     14      863      862      874
    1599     13      862      863      858
    1600     14      862      863      875
    1601     14      858      863      875
    1602     13      861      864      865
    1603     14      861      864      876
    1604     14      865      864      876
    1605     13      864      865      866
    1606     12      864      865      868
    1607     12      866      865      868
    1608     13      865      866      867
    1609     14      865      866      877
    1610     14      867      866      877
    1611     13      866      867      860
    1612     14      866      867      878
    1613     14      860      867      878
    1614     11      865      868      869
    1615     10      865      868      870
    1616      9      869      868      870
    1617      8      868      870      871
    1618      6      870      871      872
    1619      7      870      871      879
    1620      7      870      871      880
    1621      4      872      871      879
    1622      4      872      871      880
    1623      5      879      871      880
    1624      4      871      872      881
    1625      4      871      872      882
    1626     17      871      872      883
    1627      5      881      872      882
    1628      7      881      872      883
    1629      7      882      872      883
    1630     18      884      883      891
    1631     19      884      883      872
    1632     20      891      883      872
    1633     21      883      884      885
    1634     22      883      884      892
    1635     23      885      884      892
    1636     24      884      885      886
    1637     21      884      885      890
    1638     25      886      885      890
    1639     26      885      886      887
    1640      7      885      886      893
    1641      7      885      886      894
    1642      4      887      886      893
    1643      4      887      886      894
    1644      5      893      886      894
    1645      2      886      887      888
    1646      4      886      887      895
    1647      4      886      887      896
    1648      4      888      887      895
    1649      4      888      887      896
    1650      5      895      887      896
    1651      2      887      888      889
    1652      4      887      888      897
    1653      4      887      888      898
    1654      4      889      888      897
    1655      4      889      888      898
    1656      5      897      888      898
    1657      4      888      889      899
    1658      4      888      889      900
    1659      4      888      889      901
    1660      5      899      889      900
    1661      5      899      889      901
    1662      5      900      889      901
    1663     18      885      890      891
    1664     19      885      890      905
    1665     20      891      890      905
    1666     29      890      891      883
    1667      1      902      903      904
    1668      2      903      904      905
    1669      3      903      904      906
    1670      3      903      904      907
    1671      4      905      904      906
    1672      4      905      904      907
    1673      5      906      904      907
    1674      4      904      905      908
    1675      4      904      905      909
    1676     17      904      905      890
    1677      5      908      905      909
    1678      7      908      905      890
    1679      7      909      905      890

Dihedrals

       1      1        1        2        3        4
       2      1        1        2        3        5
       3      1        1        2        3        6
       4      2        2        3        4        7
       5      2        2        3        4        8
       6      3        2        3        4        9
       7      4        5        3        4        7
       8      4        5        3        4        8
       9      4        5        3        4        9
      10      4        6        3        4        7
      11      4        6        3        4        8
      12      4        6        3        4        9
      13      5        4        9       10       11
      14      6        4        9       10       12
      15      7        9       10       12       13
      16      7        9       10       12       17
      17      7       11       10       12       13
      18      7       11       10       12       17
      19      8       10       12       13       14
      20      8       10       12       13       27
      21      8       17       12       13       14
      22      8       17       12       13       27
      23      8       12       13       14       15
      24      8       12       13       14       21
      25      8       27       13       14       15
      26      8       27       13       14       21
      27      8       13       14       15       16
      28      8       13       14       15       18
      29      8       21       14       15       16
      30      8       21       14       15       18
      31      8       14       15       16       17
      32      8       14       15       16       28
      33      8       18       15       16       17
      34      8       18       15       16       28
      35      8       15       16       17       12
      36      8       15       16       17       29
      37      8       28       16       17       12
      38      8       28       16       17       29
      39      8       14       15       18       19
      40      8       14       15       18       30
      41      8       16       15       18       19
      42      8       16       15       18       30
      43      8       15       18       19       20
      44      8       15       18       19       22
      45      8       30       18       19       20
      46      8       30       18       19       22
      47      8       18       19       20       21
      48      8       18       19       20       31
      49      8       22       19       20       21
      50      8       22       19       20       31
      51      8       19       20       21       14
      52      8       19       20       21       32
      53      8       31       20       21       14
      54      8       31       20       21       32
      55      7       18       19       22       23
      56      7       18       19       22       24
      57      7       20       19       22       23
      58      7       20       19       22       24
      59      6       19       22       24       25
      60      5       23       22       24       25
      61      9       22       24       25       26
      62     10       22       24       25       33
      63     10       22       24       25       34
      64      4       24       25       26       35
      65      4       24       25       26       36
      66      3       24       25       26       37
      67      4       33       25       26       35
      68      4       33       25       26       36
      69      4       33       25       26       37
      70      4       34       25       26       35
      71      4       34       25       26       36
      72      4       34       25       26       37
      73      8       16       17       12       10
      74      8       16       17       12       13
      75      8       29       17       12       10
      76      8       29       17       12       13
      77      8       20       21       14       13
      78      8       20       21       14       15
      79      8       32       21       14       13
      80      8       32       21       14       15
      81      9        3        4        9       10
      82     10        7        4        9       10
      83     10        8        4        9       10
      84      8       45       37       38       39
      85     11       45       37       38       46
      86      8       26       37       38       39
      87      8       26       37       38       46
      88      8       37       38       39       40
      89      8       37       38       39       44
      90      8       46       38       39       40
      91      8       46       38       39       44
      92      1       38       39       40       41
      93      1       38       39       40       47
      94      1       38       39       40       48
      95      1       44       39       40       41
      96      1       44       39       40       47
      97      1       44       39       40       48
      98     12       39       40       41       42
      99     13       39       40       41       49
     100     13       39       40       41       50
     101      4       47       40       41       42
     102      4       47       40       41       49
     103      4       47       40       41       50
     104      4       48       40       41       42
     105      4       48       40       41       49
     106      4       48       40       41       50
     107     12       40       41       42       43
     108      4       40       41       42       51
     109      4       40       41       42       52
     110      4       49       41       42       43
     111      4       49       41       42       51
     112      4       49       41       42       52
     113      4       50       41       42       43
     114      4       50       41       42       51
     115      4       50       41       42       52
     116      4       41       42       43       53
     117      4       41       42       43       54
     118      4       41       42       43       55
     119      4       51       42       43       53
     120      4       51       42       43       54
     121      4       51       42       43       55
     122      4       52       42       43       53
     123      4       52       42       43       54
     124      4       52       42       43       55
     125      8       38       39       44       45
     126      8       38       39       44       56
     127      8       40       39       44       45
     128      8       40       39       44       56
     129      8       39       44       45       37
     130      8       56       44       45       37
     131      8       44       45       37       38
     132      8       44       45       37       26
     133      1       25       26       37       38
     134     14       25       26       37       45
     135      1       35       26       37       38
     136     15       35       26       37       45
     137      1       36       26       37       38
     138     15       36       26       37       45
     139     16       44       56       57       58
     140      6       44       56       57       59
     141      7       56       57       59       60
     142      7       56       57       59       64
     143      7       58       57       59       60
     144      7       58       57       59       64
     145      8       57       59       60       61
     146      8       57       59       60       74
     147      8       64       59       60       61
     148      8       64       59       60       74
     149      8       59       60       61       62
     150      8       59       60       61       68
     151      8       74       60       61       62
     152      8       74       60       61       68
     153      8       60       61       62       63
     154      8       60       61       62       65
     155      8       68       61       62       63
     156      8       68       61       62       65
     157      8       61       62       63       64
     158      8       61       62       63       75
     159      8       65       62       63       64
     160      8       65       62       63       75
     161      8       62       63       64       59
     162      8       62       63       64       76
     163      8       75       63       64       59
     164      8       75       63       64       76
     165      8       61       62       65       66
     166      8       61       62       65       77
     167      8       63       62       65       66
     168      8       63       62       65       77
     169      8       62       65       66       67
     170      8       62       65       66       69
     171      8       77       65       66       67
     172      8       77       65       66       69
     173      8       65       66       67       68
     174      8       65       66       67       78
     175      8       69       66       67       68
     176      8       69       66       67       78
     177      8       66       67       68       61
     178      8       66       67       68       79
     179      8       78       67       68       61
     180      8       78       67       68       79
     181      7       65       66       69       70
     182      7       65       66       69       71
     183      7       67       66       69       70
     184      7       67       66       69       71
     185      6       66       69       71       72
     186      5       70       69       71       72
     187      9       69       71       72       73
     188     10       69       71       72       80
     189     10       69       71       72       81
     190      4       71       72       73       82
     191      4       71       72       73       83
     192      3       71       72       73       84
     193      4       80       72       73       82
     194      4       80       72       73       83
     195      4       80       72       73       84
     196      4       81       72       73       82
     197      4       81       72       73       83
     198      4       81       72       73       84
     199      8       63       64       59       57
     200      8       63       64       59       60
     201      8       76       64       59       57
     202      8       76       64       59       60
     203      8       67       68       61       60
     204      8       67       68       61       62
     205      8       79       68       61       60
     206      8       79       68       61       62
     207     17       39       44       56       57
     208     18       45       44       56       57
     209      8       92       84       85       86
     210     11       92       84       85       93
     211      8       73       84       85       86
     212      8       73       84       85       93
     213      8       84       85       86       87
     214      8       84       85       86       91
     215      8       93       85       86       87
     216      8       93       85       86       91
     217      1       85       86       87       88
     218      1       85       86       87       94
     219      1       85       86       87       95
     220      1       91       86       87       88
     221      1       91       86       87       94
     222      1       91       86       87       95
     223     12       86       87       88       89
     224     13       86       87       88       96
     225     13       86       87       88       97
     226      4       94       87       88       89
     227      4       94       87       88       96
     228      4       94       87       88       97
     229      4       95       87       88       89
     230      4       95       87       88       96
     231      4       95       87       88       97
     232     12       87       88       89       90
     233      4       87       88       89       98
     234      4       87       88       89       99
     235      4       96       88       89       90
     236      4       96       88       89       98
     237      4       96       88       89       99
     238      4       97       88       89       90
     239      4       97       88       89       98
     240      4       97       88       89       99
     241      4       88       89       90      100
     242      4       88       89       90      101
     243      4       88       89       90      102
     244      4       98       89       90      100
     245      4       98       89       90      101
     246      4       98       89       90      102
     247      4       99       89       90      100
     248      4       99       89       90      101
     249      4       99       89       90      102
     250      8       85       86       91       92
     251      8       85       86       91      103
     252      8       87       86       91       92
     253      8       87       86       91      103
     254      8       86       91       92       84
     255      8      103       91       92       84
     256      8       91       92       84       85
     257      8       91       92       84       73
     258      1       72       73       84       85
     259     14       72       73       84       92
     260      1       82       73       84       85
     261     15       82       73       84       92
     262      1       83       73       84       85
     263     15       83       73       84       92
     264     16       91      103      104      105
     265      6       91      103      104      106
     266      7      103      104      106      107
     267      7      103      104      106      111
     268      7      105      104      106      107
     269      7      105      104      106      111
     270      8      104      106      107      108
     271      8      104      106      107      121
     272      8      111      106      107      108
     273      8      111      106      107      121
     274      8      106      107      108      109
     275      8      106      107      108      115
     276      8      121      107      108      109
     277      8      121      107      108      115
     278      8      107      108      109      110
     279      8      107      108      109      112
     280      8      115      108      109      110
     281      8      115      108      109      112
     282      8      108      109      110      111
     283      8      108      109      110      122
     284      8      112      109      110      111
     285      8      112      109      110      122
     286      8      109      110      111      106
     287      8      109      110      111      123
     288      8      122      110      111      106
     289      8      122      110      111      123
     290      8      108      109      112      113
     291      8      108      109      112      124
     292      8      110      109      112      113
     293      8      110      109      112      124
     294      8      109      112      113      114
     295      8      109      112      113      116
     296      8      124      112      113      114
     297      8      124      112      113      116
     298      8      112      113      114      115
     299      8      112      113      114      125
     300      8      116      113      114      115
     301      8      116      113      114      125
     302      8      113      114      115      108
     303      8      113      114      115      126
     304      8      125      114      115      108
     305      8      125      114      115      126
     306      7      112      113      116      117
     307      7      112      113      116      118
     308      7      114      113      116      117
     309      7      114      113      116      118
     310      6      113      116      118      119
     311      5      117      116      118      119
     312      9      116      118      119      120
     313     10      116      118      119      127
     314     10      116      118      119      128
     315      4      118      119      120      129
     316      4      118      119      120      130
     317      3      118      119      120      131
     318      4      127      119      120      129
     319      4      127      119      120      130
     320      4      127      119      120      131
     321      4      128      119      120      129
     322      4      128      119      120      130
     323      4      128      119      120      131
     324      8      110      111      106      104
     325      8      110      111      106      107
     326      8      123      111      106      104
     327      8      123      111      106      107
     328      8      114      115      108      107
     329      8      114      115      108      109
     330      8      126      115      108      107
     331      8      126      115      108      109
     332     17       86       91      103      104
     333     18       92       91      103      104
     334      8      139      131      132      133
     335     11      139      131      132      140
     336      8      120      131      132      133
     337      8      120      131      132      140
     338      8      131      132      133      134
     339      8      131      132      133      138
     340      8      140      132      133      134
     341      8      140      132      133      138
     342      1      132      133      134      135
     343      1      132      133      134      141
     344      1      132      133      134      142
     345      1      138      133      134      135
     346      1      138      133      134      141
     347      1      138      133      134      142
     348     12      133      134      135      136
     349     13      133      134      135      143
     350     13      133      134      135      144
     351      4      141      134      135      136
     352      4      141      134      135      143
     353      4      141      134      135      144
     354      4      142      134      135      136
     355      4      142      134      135      143
     356      4      142      134      135      144
     357     12      134      135      136      137
     358      4      134      135      136      145
     359      4      134      135      136      146
     360      4      143      135      136      137
     361      4      143      135      136      145
     362      4      143      135      136      146
     363      4      144      135      136      137
     364      4      144      135      136      145
     365      4      144      135      136      146
     366      4      135      136      137      147
     367      4      135      136      137      148
     368      4      135      136      137      149
     369      4      145      136      137      147
     370      4      145      136      137      148
     371      4      145      136      137      149
     372      4      146      136      137      147
     373      4      146      136      137      148
     374      4      146      136      137      149
     375      8      132      133      138      139
     376      8      132      133      138      150
     377      8      134      133      138      139
     378      8      134      133      138      150
     379      8      133      138      139      131
     380      8      150      138      139      131
     381      8      138      139      131      132
     382      8      138      139      131      120
     383      1      119      120      131      132
     384     14      119      120      131      139
     385      1      129      120      131      132
     386     15      129      120      131      139
     387      1      130      120      131      132
     388     15      130      120      131      139
     389     16      138      150      151      152
     390      6      138      150      151      153
     391      7      150      151      153      154
     392      7      150      151      153      158
     393      7      152      151      153      154
     394      7      152      151      153      158
     395      8      151      153      154      155
     396      8      151      153      154      168
     397      8      158      153      154      155
     398      8      158      153      154      168
     399      8      153      154      155      156
     400      8      153      154      155      162
     401      8      168      154      155      156
     402      8      168      154      155      162
     403      8      154      155      156      157
     404      8      154      155      156      159
     405      8      162      155      156      157
     406      8      162      155      156      159
     407      8      155      156      157      158
     408      8      155      156      157      169
     409      8      159      156      157      158
     410      8      159      156      157      169
     411      8      156      157      158      153
     412      8      156      157      158      170
     413      8      169      157      158      153
     414      8      169      157      158      170
     415      8      155      156      159      160
     416      8      155      156      159      171
     417      8      157      156      159      160
     418      8      157      156      159      171
     419      8      156      159      160      161
     420      8      156      159      160      163
     421      8      171      159      160      161
     422      8      171      159      160      163
     423      8      159      160      161      162
     424      8      159      160      161      172
     425      8      163      160      161      162
     426      8      163      160      161      172
     427      8      160      161      162      155
     428      8      160      161      162      173
     429      8      172      161      162      155
     430      8      172      161      162      173
     431      7      159      160      163      164
     432      7      159      160      163      165
     433      7      161      160      163      164
     434      7      161      160      163      165
     435      6      160      163      165      166
     436      5      164      163      165      166
     437      9      163      165      166      167
     438     10      163      165      166      174
     439     10      163      165      166      175
     440      4      165      166      167      176
     441      4      165      166      167      177
     442      3      165      166      167      178
     443      4      174      166      167      176
     444      4      174      166      167      177
     445      4      174      166      167      178
     446      4      175      166      167      176
     447      4      175      166      167      177
     448      4      175      166      167      178
     449      8      157      158      153      151
     450      8      157      158      153      154
     451      8      170      158      153      151
     452      8      170      158      153      154
     453      8      161      162      155      154
     454      8      161      162      155      156
     455      8      173      162      155      154
     456      8      173      162      155      156
     457     17      133      138      150      151
     458     18      139      138      150      151
     459      8      186      178      179      180
     460     11      186      178      179      187
     461      8      167      178      179      180
     462      8      167      178      179      187
     463      8      178      179      180      181
     464      8      178      179      180      185
     465      8      187      179      180      181
     466      8      187      179      180      185
     467      1      179      180      181      182
     468      1      179      180      181      188
     469      1      179      180      181      189
     470      1      185      180      181      182
     471      1      185      180      181      188
     472      1      185      180      181      189
     473     12      180      181      182      183
     474     13      180      181      182      190
     475     13      180      181      182      191
     476      4      188      181      182      183
     477      4      188      181      182      190
     478      4      188      181      182      191
     479      4      189      181      182      183
     480      4      189      181      182      190
     481      4      189      181      182      191
     482     12      181      182      183      184
     483      4      181      182      183      192
     484      4      181      182      183      193
     485      4      190      182      183      184
     486      4      190      182      183      192
     487      4      190      182      183      193
     488      4      191      182      183      184
     489      4      191      182      183      192
     490      4      191      182      183      193
     491      4      182      183      184      194
     492      4      182      183      184      195
     493      4      182      183      184      196
     494      4      192      183      184      194
     495      4      192      183      184      195
     496      4      192      183      184      196
     497      4      193      183      184      194
     498      4      193      183      184      195
     499      4      193      183      184      196
     500      8      179      180      185      186
     501      8      179      180      185      197
     502      8      181      180      185      186
     503      8      181      180      185      197
     504      8      180      185      186      178
     505      8      197      185      186      178
     506      8      185      186      178      179
     507      8      185      186      178      167
     508      1      166      167      178      179
     509     14      166      167      178      186
     510      1      176      167      178      179
     511     15      176      167      178      186
     512      1      177      167      178      179
     513     15      177      167      178      186
     514     16      185      197      198      199
     515      6      185      197      198      200
     516      7      197      198      200      201
     517      7      197      198      200      205
     518      7      199      198      200      201
     519      7      199      198      200      205
     520      8      198      200      201      202
     521      8      198      200      201      215
     522      8      205      200      201      202
     523      8      205      200      201      215
     524      8      200      201      202      203
     525      8      200      201      202      209
     526      8      215      201      202      203
     527      8      215      201      202      209
     528      8      201      202      203      204
     529      8      201      202      203      206
     530      8      209      202      203      204
     531      8      209      202      203      206
     532      8      202      203      204      205
     533      8      202      203      204      216
     534      8      206      203      204      205
     535      8      206      203      204      216
     536      8      203      204      205      200
     537      8      203      204      205      217
     538      8      216      204      205      200
     539      8      216      204      205      217
     540      8      202      203      206      207
     541      8      202      203      206      218
     542      8      204      203      206      207
     543      8      204      203      206      218
     544      8      203      206      207      208
     545      8      203      206      207      210
     546      8      218      206      207      208
     547      8      218      206      207      210
     548      8      206      207      208      209
     549      8      206      207      208      219
     550      8      210      207      208      209
     551      8      210      207      208      219
     552      8      207      208      209      202
     553      8      207      208      209      220
     554      8      219      208      209      202
     555      8      219      208      209      220
     556      7      206      207      210      211
     557      7      206      207      210      212
     558      7      208      207      210      211
     559      7      208      207      210      212
     560      6      207      210      212      213
     561      5      211      210      212      213
     562      9      210      212      213      214
     563     10      210      212      213      221
     564     10      210      212      213      222
     565      4      212      213      214      223
     566      4      212      213      214      224
     567      3      212      213      214      225
     568      4      221      213      214      223
     569      4      221      213      214      224
     570      4      221      213      214      225
     571      4      222      213      214      223
     572      4      222      213      214      224
     573      4      222      213      214      225
     574      8      204      205      200      198
     575      8      204      205      200      201
     576      8      217      205      200      198
     577      8      217      205      200      201
     578      8      208      209      202      201
     579      8      208      209      202      203
     580      8      220      209      202      201
     581      8      220      209      202      203
     582     17      180      185      197      198
     583     18      186      185      197      198
     584      8      233      225      226      227
     585     11      233      225      226      234
     586      8      214      225      226      227
     587      8      214      225      226      234
     588      8      225      226      227      228
     589      8      225      226      227      232
     590      8      234      226      227      228
     591      8      234      226      227      232
     592      1      226      227      228      229
     593      1      226      227      228      235
     594      1      226      227      228      236
     595      1      232      227      228      229
     596      1      232      227      228      235
     597      1      232      227      228      236
     598     12      227      228      229      230
     599     13      227      228      229      237
     600     13      227      228      229      238
     601      4      235      228      229      230
     602      4      235      228      229      237
     603      4      235      228      229      238
     604      4      236      228      229      230
     605      4      236      228      229      237
     606      4      236      228      229      238
     607     12      228      229      230      231
     608      4      228      229      230      239
     609      4      228      229      230      240
     610      4      237      229      230      231
     611      4      237      229      230      239
     612      4      237      229      230      240
     613      4      238      229      230      231
     614      4      238      229      230      239
     615      4      238      229      230      240
     616      4      229      230      231      241
     617      4      229      230      231      242
     618      4      229      230      231      243
     619      4      239      230      231      241
     620      4      239      230      231      242
     621      4      239      230      231      243
     622      4      240      230      231      241
     623      4      240      230      231      242
     624      4      240      230      231      243
     625      8      226      227      232      233
     626      8      226      227      232      244
     627      8      228      227      232      233
     628      8      228      227      232      244
     629      8      227      232      233      225
     630      8      244      232      233      225
     631      8      232      233      225      226
     632      8      232      233      225      214
     633      1      213      214      225      226
     634     14      213      214      225      233
     635      1      223      214      225      226
     636     15      223      214      225      233
     637      1      224      214      225      226
     638     15      224      214      225      233
     639     16      232      244      245      246
     640      6      232      244      245      247
     641      7      244      245      247      248
     642      7      244      245      247      252
     643      7      246      245      247      248
     644      7      246      245      247      252
     645      8      245      247      248      249
     646      8      245      247      248      262
     647      8      252      247      248      249
     648      8      252      247      248      262
     649      8      247      248      249      250
     650      8      247      248      249      256
     651      8      262      248      249      250
     652      8      262      248      249      256
     653      8      248      249      250      251
     654      8      248      249      250      253
     655      8      256      249      250      251
     656      8      256      249      250      253
     657      8      249      250      251      252
     658      8      249      250      251      263
     659      8      253      250      251      252
     660      8      253      250      251      263
     661      8      250      251      252      247
     662      8      250      251      252      264
     663      8      263      251      252      247
     664      8      263      251      252      264
     665      8      249      250      253      254
     666      8      249      250      253      265
     667      8      251      250      253      254
     668      8      251      250      253      265
     669      8      250      253      254      255
     670      8      250      253      254      257
     671      8      265      253      254      255
     672      8      265      253      254      257
     673      8      253      254      255      256
     674      8      253      254      255      266
     675      8      257      254      255      256
     676      8      257      254      255      266
     677      8      254      255      256      249
     678      8      254      255      256      267
     679      8      266      255      256      249
     680      8      266      255      256      267
     681      7      253      254      257      258
     682      7      253      254      257      259
     683      7      255      254      257      258
     684      7      255      254      257      259
     685      6      254      257      259      260
     686      5      258      257      259      260
     687      9      257      259      260      261
     688     10      257      259      260      268
     689     10      257      259      260      269
     690      4      259      260      261      270
     691      4      259      260      261      271
     692      3      259      260      261      272
     693      4      268      260      261      270
     694      4      268      260      261      271
     695      4      268      260      261      272
     696      4      269      260      261      270
     697      4      269      260      261      271
     698      4      269      260      261      272
     699      8      251      252      247      245
     700      8      251      252      247      248
     701      8      264      252      247      245
     702      8      264      252      247      248
     703      8      255      256      249      248
     704      8      255      256      249      250
     705      8      267      256      249      248
     706      8      267      256      249      250
     707     17      227      232      244      245
     708     18      233      232      244      245
     709      8      280      272      273      274
     710     11      280      272      273      281
     711      8      261      272      273      274
     712      8      261      272      273      281
     713      8      272      273      274      275
     714      8      272      273      274      279
     715      8      281      273      274      275
     716      8      281      273      274      279
     717      1      273      274      275      276
     718      1      273      274      275      282
     719      1      273      274      275      283
     720      1      279      274      275      276
     721      1      279      274      275      282
     722      1      279      274      275      283
     723     12      274      275      276      277
     724     13      274      275      276      284
     725     13      274      275      276      285
     726      4      282      275      276      277
     727      4      282      275      276      284
     728      4      282      275      276      285
     729      4      283      275      276      277
     730      4      283      275      276      284
     731      4      283      275      276      285
     732     12      275      276      277      278
     733      4      275      276      277      286
     734      4      275      276      277      287
     735      4      284      276      277      278
     736      4      284      276      277      286
     737      4      284      276      277      287
     738      4      285      276      277      278
     739      4      285      276      277      286
     740      4      285      276      277      287
     741      4      276      277      278      288
     742      4      276      277      278      289
     743      4      276      277      278      290
     744      4      286      277      278      288
     745      4      286      277      278      289
     746      4      286      277      278      290
     747      4      287      277      278      288
     748      4      287      277      278      289
     749      4      287      277      278      290
     750      8      273      274      279      280
     751      8      273      274      279      291
     752      8      275      274      279      280
     753      8      275      274      279      291
     754      8      274      279      280      272
     755      8      291      279      280      272
     756      8      279      280      272      273
     757      8      279      280      272      261
     758      1      260      261      272      273
     759     14      260      261      272      280
     760      1      270      261      272      273
     761     15      270      261      272      280
     762      1      271      261      272      273
     763     15      271      261      272      280
     764     16      279      291      292      293
     765      6      279      291      292      294
     766      7      291      292      294      295
     767      7      291      292      294      299
     768      7      293      292      294      295
     769      7      293      292      294      299
     770      8      292      294      295      296
     771      8      292      294      295      309
     772      8      299      294      295      296
     773      8      299      294      295      309
     774      8      294      295      296      297
     775      8      294      295      296      303
     776      8      309      295      296      297
     777      8      309      295      296      303
     778      8      295      296      297      298
     779      8      295      296      297      300
     780      8      303      296      297      298
     781      8      303      296      297      300
     782      8      296      297      298      299
     783      8      296      297      298      310
     784      8      300      297      298      299
     785      8      300      297      298      310
     786      8      297      298      299      294
     787      8      297      298      299      311
     788      8      310      298      299      294
     789      8      310      298      299      311
     790      8      296      297      300      301
     791      8      296      297      300      312
     792      8      298      297      300      301
     793      8      298      297      300      312
     794      8      297      300      301      302
     795      8      297      300      301      304
     796      8      312      300      301      302
     797      8      312      300      301      304
     798      8      300      301      302      303
     799      8      300      301      302      313
     800      8      304      301      302      303
     801      8      304      301      302      313
     802      8      301      302      303      296
     803      8      301      302      303      314
     804      8      313      302      303      296
     805      8      313      302      303      314
     806      7      300      301      304      305
     807      7      300      301      304      306
     808      7      302      301      304      305
     809      7      302      301      304      306
     810      6      301      304      306      307
     811      5      305      304      306      307
     812      9      304      306      307      308
     813     10      304      306      307      315
     814     10      304      306      307      316
     815      4      306      307      308      317
     816      4      306      307      308      318
     817      3      306      307      308      319
     818      4      315      307      308      317
     819      4      315      307      308      318
     820      4      315      307      308      319
     821      4      316      307      308      317
     822      4      316      307      308      318
     823      4      316      307      308      319
     824      8      298      299      294      292
     825      8      298      299      294      295
     826      8      311      299      294      292
     827      8      311      299      294      295
     828      8      302      303      296      295
     829      8      302      303      296      297
     830      8      314      303      296      295
     831      8      314      303      296      297
     832     17      274      279      291      292
     833     18      280      279      291      292
     834      8      327      319      320      321
     835     11      327      319      320      328
     836      8      308      319      320      321
     837      8      308      319      320      328
     838      8      319      320      321      322
     839      8      319      320      321      326
     840      8      328      320      321      322
     841      8      328      320      321      326
     842      1      320      321      322      323
     843      1      320      321      322      329
     844      1      320      321      322      330
     845      1      326      321      322      323
     846      1      326      321      322      329
     847      1      326      321      322      330
     848     12      321      322      323      324
     849     13      321      322      323      331
     850     13      321      322      323      332
     851      4      329      322      323      324
     852      4      329      322      323      331
     853      4      329      322      323      332
     854      4      330      322      323      324
     855      4      330      322      323      331
     856      4      330      322      323      332
     857     12      322      323      324      325
     858      4      322      323      324      333
     859      4      322      323      324      334
     860      4      331      323      324      325
     861      4      331      323      324      333
     862      4      331      323      324      334
     863      4      332      323      324      325
     864      4      332      323      324      333
     865      4      332      323      324      334
     866      4      323      324      325      335
     867      4      323      324      325      336
     868      4      323      324      325      337
     869      4      333      324      325      335
     870      4      333      324      325      336
     871      4      333      324      325      337
     872      4      334      324      325      335
     873      4      334      324      325      336
     874      4      334      324      325      337
     875      8      320      321      326      327
     876      8      320      321      326      338
     877      8      322      321      326      327
     878      8      322      321      326      338
     879      8      321      326      327      319
     880      8      338      326      327      319
     881      8      326      327      319      320
     882      8      326      327      319      308
     883      1      307      308      319      320
     884     14      307      308      319      327
     885      1      317      308      319      320
     886     15      317      308      319      327
     887      1      318      308      319      320
     888     15      318      308      319      327
     889     16      326      338      339      340
     890      6      326      338      339      341
     891      7      338      339      341      342
     892      7      338      339      341      346
     893      7      340      339      341      342
     894      7      340      339      341      346
     895      8      339      341      342      343
     896      8      339      341      342      356
     897      8      346      341      342      343
     898      8      346      341      342      356
     899      8      341      342      343      344
     900      8      341      342      343      350
     901      8      356      342      343      344
     902      8      356      342      343      350
     903      8      342      343      344      345
     904      8      342      343      344      347
     905      8      350      343      344      345
     906      8      350      343      344      347
     907      8      343      344      345      346
     908      8      343      344      345      357
     909      8      347      344      345      346
     910      8      347      344      345      357
     911      8      344      345      346      341
     912      8      344      345      346      358
     913      8      357      345      346      341
     914      8      357      345      346      358
     915      8      343      344      347      348
     916      8      343      344      347      359
     917      8      345      344      347      348
     918      8      345      344      347      359
     919      8      344      347      348      349
     920      8      344      347      348      351
     921      8      359      347      348      349
     922      8      359      347      348      351
     923      8      347      348      349      350
     924      8      347      348      349      360
     925      8      351      348      349      350
     926      8      351      348      349      360
     927      8      348      349      350      343
     928      8      348      349      350      361
     929      8      360      349      350      343
     930      8      360      349      350      361
     931      7      347      348      351      352
     932      7      347      348      351      353
     933      7      349      348      351      352
     934      7      349      348      351      353
     935      6      348      351      353      354
     936      5      352      351      353      354
     937      9      351      353      354      355
     938     10      351      353      354      362
     939     10      351      353      354      363
     940      4      353      354      355      364
     941      4      353      354      355      365
     942      3      353      354      355      366
     943      4      362      354      355      364
     944      4      362      354      355      365
     945      4      362      354      355      366
     946      4      363      354      355      364
     947      4      363      354      355      365
     948      4      363      354      355      366
     949      8      345      346      341      339
     950      8      345      346      341      342
     951      8      358      346      341      339
     952      8      358      346      341      342
     953      8      349      350      343      342
     954      8      349      350      343      344
     955      8      361      350      343      342
     956      8      361      350      343      344
     957     17      321      326      338      339
     958     18      327      326      338      339
     959      8      374      366      367      368
     960     11      374      366      367      375
     961      8      355      366      367      368
     962      8      355      366      367      375
     963      8      366      367      368      369
     964      8      366      367      368      373
     965      8      375      367      368      369
     966      8      375      367      368      373
     967      1      367      368      369      370
     968      1      367      368      369      376
     969      1      367      368      369      377
     970      1      373      368      369      370
     971      1      373      368      369      376
     972      1      373      368      369      377
     973     12      368      369      370      371
     974     13      368      369      370      378
     975     13      368      369      370      379
     976      4      376      369      370      371
     977      4      376      369      370      378
     978      4      376      369      370      379
     979      4      377      369      370      371
     980      4      377      369      370      378
     981      4      377      369      370      379
     982     12      369      370      371      372
     983      4      369      370      371      380
     984      4      369      370      371      381
     985      4      378      370      371      372
     986      4      378      370      371      380
     987      4      378      370      371      381
     988      4      379      370      371      372
     989      4      379      370      371      380
     990      4      379      370      371      381
     991      4      370      371      372      382
     992      4      370      371      372      383
     993      4      370      371      372      384
     994      4      380      371      372      382
     995      4      380      371      372      383
     996      4      380      371      372      384
     997      4      381      371      372      382
     998      4      381      371      372      383
     999      4      381      371      372      384
    1000      8      367      368      373      374
    1001      8      367      368      373      385
    1002      8      369      368      373      374
    1003      8      369      368      373      385
    1004      8      368      373      374      366
    1005      8      385      373      374      366
    1006      8      373      374      366      367
    1007      8      373      374      366      355
    1008      1      354      355      366      367
    1009     14      354      355      366      374
    1010      1      364      355      366      367
    1011     15      364      355      366      374
    1012      1      365      355      366      367
    1013     15      365      355      366      374
    1014     16      373      385      386      387
    1015      6      373      385      386      388
    1016      7      385      386      388      389
    1017      7      385      386      388      393
    1018      7      387      386      388      389
    1019      7      387      386      388      393
    1020      8      386      388      389      390
    1021      8      386      388      389      403
    1022      8      393      388      389      390
    1023      8      393      388      389      403
    1024      8      388      389      390      391
    1025      8      388      389      390      397
    1026      8      403      389      390      391
    1027      8      403      389      390      397
    1028      8      389      390      391      392
    1029      8      389      390      391      394
    1030      8      397      390      391      392
    1031      8      397      390      391      394
    1032      8      390      391      392      393
    1033      8      390      391      392      404
    1034      8      394      391      392      393
    1035      8      394      391      392      404
    1036      8      391      392      393      388
    1037      8      391      392      393      405
    1038      8      404      392      393      388
    1039      8      404      392      393      405
    1040      8      390      391      394      395
    1041      8      390      391      394      406
    1042      8      392      391      394      395
    1043      8      392      391      394      406
    1044      8      391      394      395      396
    1045      8      391      394      395      398
    1046      8      406      394      395      396
    1047      8      406      394      395      398
    1048      8      394      395      396      397
    1049      8      394      395      396      407
    1050      8      398      395      396      397
    1051      8      398      395      396      407
    1052      8      395      396      397      390
    1053      8      395      396      397      408
    1054      8      407      396      397      390
    1055      8      407      396      397      408
    1056      7      394      395      398      399
    1057      7      394      395      398      400
    1058      7      396      395      398      399
    1059      7      396      395      398      400
    1060      6      395      398      400      401
    1061      5      399      398      400      401
    1062      9      398      400      401      402
    1063     10      398      400      401      409
    1064     10      398      400      401      410
    1065      4      400      401      402      411
    1066      4      400      401      402      412
    1067      3      400      401      402      413
    1068      4      409      401      402      411
    1069      4      409      401      402      412
    1070      4      409      401      402      413
    1071      4      410      401      402      411
    1072      4      410      401      402      412
    1073      4      410      401      402      413
    1074      8      392      393      388      386
    1075      8      392      393      388      389
    1076      8      405      393      388      386
    1077      8      405      393      388      389
    1078      8      396      397      390      389
    1079      8      396      397      390      391
    1080      8      408      397      390      389
    1081      8      408      397      390      391
    1082     17      368      373      385      386
    1083     18      374      373      385      386
    1084      8      421      413      414      415
    1085     11      421      413      414      422
    1086      8      402      413      414      415
    1087      8      402      413      414      422
    1088      8      413      414      415      416
    1089      8      413      414      415      420
    1090      8      422      414      415      416
    1091      8      422      414      415      420
    1092      1      414      415      416      417
    1093      1      414      415      416      423
    1094      1      414      415      416      424
    1095      1      420      415      416      417
    1096      1      420      415      416      423
    1097      1      420      415      416      424
    1098     12      415      416      417      418
    1099     13      415      416      417      425
    1100     13      415      416      417      426
    1101      4      423      416      417      418
    1102      4      423      416      417      425
    1103      4      423      416      417      426
    1104      4      424      416      417      418
    1105      4      424      416      417      425
    1106      4      424      416      417      426
    1107     12      416      417      418      419
    1108      4      416      417      418      427
    1109      4      416      417      418      428
    1110      4      425      417      418      419
    1111      4      425      417      418      427
    1112      4      425      417      418      428
    1113      4      426      417      418      419
    1114      4      426      417      418      427
    1115      4      426      417      418      428
    1116      4      417      418      419      429
    1117      4      417      418      419      430
    1118      4      417      418      419      431
    1119      4      427      418      419      429
    1120      4      427      418      419      430
    1121      4      427      418      419      431
    1122      4      428      418      419      429
    1123      4      428      418      419      430
    1124      4      428      418      419      431
    1125      8      414      415      420      421
    1126      8      414      415      420      432
    1127      8      416      415      420      421
    1128      8      416      415      420      432
    1129      8      415      420      421      413
    1130      8      432      420      421      413
    1131      8      420      421      413      414
    1132      8      420      421      413      402
    1133      1      401      402      413      414
    1134     14      401      402      413      421
    1135      1      411      402      413      414
    1136     15      411      402      413      421
    1137      1      412      402      413      414
    1138     15      412      402      413      421
    1139     16      420      432      433      434
    1140      6      420      432      433      435
    1141      7      432      433      435      436
    1142      7      432      433      435      440
    1143      7      434      433      435      436
    1144      7      434      433      435      440
    1145      8      433      435      436      437
    1146      8      433      435      436      450
    1147      8      440      435      436      437
    1148      8      440      435      436      450
    1149      8      435      436      437      438
    1150      8      435      436      437      444
    1151      8      450      436      437      438
    1152      8      450      436      437      444
    1153      8      436      437      438      439
    1154      8      436      437      438      441
    1155      8      444      437      438      439
    1156      8      444      437      438      441
    1157      8      437      438      439      440
    1158      8      437      438      439      451
    1159      8      441      438      439      440
    1160      8      441      438      439      451
    1161      8      438      439      440      435
    1162      8      438      439      440      452
    1163      8      451      439      440      435
    1164      8      451      439      440      452
    1165      8      437      438      441      442
    1166      8      437      438      441      453
    1167      8      439      438      441      442
    1168      8      439      438      441      453
    1169      8      438      441      442      443
    1170      8      438      441      442      445
    1171      8      453      441      442      443
    1172      8      453      441      442      445
    1173      8      441      442      443      444
    1174      8      441      442      443      454
    1175      8      445      442      443      444
    1176      8      445      442      443      454
    1177      8      442      443      444      437
    1178      8      442      443      444      455
    1179      8      454      443      444      437
    1180      8      454      443      444      455
    1181      7      441      442      445      446
    1182      7      441      442      445      447
    1183      7      443      442      445      446
    1184      7      443      442      445      447
    1185      6      442      445      447      448
    1186      5      446      445      447      448
    1187      9      445      447      448      449
    1188     10      445      447      448      456
    1189     10      445      447      448      457
    1190      4      447      448      449      458
    1191      4      447      448      449      459
    1192      3      447      448      449      460
    1193      4      456      448      449      458
    1194      4      456      448      449      459
    1195      4      456      448      449      460
    1196      4      457      448      449      458
    1197      4      457      448      449      459
    1198      4      457      448      449      460
    1199      8      439      440      435      433
    1200      8      439      440      435      436
    1201      8      452      440      435      433
    1202      8      452      440      435      436
    1203      8      443      444      437      436
    1204      8      443      444      437      438
    1205      8      455      444      437      436
    1206      8      455      444      437      438
    1207     17      415      420      432      433
    1208     18      421      420      432      433
    1209      8      468      460      461      462
    1210     11      468      460      461      469
    1211      8      449      460      461      462
    1212      8      449      460      461      469
    1213      8      460      461      462      463
    1214      8      460      461      462      467
    1215      8      469      461      462      463
    1216      8      469      461      462      467
    1217      1      461      462      463      464
    1218      1      461      462      463      470
    1219      1      461      462      463      471
    1220      1      467      462      463      464
    1221      1      467      462      463      470
    1222      1      467      462      463      471
    1223     12      462      463      464      465
    1224     13      462      463      464      472
    1225     13      462      463      464      473
    1226      4      470      463      464      465
    1227      4      470      463      464      472
    1228      4      470      463      464      473
    1229      4      471      463      464      465
    1230      4      471      463      464      472
    1231      4      471      463      464      473
    1232     12      463      464      465      466
    1233      4      463      464      465      474
    1234      4      463      464      465      475
    1235      4      472      464      465      466
    1236      4      472      464      465      474
    1237      4      472      464      465      475
    1238      4      473      464      465      466
    1239      4      473      464      465      474
    1240      4      473      464      465      475
    1241      4      464      465      466      476
    1242      4      464      465      466      477
    1243      4      464      465      466      478
    1244      4      474      465      466      476
    1245      4      474      465      466      477
    1246      4      474      465      466      478
    1247      4      475      465      466      476
    1248      4      475      465      466      477
    1249      4      475      465      466      478
    1250      8      461      462      467      468
    1251      8      461      462      467      479
    1252      8      463      462      467      468
    1253      8      463      462      467      479
    1254      8      462      467      468      460
    1255      8      479      467      468      460
    1256      8      467      468      460      461
    1257      8      467      468      460      449
    1258      1      448      449      460      461
    1259     14      448      449      460      468
    1260      1      458      449      460      461
    1261     15      458      449      460      468
    1262      1      459      449      460      461
    1263     15      459      449      460      468
    1264     16      467      479      480      481
    1265      6      467      479      480      482
    1266      7      479      480      482      483
    1267      7      479      480      482      487
    1268      7      481      480      482      483
    1269      7      481      480      482      487
    1270      8      480      482      483      484
    1271      8      480      482      483      497
    1272      8      487      482      483      484
    1273      8      487      482      483      497
    1274      8      482      483      484      485
    1275      8      482      483      484      491
    1276      8      497      483      484      485
    1277      8      497      483      484      491
    1278      8      483      484      485      486
    1279      8      483      484      485      488
    1280      8      491      484      485      486
    1281      8      491      484      485      488
    1282      8      484      485      486      487
    1283      8      484      485      486      498
    1284      8      488      485      486      487
    1285      8      488      485      486      498
    1286      8      485      486      487      482
    1287      8      485      486      487      499
    1288      8      498      486      487      482
    1289      8      498      486      487      499
    1290      8      484      485      488      489
    1291      8      484      485      488      500
    1292      8      486      485      488      489
    1293      8      486      485      488      500
    1294      8      485      488      489      490
    1295      8      485      488      489      492
    1296      8      500      488      489      490
    1297      8      500      488      489      492
    1298      8      488      489      490      491
    1299      8      488      489      490      501
    1300      8      492      489      490      491
    1301      8      492      489      490      501
    1302      8      489      490      491      484
    1303      8      489      490      491      502
    1304      8      501      490      491      484
    1305      8      501      490      491      502
    1306      7      488      489      492      493
    1307      7      488      489      492      494
    1308      7      490      489      492      493
    1309      7      490      489      492      494
    1310      6      489      492      494      495
    1311      5      493      492      494      495
    1312      9      492      494      495      496
    1313     10      492      494      495      503
    1314     10      492      494      495      504
    1315      4      494      495      496      505
    1316      4      494      495      496      506
    1317      3      494      495      496      507
    1318      4      503      495      496      505
    1319      4      503      495      496      506
    1320      4      503      495      496      507
    1321      4      504      495      496      505
    1322      4      504      495      496      506
    1323      4      504      495      496      507
    1324      8      486      487      482      480
    1325      8      486      487      482      483
    1326      8      499      487      482      480
    1327      8      499      487      482      483
    1328      8      490      491      484      483
    1329      8      490      491      484      485
    1330      8      502      491      484      483
    1331      8      502      491      484      485
    1332     17      462      467      479      480
    1333     18      468      467      479      480
    1334      8      515      507      508      509
    1335     11      515      507      508      516
    1336      8      496      507      508      509
    1337      8      496      507      508      516
    1338      8      507      508      509      510
    1339      8      507      508      509      514
    1340      8      516      508      509      510
    1341      8      516      508      509      514
    1342      1      508      509      510      511
    1343      1      508      509      510      517
    1344      1      508      509      510      518
    1345      1      514      509      510      511
    1346      1      514      509      510      517
    1347      1      514      509      510      518
    1348     12      509      510      511      512
    1349     13      509      510      511      519
    1350     13      509      510      511      520
    1351      4      517      510      511      512
    1352      4      517      510      511      519
    1353      4      517      510      511      520
    1354      4      518      510      511      512
    1355      4      518      510      511      519
    1356      4      518      510      511      520
    1357     12      510      511      512      513
    1358      4      510      511      512      521
    1359      4      510      511      512      522
    1360      4      519      511      512      513
    1361      4      519      511      512      521
    1362      4      519      511      512      522
    1363      4      520      511      512      513
    1364      4      520      511      512      521
    1365      4      520      511      512      522
    1366      4      511      512      513      523
    1367      4      511      512      513      524
    1368      4      511      512      513      525
    1369      4      521      512      513      523
    1370      4      521      512      513      524
    1371      4      521      512      513      525
    1372      4      522      512      513      523
    1373      4      522      512      513      524
    1374      4      522      512      513      525
    1375      8      508      509      514      515
    1376      8      508      509      514      526
    1377      8      510      509      514      515
    1378      8      510      509      514      526
    1379      8      509      514      515      507
    1380      8      526      514      515      507
    1381      8      514      515      507      508
    1382      8      514      515      507      496
    1383      1      495      496      507      508
    1384     14      495      496      507      515
    1385      1      505      496      507      508
    1386     15      505      496      507      515
    1387      1      506      496      507      508
    1388     15      506      496      507      515
    1389     16      514      526      527      528
    1390      6      514      526      527      529
    1391      7      526      527      529      530
    1392      7      526      527      529      534
    1393      7      528      527      529      530
    1394      7      528      527      529      534
    1395      8      527      529      530      531
    1396      8      527      529      530      544
    1397      8      534      529      530      531
    1398      8      534      529      530      544
    1399      8      529      530      531      532
    1400      8      529      530      531      538
    1401      8      544      530      531      532
    1402      8      544      530      531      538
    1403      8      530      531      532      533
    1404      8      530      531      532      535
    1405      8      538      531      532      533
    1406      8      538      531      532      535
    1407      8      531      532      533      534
    1408      8      531      532      533      545
    1409      8      535      532      533      534
    1410      8      535      532      533      545
    1411      8      532      533      534      529
    1412      8      532      533      534      546
    1413      8      545      533      534      529
    1414      8      545      533      534      546
    1415      8      531      532      535      536
    1416      8      531      532      535      547
    1417      8      533      532      535      536
    1418      8      533      532      535      547
    1419      8      532      535      536      537
    1420      8      532      535      536      539
    1421      8      547      535      536      537
    1422      8      547      535      536      539
    1423      8      535      536      537      538
    1424      8      535      536      537      548
    1425      8      539      536      537      538
    1426      8      539      536      537      548
    1427      8      536      537      538      531
    1428      8      536      537      538      549
    1429      8      548      537      538      531
    1430      8      548      537      538      549
    1431      7      535      536      539      540
    1432      7      535      536      539      541
    1433      7      537      536      539      540
    1434      7      537      536      539      541
    1435      6      536      539      541      542
    1436      5      540      539      541      542
    1437      9      539      541      542      543
    1438     10      539      541      542      550
    1439     10      539      541      542      551
    1440      4      541      542      543      552
    1441      4      541      542      543      553
    1442      3      541      542      543      554
    1443      4      550      542      543      552
    1444      4      550      542      543      553
    1445      4      550      542      543      554
    1446      4      551      542      543      552
    1447      4      551      542      543      553
    1448      4      551      542      543      554
    1449      8      533      534      529      527
    1450      8      533      534      529      530
    1451      8      546      534      529      527
    1452      8      546      534      529      530
    1453      8      537      538      531      530
    1454      8      537      538      531      532
    1455      8      549      538      531      530
    1456      8      549      538      531      532
    1457     17      509      514      526      527
    1458     18      515      514      526      527
    1459      8      562      554      555      556
    1460     11      562      554      555      563
    1461      8      543      554      555      556
    1462      8      543      554      555      563
    1463      8      554      555      556      557
    1464      8      554      555      556      561
    1465      8      563      555      556      557
    1466      8      563      555      556      561
    1467      1      555      556      557      558
    1468      1      555      556      557      564
    1469      1      555      556      557      565
    1470      1      561      556      557      558
    1471      1      561      556      557      564
    1472      1      561      556      557      565
    1473     12      556      557      558      559
    1474     13      556      557      558      566
    1475     13      556      557      558      567
    1476      4      564      557      558      559
    1477      4      564      557      558      566
    1478      4      564      557      558      567
    1479      4      565      557      558      559
    1480      4      565      557      558      566
    1481      4      565      557      558      567
    1482     12      557      558      559      560
    1483      4      557      558      559      568
    1484      4      557      558      559      569
    1485      4      566      558      559      560
    1486      4      566      558      559      568
    1487      4      566      558      559      569
    1488      4      567      558      559      560
    1489      4      567      558      559      568
    1490      4      567      558      559      569
    1491      4      558      559      560      570
    1492      4      558      559      560      571
    1493      4      558      559      560      572
    1494      4      568      559      560      570
    1495      4      568      559      560      571
    1496      4      568      559      560      572
    1497      4      569      559      560      570
    1498      4      569      559      560      571
    1499      4      569      559      560      572
    1500      8      555      556      561      562
    1501      8      555      556      561      573
    1502      8      557      556      561      562
    1503      8      557      556      561      573
    1504      8      556      561      562      554
    1505      8      573      561      562      554
    1506      8      561      562      554      555
    1507      8      561      562      554      543
    1508      1      542      543      554      555
    1509     14      542      543      554      562
    1510      1      552      543      554      555
    1511     15      552      543      554      562
    1512      1      553      543      554      555
    1513     15      553      543      554      562
    1514     16      561      573      574      575
    1515      6      561      573      574      576
    1516      7      573      574      576      577
    1517      7      573      574      576      581
    1518      7      575      574      576      577
    1519      7      575      574      576      581
    1520      8      574      576      577      578
    1521      8      574      576      577      591
    1522      8      581      576      577      578
    1523      8      581      576      577      591
    1524      8      576      577      578      579
    1525      8      576      577      578      585
    1526      8      591      577      578      579
    1527      8      591      577      578      585
    1528      8      577      578      579      580
    1529      8      577      578      579      582
    1530      8      585      578      579      580
    1531      8      585      578      579      582
    1532      8      578      579      580      581
    1533      8      578      579      580      592
    1534      8      582      579      580      581
    1535      8      582      579      580      592
    1536      8      579      580      581      576
    1537      8      579      580      581      593
    1538      8      592      580      581      576
    1539      8      592      580      581      593
    1540      8      578      579      582      583
    1541      8      578      579      582      594
    1542      8      580      579      582      583
    1543      8      580      579      582      594
    1544      8      579      582      583      584
    1545      8      579      582      583      586
    1546      8      594      582      583      584
    1547      8      594      582      583      586
    1548      8      582      583      584      585
    1549      8      582      583      584      595
    1550      8      586      583      584      585
    1551      8      586      583      584      595
    1552      8      583      584      585      578
    1553      8      583      584      585      596
    1554      8      595      584      585      578
    1555      8      595      584      585      596
    1556      7      582      583      586      587
    1557      7      582      583      586      588
    1558      7      584      583      586      587
    1559      7      584      583      586      588
    1560      6      583      586      588      589
    1561      5      587      586      588      589
    1562      9      586      588      589      590
    1563     10      586      588      589      597
    1564     10      586      588      589      598
    1565      4      588      589      590      599
    1566      4      588      589      590      600
    1567      3      588      589      590      601
    1568      4      597      589      590      599
    1569      4      597      589      590      600
    1570      4      597      589      590      601
    1571      4      598      589      590      599
    1572      4      598      589      590      600
    1573      4      598      589      590      601
    1574      8      580      581      576      574
    1575      8      580      581      576      577
    1576      8      593      581      576      574
    1577      8      593      581      576      577
    1578      8      584      585      578      577
    1579      8      584      585      578      579
    1580      8      596      585      578      577
    1581      8      596      585      578      579
    1582     17      556      561      573      574
    1583     18      562      561      573      574
    1584      8      609      601      602      603
    1585     11      609      601      602      610
    1586      8      590      601      602      603
    1587      8      590      601      602      610
    1588      8      601      602      603      604
    1589      8      601      602      603      608
    1590      8      610      602      603      604
    1591      8      610      602      603      608
    1592      1      602      603      604      605
    1593      1      602      603      604      611
    1594      1      602      603      604      612
    1595      1      608      603      604      605
    1596      1      608      603      604      611
    1597      1      608      603      604      612
    1598     12      603      604      605      606
    1599     13      603      604      605      613
    1600     13      603      604      605      614
    1601      4      611      604      605      606
    1602      4      611      604      605      613
    1603      4      611      604      605      614
    1604      4      612      604      605      606
    1605      4      612      604      605      613
    1606      4      612      604      605      614
    1607     12      604      605      606      607
    1608      4      604      605      606      615
    1609      4      604      605      606      616
    1610      4      613      605      606      607
    1611      4      613      605      606      615
    1612      4      613      605      606      616
    1613      4      614      605      606      607
    1614      4      614      605      606      615
    1615      4      614      605      606      616
    1616      4      605      606      607      617
    1617      4      605      606      607      618
    1618      4      605      606      607      619
    1619      4      615      606      607      617
    1620      4      615      606      607      618
    1621      4      615      606      607      619
    1622      4      616      606      607      617
    1623      4      616      606      607      618
    1624      4      616      606      607      619
    1625      8      602      603      608      609
    1626      8      602      603      608      620
    1627      8      604      603      608      609
    1628      8      604      603      608      620
    1629      8      603      608      609      601
    1630      8      620      608      609      601
    1631      8      608      609      601      602
    1632      8      608      609      601      590
    1633      1      589      590      601      602
    1634     14      589      590      601      609
    1635      1      599      590      601      602
    1636     15      599      590      601      609
    1637      1      600      590      601      602
    1638     15      600      590      601      609
    1639     16      608      620      621      622
    1640      6      608      620      621      623
    1641      7      620      621      623      624
    1642      7      620      621      623      628
    1643      7      622      621      623      624
    1644      7      622      621      623      628
    1645      8      621      623      624      625
    1646      8      621      623      624      638
    1647      8      628      623      624      625
    1648      8      628      623      624      638
    1649      8      623      624      625      626
    1650      8      623      624      625      632
    1651      8      638      624      625      626
    1652      8      638      624      625      632
    1653      8      624      625      626      627
    1654      8      624      625      626      629
    1655      8      632      625      626      627
    1656      8      632      625      626      629
    1657      8      625      626      627      628
    1658      8      625      626      627      639
    1659      8      629      626      627      628
    1660      8      629      626      627      639
    1661      8      626      627      628      623
    1662      8      626      627      628      640
    1663      8      639      627      628      623
    1664      8      639      627      628      640
    1665      8      625      626      629      630
    1666      8      625      626      629      641
    1667      8      627      626      629      630
    1668      8      627      626      629      641
    1669      8      626      629      630      631
    1670      8      626      629      630      633
    1671      8      641      629      630      631
    1672      8      641      629      630      633
    1673      8      629      630      631      632
    1674      8      629      630      631      642
    1675      8      633      630      631      632
    1676      8      633      630      631      642
    1677      8      630      631      632      625
    1678      8      630      631      632      643
    1679      8      642      631      632      625
    1680      8      642      631      632      643
    1681      7      629      630      633      634
    1682      7      629      630      633      635
    1683      7      631      630      633      634
    1684      7      631      630      633      635
    1685      6      630      633      635      636
    1686      5      634      633      635      636
    1687      9      633      635      636      637
    1688     10      633      635      636      644
    1689     10      633      635      636      645
    1690      4      635      636      637      646
    1691      4      635      636      637      647
    1692      3      635      636      637      648
    1693      4      644      636      637      646
    1694      4      644      636      637      647
    1695      4      644      636      637      648
    1696      4      645      636      637      646
    1697      4      645      636      637      647
    1698      4      645      636      637      648
    1699      8      627      628      623      621
    1700      8      627      628      623      624
    1701      8      640      628      623      621
    1702      8      640      628      623      624
    1703      8      631      632      625      624
    1704      8      631      632      625      626
    1705      8      643      632      625      624
    1706      8      643      632      625      626
    1707     17      603      608      620      621
    1708     18      609      608      620      621
    1709      8      656      648      649      650
    1710     11      656      648      649      657
    1711      8      637      648      649      650
    1712      8      637      648      649      657
    1713      8      648      649      650      651
    1714      8      648      649      650      655
    1715      8      657      649      650      651
    1716      8      657      649      650      655
    1717      1      649      650      651      652
    1718      1      649      650      651      658
    1719      1      649      650      651      659
    1720      1      655      650      651      652
    1721      1      655      650      651      658
    1722      1      655      650      651      659
    1723     12      650      651      652      653
    1724     13      650      651      652      660
    1725     13      650      651      652      661
    1726      4      658      651      652      653
    1727      4      658      651      652      660
    1728      4      658      651      652      661
    1729      4      659      651      652      653
    1730      4      659      651      652      660
    1731      4      659      651      652      661
    1732     12      651      652      653      654
    1733      4      651      652      653      662
    1734      4      651      652      653      663
    1735      4      660      652      653      654
    1736      4      660      652      653      662
    1737      4      660      652      653      663
    1738      4      661      652      653      654
    1739      4      661      652      653      662
    1740      4      661      652      653      663
    1741      4      652      653      654      664
    1742      4      652      653      654      665
    1743      4      652      653      654      666
    1744      4      662      653      654      664
    1745      4      662      653      654      665
    1746      4      662      653      654      666
    1747      4      663      653      654      664
    1748      4      663      653      654      665
    1749      4      663      653      654      666
    1750      8      649      650      655      656
    1751      8      649      650      655      667
    1752      8      651      650      655      656
    1753      8      651      650      655      667
    1754      8      650      655      656      648
    1755      8      667      655      656      648
    1756      8      655      656      648      649
    1757      8      655      656      648      637
    1758      1      636      637      648      649
    1759     14      636      637      648      656
    1760      1      646      637      648      649
    1761     15      646      637      648      656
    1762      1      647      637      648      649
    1763     15      647      637      648      656
    1764     16      655      667      668      669
    1765      6      655      667      668      670
    1766      7      667      668      670      671
    1767      7      667      668      670      675
    1768      7      669      668      670      671
    1769      7      669      668      670      675
    1770      8      668      670      671      672
    1771      8      668      670      671      685
    1772      8      675      670      671      672
    1773      8      675      670      671      685
    1774      8      670      671      672      673
    1775      8      670      671      672      679
    1776      8      685      671      672      673
    1777      8      685      671      672      679
    1778      8      671      672      673      674
    1779      8      671      672      673      676
    1780      8      679      672      673      674
    1781      8      679      672      673      676
    1782      8      672      673      674      675
    1783      8      672      673      674      686
    1784      8      676      673      674      675
    1785      8      676      673      674      686
    1786      8      673      674      675      670
    1787      8      673      674      675      687
    1788      8      686      674      675      670
    1789      8      686      674      675      687
    1790      8      672      673      676      677
    1791      8      672      673      676      688
    1792      8      674      673      676      677
    1793      8      674      673      676      688
    1794      8      673      676      677      678
    1795      8      673      676      677      680
    1796      8      688      676      677      678
    1797      8      688      676      677      680
    1798      8      676      677      678      679
    1799      8      676      677      678      689
    1800      8      680      677      678      679
    1801      8      680      677      678      689
    1802      8      677      678      679      672
    1803      8      677      678      679      690
    1804      8      689      678      679      672
    1805      8      689      678      679      690
    1806      7      676      677      680      681
    1807      7      676      677      680      682
    1808      7      678      677      680      681
    1809      7      678      677      680      682
    1810      6      677      680      682      683
    1811      5      681      680      682      683
    1812      9      680      682      683      684
    1813     10      680      682      683      691
    1814     10      680      682      683      692
    1815      4      682      683      684      693
    1816      4      682      683      684      694
    1817      3      682      683      684      695
    1818      4      691      683      684      693
    1819      4      691      683      684      694
    1820      4      691      683      684      695
    1821      4      692      683      684      693
    1822      4      692      683      684      694
    1823      4      692      683      684      695
    1824      8      674      675      670      668
    1825      8      674      675      670      671
    1826      8      687      675      670      668
    1827      8      687      675      670      671
    1828      8      678      679      672      671
    1829      8      678      679      672      673
    1830      8      690      679      672      671
    1831      8      690      679      672      673
    1832     17      650      655      667      668
    1833     18      656      655      667      668
    1834      8      703      695      696      697
    1835     11      703      695      696      704
    1836      8      684      695      696      697
    1837      8      684      695      696      704
    1838      8      695      696      697      698
    1839      8      695      696      697      702
    1840      8      704      696      697      698
    1841      8      704      696      697      702
    1842      1      696      697      698      699
    1843      1      696      697      698      705
    1844      1      696      697      698      706
    1845      1      702      697      698      699
    1846      1      702      697      698      705
    1847      1      702      697      698      706
    1848     12      697      698      699      700
    1849     13      697      698      699      707
    1850     13      697      698      699      708
    1851      4      705      698      699      700
    1852      4      705      698      699      707
    1853      4      705      698      699      708
    1854      4      706      698      699      700
    1855      4      706      698      699      707
    1856      4      706      698      699      708
    1857     12      698      699      700      701
    1858      4      698      699      700      709
    1859      4      698      699      700      710
    1860      4      707      699      700      701
    1861      4      707      699      700      709
    1862      4      707      699      700      710
    1863      4      708      699      700      701
    1864      4      708      699      700      709
    1865      4      708      699      700      710
    1866      4      699      700      701      711
    1867      4      699      700      701      712
    1868      4      699      700      701      713
    1869      4      709      700      701      711
    1870      4      709      700      701      712
    1871      4      709      700      701      713
    1872      4      710      700      701      711
    1873      4      710      700      701      712
    1874      4      710      700      701      713
    1875      8      696      697      702      703
    1876      8      696      697      702      714
    1877      8      698      697      702      703
    1878      8      698      697      702      714
    1879      8      697      702      703      695
    1880      8      714      702      703      695
    1881      8      702      703      695      696
    1882      8      702      703      695      684
    1883      1      683      684      695      696
    1884     14      683      684      695      703
    1885      1      693      684      695      696
    1886     15      693      684      695      703
    1887      1      694      684      695      696
    1888     15      694      684      695      703
    1889     16      702      714      715      716
    1890      6      702      714      715      717
    1891      7      714      715      717      718
    1892      7      714      715      717      722
    1893      7      716      715      717      718
    1894      7      716      715      717      722
    1895      8      715      717      718      719
    1896      8      715      717      718      732
    1897      8      722      717      718      719
    1898      8      722      717      718      732
    1899      8      717      718      719      720
    1900      8      717      718      719      726
    1901      8      732      718      719      720
    1902      8      732      718      719      726
    1903      8      718      719      720      721
    1904      8      718      719      720      723
    1905      8      726      719      720      721
    1906      8      726      719      720      723
    1907      8      719      720      721      722
    1908      8      719      720      721      733
    1909      8      723      720      721      722
    1910      8      723      720      721      733
    1911      8      720      721      722      717
    1912      8      720      721      722      734
    1913      8      733      721      722      717
    1914      8      733      721      722      734
    1915      8      719      720      723      724
    1916      8      719      720      723      735
    1917      8      721      720      723      724
    1918      8      721      720      723      735
    1919      8      720      723      724      725
    1920      8      720      723      724      727
    1921      8      735      723      724      725
    1922      8      735      723      724      727
    1923      8      723      724      725      726
    1924      8      723      724      725      736
    1925      8      727      724      725      726
    1926      8      727      724      725      736
    1927      8      724      725      726      719
    1928      8      724      725      726      737
    1929      8      736      725      726      719
    1930      8      736      725      726      737
    1931      7      723      724      727      728
    1932      7      723      724      727      729
    1933      7      725      724      727      728
    1934      7      725      724      727      729
    1935      6      724      727      729      730
    1936      5      728      727      729      730
    1937      9      727      729      730      731
    1938     10      727      729      730      738
    1939     10      727      729      730      739
    1940      4      729      730      731      740
    1941      4      729      730      731      741
    1942      3      729      730      731      742
    1943      4      738      730      731      740
    1944      4      738      730      731      741
    1945      4      738      730      731      742
    1946      4      739      730      731      740
    1947      4      739      730      731      741
    1948      4      739      730      731      742
    1949      8      721      722      717      715
    1950      8      721      722      717      718
    1951      8      734      722      717      715
    1952      8      734      722      717      718
    1953      8      725      726      719      718
    1954      8      725      726      719      720
    1955      8      737      726      719      718
    1956      8      737      726      719      720
    1957     17      697      702      714      715
    1958     18      703      702      714      715
    1959      8      750      742      743      744
    1960     11      750      742      743      751
    1961      8      731      742      743      744
    1962      8      731      742      743      751
    1963      8      742      743      744      745
    1964      8      742      743      744      749
    1965      8      751      743      744      745
    1966      8      751      743      744      749
    1967      1      743      744      745      746
    1968      1      743      744      745      752
    1969      1      743      744      745      753
    1970      1      749      744      745      746
    1971      1      749      744      745      752
    1972      1      749      744      745      753
    1973     12      744      745      746      747
    1974     13      744      745      746      754
    1975     13      744      745      746      755
    1976      4      752      745      746      747
    1977      4      752      745      746      754
    1978      4      752      745      746      755
    1979      4      753      745      746      747
    1980      4      753      745      746      754
    1981      4      753      745      746      755
    1982     12      745      746      747      748
    1983      4      745      746      747      756
    1984      4      745      746      747      757
    1985      4      754      746      747      748
    1986      4      754      746      747      756
    1987      4      754      746      747      757
    1988      4      755      746      747      748
    1989      4      755      746      747      756
    1990      4      755      746      747      757
    1991      4      746      747      748      758
    1992      4      746      747      748      759
    1993      4      746      747      748      760
    1994      4      756      747      748      758
    1995      4      756      747      748      759
    1996      4      756      747      748      760
    1997      4      757      747      748      758
    1998      4      757      747      748      759
    1999      4      757      747      748      760
    2000      8      743      744      749      750
    2001      8      743      744      749      761
    2002      8      745      744      749      750
    2003      8      745      744      749      761
    2004      8      744      749      750      742
    2005      8      761      749      750      742
    2006      8      749      750      742      743
    2007      8      749      750      742      731
    2008      1      730      731      742      743
    2009     14      730      731      742      750
    2010      1      740      731      742      743
    2011     15      740      731      742      750
    2012      1      741      731      742      743
    2013     15      741      731      742      750
    2014     16      749      761      762      763
    2015      6      749      761      762      764
    2016      7      761      762      764      765
    2017      7      761      762      764      769
    2018      7      763      762      764      765
    2019      7      763      762      764      769
    2020      8      762      764      765      766
    2021      8      762      764      765      779
    2022      8      769      764      765      766
    2023      8      769      764      765      779
    2024      8      764      765      766      767
    2025      8      764      765      766      773
    2026      8      779      765      766      767
    2027      8      779      765      766      773
    2028      8      765      766      767      768
    2029      8      765      766      767      770
    2030      8      773      766      767      768
    2031      8      773      766      767      770
    2032      8      766      767      768      769
    2033      8      766      767      768      780
    2034      8      770      767      768      769
    2035      8      770      767      768      780
    2036      8      767      768      769      764
    2037      8      767      768      769      781
    2038      8      780      768      769      764
    2039      8      780      768      769      781
    2040      8      766      767      770      771
    2041      8      766      767      770      782
    2042      8      768      767      770      771
    2043      8      768      767      770      782
    2044      8      767      770      771      772
    2045      8      767      770      771      774
    2046      8      782      770      771      772
    2047      8      782      770      771      774
    2048      8      770      771      772      773
    2049      8      770      771      772      783
    2050      8      774      771      772      773
    2051      8      774      771      772      783
    2052      8      771      772      773      766
    2053      8      771      772      773      784
    2054      8      783      772      773      766
    2055      8      783      772      773      784
    2056      7      770      771      774      775
    2057      7      770      771      774      776
    2058      7      772      771      774      775
    2059      7      772      771      774      776
    2060      6      771      774      776      777
    2061      5      775      774      776      777
    2062      9      774      776      777      778
    2063     10      774      776      777      785
    2064     10      774      776      777      786
    2065      4      776      777      778      787
    2066      4      776      777      778      788
    2067      3      776      777      778      789
    2068      4      785      777      778      787
    2069      4      785      777      778      788
    2070      4      785      777      778      789
    2071      4      786      777      778      787
    2072      4      786      777      778      788
    2073      4      786      777      778      789
    2074      8      768      769      764      762
    2075      8      768      769      764      765
    2076      8      781      769      764      762
    2077      8      781      769      764      765
    2078      8      772      773      766      765
    2079      8      772      773      766      767
    2080      8      784      773      766      765
    2081      8      784      773      766      767
    2082     17      744      749      761      762
    2083     18      750      749      761      762
    2084      8      797      789      790      791
    2085     11      797      789      790      798
    2086      8      778      789      790      791
    2087      8      778      789      790      798
    2088      8      789      790      791      792
    2089      8      789      790      791      796
    2090      8      798      790      791      792
    2091      8      798      790      791      796
    2092      1      790      791      792      793
    2093      1      790      791      792      799
    2094      1      790      791      792      800
    2095      1      796      791      792      793
    2096      1      796      791      792      799
    2097      1      796      791      792      800
    2098     12      791      792      793      794
    2099     13      791      792      793      801
    2100     13      791      792      793      802
    2101      4      799      792      793      794
    2102      4      799      792      793      801
    2103      4      799      792      793      802
    2104      4      800      792      793      794
    2105      4      800      792      793      801
    2106      4      800      792      793      802
    2107     12      792      793      794      795
    2108      4      792      793      794      803
    2109      4      792      793      794      804
    2110      4      801      793      794      795
    2111      4      801      793      794      803
    2112      4      801      793      794      804
    2113      4      802      793      794      795
    2114      4      802      793      794      803
    2115      4      802      793      794      804
    2116      4      793      794      795      805
    2117      4      793      794      795      806
    2118      4      793      794      795      807
    2119      4      803      794      795      805
    2120      4      803      794      795      806
    2121      4      803      794      795      807
    2122      4      804      794      795      805
    2123      4      804      794      795      806
    2124      4      804      794      795      807
    2125      8      790      791      796      797
    2126      8      790      791      796      808
    2127      8      792      791      796      797
    2128      8      792      791      796      808
    2129      8      791      796      797      789
    2130      8      808      796      797      789
    2131      8      796      797      789      790
    2132      8      796      797      789      778
    2133      1      777      778      789      790
    2134     14      777      778      789      797
    2135      1      787      778      789      790
    2136     15      787      778      789      797
    2137      1      788      778      789      790
    2138     15      788      778      789      797
    2139     16      796      808      809      810
    2140      6      796      808      809      811
    2141      7      808      809      811      812
    2142      7      808      809      811      816
    2143      7      810      809      811      812
    2144      7      810      809      811      816
    2145      8      809      811      812      813
    2146      8      809      811      812      826
    2147      8      816      811      812      813
    2148      8      816      811      812      826
    2149      8      811      812      813      814
    2150      8      811      812      813      820
    2151      8      826      812      813      814
    2152      8      826      812      813      820
    2153      8      812      813      814      815
    2154      8      812      813      814      817
    2155      8      820      813      814      815
    2156      8      820      813      814      817
    2157      8      813      814      815      816
    2158      8      813      814      815      827
    2159      8      817      814      815      816
    2160      8      817      814      815      827
    2161      8      814      815      816      811
    2162      8      814      815      816      828
    2163      8      827      815      816      811
    2164      8      827      815      816      828
    2165      8      813      814      817      818
    2166      8      813      814      817      829
    2167      8      815      814      817      818
    2168      8      815      814      817      829
    2169      8      814      817      818      819
    2170      8      814      817      818      821
    2171      8      829      817      818      819
    2172      8      829      817      818      821
    2173      8      817      818      819      820
    2174      8      817      818      819      830
    2175      8      821      818      819      820
    2176      8      821      818      819      830
    2177      8      818      819      820      813
    2178      8      818      819      820      831
    2179      8      830      819      820      813
    2180      8      830      819      820      831
    2181      7      817      818      821      822
    2182      7      817      818      821      823
    2183      7      819      818      821      822
    2184      7      819      818      821      823
    2185      6      818      821      823      824
    2186      5      822      821      823      824
    2187      9      821      823      824      825
    2188     10      821      823      824      832
    2189     10      821      823      824      833
    2190      4      823      824      825      834
    2191      4      823      824      825      835
    2192      3      823      824      825      836
    2193      4      832      824      825      834
    2194      4      832      824      825      835
    2195      4      832      824      825      836
    2196      4      833      824      825      834
    2197      4      833      824      825      835
    2198      4      833      824      825      836
    2199      8      815      816      811      809
    2200      8      815      816      811      812
    2201      8      828      816      811      809
    2202      8      828      816      811      812
    2203      8      819      820      813      812
    2204      8      819      820      813      814
    2205      8      831      820      813      812
    2206      8      831      820      813      814
    2207     17      791      796      808      809
    2208     18      797      796      808      809
    2209      8      844      836      837      838
    2210     11      844      836      837      845
    2211      8      825      836      837      838
    2212      8      825      836      837      845
    2213      8      836      837      838      839
    2214      8      836      837      838      843
    2215      8      845      837      838      839
    2216      8      845      837      838      843
    2217      1      837      838      839      840
    2218      1      837      838      839      846
    2219      1      837      838      839      847
    2220      1      843      838      839      840
    2221      1      843      838      839      846
    2222      1      843      838      839      847
    2223     12      838      839      840      841
    2224     13      838      839      840      848
    2225     13      838      839      840      849
    2226      4      846      839      840      841
    2227      4      846      839      840      848
    2228      4      846      839      840      849
    2229      4      847      839      840      841
    2230      4      847      839      840      848
    2231      4      847      839      840      849
    2232     12      839      840      841      842
    2233      4      839      840      841      850
    2234      4      839      840      841      851
    2235      4      848      840      841      842
    2236      4      848      840      841      850
    2237      4      848      840      841      851
    2238      4      849      840      841      842
    2239      4      849      840      841      850
    2240      4      849      840      841      851
    2241      4      840      841      842      852
    2242      4      840      841      842      853
    2243      4      840      841      842      854
    2244      4      850      841      842      852
    2245      4      850      841      842      853
    2246      4      850      841      842      854
    2247      4      851      841      842      852
    2248      4      851      841      842      853
    2249      4      851      841      842      854
    2250      8      837      838      843      844
    2251      8      837      838      843      855
    2252      8      839      838      843      844
    2253      8      839      838      843      855
    2254      8      838      843      844      836
    2255      8      855      843      844      836
    2256      8      843      844      836      837
    2257      8      843      844      836      825
    2258      1      824      825      836      837
    2259     14      824      825      836      844
    2260      1      834      825      836      837
    2261     15      834      825      836      844
    2262      1      835      825      836      837
    2263     15      835      825      836      844
    2264     16      843      855      856      857
    2265      6      843      855      856      858
    2266      7      855      856      858      859
    2267      7      855      856      858      863
    2268      7      857      856      858      859
    2269      7      857      856      858      863
    2270      8      856      858      859      860
    2271      8      856      858      859      873
    2272      8      863      858      859      860
    2273      8      863      858      859      873
    2274      8      858      859      860      861
    2275      8      858      859      860      867
    2276      8      873      859      860      861
    2277      8      873      859      860      867
    2278      8      859      860      861      862
    2279      8      859      860      861      864
    2280      8      867      860      861      862
    2281      8      867      860      861      864
    2282      8      860      861      862      863
    2283      8      860      861      862      874
    2284      8      864      861      862      863
    2285      8      864      861      862      874
    2286      8      861      862      863      858
    2287      8      861      862      863      875
    2288      8      874      862      863      858
    2289      8      874      862      863      875
    2290      8      860      861      864      865
    2291      8      860      861      864      876
    2292      8      862      861      864      865
    2293      8      862      861      864      876
    2294      8      861      864      865      866
    2295      8      861      864      865      868
    2296      8      876      864      865      866
    2297      8      876      864      865      868
    2298      8      864      865      866      867
    2299      8      864      865      866      877
    2300      8      868      865      866      867
    2301      8      868      865      866      877
    2302      8      865      866      867      860
    2303      8      865      866      867      878
    2304      8      877      866      867      860
    2305      8      877      866      867      878
    2306      7      864      865      868      869
    2307      7      864      865      868      870
    2308      7      866      865      868      869
    2309      7      866      865      868      870
    2310      6      865      868      870      871
    2311      5      869      868      870      871
    2312      9      868      870      871      872
    2313     10      868      870      871      879
    2314     10      868      870      871      880
    2315      4      870      871      872      881
    2316      4      870      871      872      882
    2317      3      870      871      872      883
    2318      4      879      871      872      881
    2319      4      879      871      872      882
    2320      4      879      871      872      883
    2321      4      880      871      872      881
    2322      4      880      871      872      882
    2323      4      880      871      872      883
    2324      8      862      863      858      856
    2325      8      862      863      858      859
    2326      8      875      863      858      856
    2327      8      875      863      858      859
    2328      8      866      867      860      859
    2329      8      866      867      860      861
    2330      8      878      867      860      859
    2331      8      878      867      860      861
    2332     17      838      843      855      856
    2333     18      844      843      855      856
    2334      8      891      883      884      885
    2335     11      891      883      884      892
    2336      8      872      883      884      885
    2337      8      872      883      884      892
    2338      8      883      884      885      886
    2339      8      883      884      885      890
    2340      8      892      884      885      886
    2341      8      892      884      885      890
    2342      1      884      885      886      887
    2343      1      884      885      886      893
    2344      1      884      885      886      894
    2345      1      890      885      886      887
    2346      1      890      885      886      893
    2347      1      890      885      886      894
    2348     12      885      886      887      888
    2349     13      885      886      887      895
    2350     13      885      886      887      896
    2351      4      893      886      887      888
    2352      4      893      886      887      895
    2353      4      893      886      887      896
    2354      4      894      886      887      888
    2355      4      894      886      887      895
    2356      4      894      886      887      896
    2357     12      886      887      888      889
    2358      4      886      887      888      897
    2359      4      886      887      888      898
    2360      4      895      887      888      889
    2361      4      895      887      888      897
    2362      4      895      887      888      898
    2363      4      896      887      888      889
    2364      4      896      887      888      897
    2365      4      896      887      888      898
    2366      4      887      888      889      899
    2367      4      887      888      889      900
    2368      4      887      888      889      901
    2369      4      897      888      889      899
    2370      4      897      888      889      900
    2371      4      897      888      889      901
    2372      4      898      888      889      899
    2373      4      898      888      889      900
    2374      4      898      888      889      901
    2375      8      884      885      890      891
    2376      8      884      885      890      905
    2377      8      886      885      890      891
    2378      8      886      885      890      905
    2379      8      885      890      891      883
    2380      8      905      890      891      883
    2381      8      890      891      883      884
    2382      8      890      891      883      872
    2383      1      871      872      883      884
    2384     14      871      872      883      891
    2385      1      881      872      883      884
    2386     15      881      872      883      891
    2387      1      882      872      883      884
    2388     15      882      872      883      891
    2389      1      902      903      904      905
    2390      1      902      903      904      906
    2391      1      902      903      904      907
    2392      2      903      904      905      908
    2393      2      903      904      905      909
    2394     19      903      904      905      890
    2395      4      906      904      905      908
    2396      4      906      904      905      909
    2397      4      906      904      905      890
    2398      4      907      904      905      908
    2399      4      907      904      905      909
    2400      4      907      904      905      890
    2401      1      885      890      905      904
    2402      1      885      890      905      908
    2403      1      885      890      905      909
    2404     14      891      890      905      904
    2405     15      891      890      905      908
    2406     15      891      890      905      909

Impropers

       1      1       10       12       11        9
       2      2       12       10       13       17
       3      2       13       12       14       27
       4      2       14       13       21       15
       5      2       15       16       18       14
       6      2       16       17       15       28
       7      2       17       12       16       29
       8      2       18       19       15       30
       9      2       19       22       18       20
      10      2       20       19       21       31
      11      2       21       20       14       32
      12      1       22       19       23       24
      13      2       37       38       26       45
      14      2       38       37       39       46
      15      2       39       44       38       40
      16      2       44       39       56       45
      17      1       57       59       58       56
      18      2       59       57       60       64
      19      2       60       59       61       74
      20      2       61       60       68       62
      21      2       62       63       65       61
      22      2       63       64       62       75
      23      2       64       59       63       76
      24      2       65       66       62       77
      25      2       66       69       65       67
      26      2       67       66       68       78
      27      2       68       67       61       79
      28      1       69       66       70       71
      29      2       84       85       73       92
      30      2       85       84       86       93
      31      2       86       91       85       87
      32      2       91       86      103       92
      33      1      104      106      105      103
      34      2      106      104      107      111
      35      2      107      106      108      121
      36      2      108      107      115      109
      37      2      109      110      112      108
      38      2      110      111      109      122
      39      2      111      106      110      123
      40      2      112      113      109      124
      41      2      113      116      112      114
      42      2      114      113      115      125
      43      2      115      114      108      126
      44      1      116      113      117      118
      45      2      131      132      120      139
      46      2      132      131      133      140
      47      2      133      138      132      134
      48      2      138      133      150      139
      49      1      151      153      152      150
      50      2      153      151      154      158
      51      2      154      153      155      168
      52      2      155      154      162      156
      53      2      156      157      159      155
      54      2      157      158      156      169
      55      2      158      153      157      170
      56      2      159      160      156      171
      57      2      160      163      159      161
      58      2      161      160      162      172
      59      2      162      161      155      173
      60      1      163      160      164      165
      61      2      178      179      167      186
      62      2      179      178      180      187
      63      2      180      185      179      181
      64      2      185      180      197      186
      65      1      198      200      199      197
      66      2      200      198      201      205
      67      2      201      200      202      215
      68      2      202      201      209      203
      69      2      203      204      206      202
      70      2      204      205      203      216
      71      2      205      200      204      217
      72      2      206      207      203      218
      73      2      207      210      206      208
      74      2      208      207      209      219
      75      2      209      208      202      220
      76      1      210      207      211      212
      77      2      225      226      214      233
      78      2      226      225      227      234
      79      2      227      232      226      228
      80      2      232      227      244      233
      81      1      245      247      246      244
      82      2      247      245      248      252
      83      2      248      247      249      262
      84      2      249      248      256      250
      85      2      250      251      253      249
      86      2      251      252      250      263
      87      2      252      247      251      264
      88      2      253      254      250      265
      89      2      254      257      253      255
      90      2      255      254      256      266
      91      2      256      255      249      267
      92      1      257      254      258      259
      93      2      272      273      261      280
      94      2      273      272      274      281
      95      2      274      279      273      275
      96      2      279      274      291      280
      97      1      292      294      293      291
      98      2      294      292      295      299
      99      2      295      294      296      309
     100      2      296      295      303      297
     101      2      297      298      300      296
     102      2      298      299      297      310
     103      2      299      294      298      311
     104      2      300      301      297      312
     105      2      301      304      300      302
     106      2      302      301      303      313
     107      2      303      302      296      314
     108      1      304      301      305      306
     109      2      319      320      308      327
     110      2      320      319      321      328
     111      2      321      326      320      322
     112      2      326      321      338      327
     113      1      339      341      340      338
     114      2      341      339      342      346
     115      2      342      341      343      356
     116      2      343      342      350      344
     117      2      344      345      347      343
     118      2      345      346      344      357
     119      2      346      341      345      358
     120      2      347      348      344      359
     121      2      348      351      347      349
     122      2      349      348      350      360
     123      2      350      349      343      361
     124      1      351      348      352      353
     125      2      366      367      355      374
     126      2      367      366      368      375
     127      2      368      373      367      369
     128      2      373      368      385      374
     129      1      386      388      387      385
     130      2      388      386      389      393
     131      2      389      388      390      403
     132      2      390      389      397      391
     133      2      391      392      394      390
     134      2      392      393      391      404
     135      2      393      388      392      405
     136      2      394      395      391      406
     137      2      395      398      394      396
     138      2      396      395      397      407
     139      2      397      396      390      408
     140      1      398      395      399      400
     141      2      413      414      402      421
     142      2      414      413      415      422
     143      2      415      420      414      416
     144      2      420      415      432      421
     145      1      433      435      434      432
     146      2      435      433      436      440
     147      2      436      435      437      450
     148      2      437      436      444      438
     149      2      438      439      441      437
     150      2      439      440      438      451
     151      2      440      435      439      452
     152      2      441      442      438      453
     153      2      442      445      441      443
     154      2      443      442      444      454
     155      2      444      443      437      455
     156      1      445      442      446      447
     157      2      460      461      449      468
     158      2      461      460      462      469
     159      2      462      467      461      463
     160      2      467      462      479      468
     161      1      480      482      481      479
     162      2      482      480      483      487
     163      2      483      482      484      497
     164      2      484      483      491      485
     165      2      485      486      488      484
     166      2      486      487      485      498
     167      2      487      482      486      499
     168      2      488      489      485      500
     169      2      489      492      488      490
     170      2      490      489      491      501
     171      2      491      490      484      502
     172      1      492      489      493      494
     173      2      507      508      496      515
     174      2      508      507      509      516
     175      2      509      514      508      510
     176      2      514      509      526      515
     177      1      527      529      528      526
     178      2      529      527      530      534
     179      2      530      529      531      544
     180      2      531      530      538      532
     181      2      532      533      535      531
     182      2      533      534      532      545
     183      2      534      529      533      546
     184      2      535      536      532      547
     185      2      536      539      535      537
     186      2      537      536      538      548
     187      2      538      537      531      549
     188      1      539      536      540      541
     189      2      554      555      543      562
     190      2      555      554      556      563
     191      2      556      561      555      557
     192      2      561      556      573      562
     193      1      574      576      575      573
     194      2      576      574      577      581
     195      2      577      576      578      591
     196      2      578      577      585      579
     197      2      579      580      582      578
     198      2      580      581      579      592
     199      2      581      576      580      593
     200      2      582      583      579      594
     201      2      583      586      582      584
     202      2      584      583      585      595
     203      2      585      584      578      596
     204      1      586      583      587      588
     205      2      601      602      590      609
     206      2      602      601      603      610
     207      2      603      608      602      604
     208      2      608      603      620      609
     209      1      621      623      622      620
     210      2      623      621      624      628
     211      2      624      623      625      638
     212      2      625      624      632      626
     213      2      626      627      629      625
     214      2      627      628      626      639
     215      2      628      623      627      640
     216      2      629      630      626      641
     217      2      630      633      629      631
     218      2      631      630      632      642
     219      2      632      631      625      643
     220      1      633      630      634      635
     221      2      648      649      637      656
     222      2      649      648      650      657
     223      2      650      655      649      651
     224      2      655      650      667      656
     225      1      668      670      669      667
     226      2      670      668      671      675
     227      2      671      670      672      685
     228      2      672      671      679      673
     229      2      673      674      676      672
     230      2      674      675      673      686
     231      2      675      670      674      687
     232      2      676      677      673      688
     233      2      677      680      676      678
     234      2      678      677      679      689
     235      2      679      678      672      690
     236      1      680      677      681      682
     237      2      695      696      684      703
     238      2      696      695      697      704
     239      2      697      702      696      698
     240      2      702      697      714      703
     241      1      715      717      716      714
     242      2      717      715      718      722
     243      2      718      717      719      732
     244      2      719      718      726      720
     245      2      720      721      723      719
     246      2      721      722      720      733
     247      2      722      717      721      734
     248      2      723      724      720      735
     249      2      724      727      723      725
     250      2      725      724      726      736
     251      2      726      725      719      737
     252      1      727      724      728      729
     253      2      742      743      731      750
     254      2      743      742      744      751
     255      2      744      749      743      745
     256      2      749      744      761      750
     257      1      762      764      763      761
     258      2      764      762      765      769
     259      2      765      764      766      779
     260      2      766      765      773      767
     261      2      767      768      770      766
     262      2      768      769      767      780
     263      2      769      764      768      781
     264      2      770      771      767      782
     265      2      771      774      770      772
     266      2      772      771      773      783
     267      2      773      772      766      784
     268      1      774      771      775      776
     269      2      789      790      778      797
     270      2      790      789      791      798
     271      2      791      796      790      792
     272      2      796      791      808      797
     273      1      809      811      810      808
     274      2      811      809      812      816
     275      2      812      811      813      826
     276      2      813      812      820      814
     277      2      814      815      817      813
     278      2      815      816      814      827
     279      2      816      811      815      828
     280      2      817      818      814      829
     281      2      818      821      817      819
     282      2      819      818      820      830
     283      2      820      819      813      831
     284      1      821      818      822      823
     285      2      836      837      825      844
     286      2      837      836      838      845
     287      2      838      843      837      839
     288      2      843      838      855      844
     289      1      856      858      857      855
     290      2      858      856      859      863
     291      2      859      858      860      873
     292      2      860      859      867      861
     293      2      861      862      864      860
     294      2      862      863      861      874
     295      2      863      858      862      875
     296      2      864      865      861      876
     297      2      865      868      864      866
     298      2      866      865      867      877
     299      2      867      866      860      878
     300      1      868      865      869      870
     301      2      883      884      872      891
     302      2      884      883      885      892
     303      2      885      890      884      886
     304      2      890      885      905      891

