LAMMPS data file from Part3 phase8.resolved.q.json (OPLS-AA)
# chain_id=linear_orth800_uid000232_sk3_rg1_pl2_alternating__9a430cda93a4 topology=linear
# assumes: units real; atom_style full; bond_style harmonic; angle_style harmonic; dihedral_style opls; improper_style cvff
# special_bonds lj/coul 0.0 0.0 0.5
# cvff improper: K=v2/2, d=-1, n=2

    1076 atoms
    1109 bonds
    2044 angles
    2793 dihedrals
     170 impropers

       7 atom types
      12 bond types
      23 angle types
      21 dihedral types
       2 improper types

    -95.528749       9.852243 xlo xhi
    -40.024228       7.428012 ylo yhi
    -61.038398      -3.383279 zlo zhi

Masses

       1     1.008000 # boss_type=HA count=34
       2     1.008000 # boss_type=HC count=524
       3    12.011000 # boss_type=CT count=244
       4    12.011000 # boss_type=C count=170
       5    15.999000 # boss_type=OS count=36
       6    15.999000 # boss_type=O count=34
       7    32.067000 # boss_type=SA count=34

Pair Coeffs

       1     0.030000     2.420000 # boss_type=HA count=34
       2     0.030000     2.500000 # boss_type=HC count=524
       3     0.066000     3.500000 # boss_type=CT count=244
       4     0.070000     3.550000 # boss_type=C count=170
       5     0.140000     2.900000 # boss_type=OS count=36
       6     0.210000     2.960000 # boss_type=O count=34
       7     0.355000     3.600000 # boss_type=SA count=34

Bond Coeffs

       1   320.000000     1.410000 # pattern=CT-OS
       2   268.000000     1.529000 # pattern=CT-CT
       3   340.000000     1.090000 # pattern=CT-HC
       4   317.000000     1.522000 # pattern=C-CT
       5   570.000000     1.229000 # pattern=C-O
       6   214.000000     1.327000 # pattern=C-OS
       7   546.000000     1.380000 # pattern=CP-CS
       8   469.000000     1.424000 # pattern=CS-CS
       9   317.000000     1.495000 # pattern=CS-CT
      10   250.000000     1.740000 # pattern=CP-SA
      11   367.000000     1.080000 # pattern=CS-HA
      12   278.000000     1.496000 # pattern=CP-CT

Angle Coeffs

       1    35.000000   109.500000 # pattern=HC-CT-OS
       2    33.000000   107.800000 # pattern=HC-CT-HC
       3    60.000000   109.500000 # pattern=CT-OS-CT
       4    50.000000   109.500000 # pattern=CT-CT-OS
       5    37.500000   110.700000 # pattern=CT-CT-HC
       6    58.350000   112.700000 # pattern=CT-CT-CT
       7    63.000000   111.100000 # pattern=C-CT-CT
       8    80.000000   120.400000 # pattern=CT-C-O
       9    81.000000   111.400000 # pattern=CT-C-OS
      10    83.000000   123.400000 # pattern=O-C-OS
      11    83.000000   116.900000 # pattern=C-OS-CT
      12    63.000000   114.000000 # pattern=CP-CT-CT
      13    70.000000   111.000000 # pattern=CS-CP-SA
      14    70.000000   128.500000 # pattern=CS-CP-CT
      15    70.000000   121.400000 # pattern=CT-CP-SA
      16    70.000000   112.300000 # pattern=CP-CS-CS
      17    35.000000   123.100000 # pattern=CP-CS-HA
      18    35.000000   127.500000 # pattern=CS-CS-HA
      19    70.000000   120.000000 # pattern=CS-CS-CT
      20    70.000000   125.000000 # pattern=CP-CS-CT
      21    63.000000   115.600000 # pattern=CS-CT-CT
      22    70.000000    92.200000 # pattern=CP-SA-CP
      23    63.000000   111.000000 # pattern=C-CT-CP

Dihedral Coeffs

       1     0.000000     0.000000     0.760000     0.000000 # pattern=CT-OS-CT-HC
       2     0.250000    -0.250000     0.500000     0.000000 # pattern=CT-CT-OS-CT
       3     0.000000     0.000000     0.300000     0.000000 # pattern=HC-CT-CT-OS
       4     1.300000    -0.500000     0.000000     0.000000 # pattern=CT-CT-CT-OS
       5     0.000000     0.000000     0.000000     0.000000 # pattern=HC-CT-C-O
       6     0.000000     0.000000     0.132000     0.000000 # pattern=HC-CT-C-OS
       7    -0.277000     1.228000    -0.694000     0.000000 # pattern=CT-CT-C-O
       8     0.000000     0.000000    -0.553000     0.000000 # pattern=CT-CT-C-OS
       9     4.669000     5.124000     0.000000     0.000000 # pattern=CT-C-OS-CT
      10     0.000000     5.124000     0.000000     0.000000 # pattern=CT-OS-C-O
      11    -1.220000    -0.126000     0.422000     0.000000 # pattern=C-OS-CT-CT
      12     0.000000     0.000000     0.198000     0.000000 # pattern=C-OS-CT-HC
      13    -1.697000    -0.456000     0.585000     0.000000 # pattern=C-CT-CT-CT
      14     0.000000     0.000000    -0.100000     0.000000 # pattern=C-CT-CT-HC
      15     0.000000     7.250000     0.000000     0.000000 # pattern=CS-CS-CP-SA
      16     0.000000    10.750000     0.000000     0.000000 # pattern=HA-CS-CP-SA
      17     0.850000    -0.200000     0.200000     0.000000 # pattern=CS-CT-CT-CT
      18     0.000000     0.000000     0.462000     0.000000 # pattern=CS-CT-CT-HC
      19     0.000000     0.260000     0.100000     0.000000 # pattern=CT-CT-CP-SA
      20     0.970000     0.080000     0.140000     0.000000 # pattern=HC-CT-CP-SA
      21     0.080000    -0.160000    -0.330000     0.430000 # pattern=C-CT-CP-CS

Improper Coeffs

       1    10.500000  -1   2 # pattern=C-CT-O-OS
       2     2.500000  -1   2 # pattern=CP-CS-CT-SA

Atoms

       1      1      3 -0.05847000     3.923530    -7.482079   -12.913762
       2      1      5 -0.38197800     2.955401    -6.833992   -13.727329
       3      1      3 -0.00381200     1.666298    -6.758852   -13.122757
       4      1      3 -0.20672400     1.603190    -5.659396   -12.066714
       5      1      2  0.07780400     3.593814    -8.491917   -12.651983
       6      1      2  0.07780400     4.126801    -6.903447   -12.009368
       7      1      2  0.07780400     4.852243    -7.558805   -13.485779
       8      1      2  0.10504500     1.380687    -7.732818   -12.707861
       9      1      2  0.10504500     0.961178    -6.532293   -13.928793
      10      1      2  0.10374100     2.238822    -5.923695   -11.213408
      11      1      2  0.10374100     2.025451    -4.732835   -12.474972
      12      1      3 -0.19318000     0.169528    -5.427602   -11.592592
      13      1      4  0.43235600     0.089117    -4.342635   -10.538267
      14      1      6 -0.46362300     1.081310    -3.830179   -10.030137
      15      1      5 -0.35227600    -1.153630    -3.979488   -10.127566
      16      1      3  0.00385800    -2.332403    -4.428762   -10.820669
      17      1      3 -0.13575100    -3.565400    -3.909195   -10.084190
      18      1      2  0.12474100    -0.435409    -5.140955   -12.456339
      19      1      2  0.12474100    -0.222644    -6.354953   -11.161432
      20      1      2  0.11298900    -2.357196    -5.523704   -10.842591
      21      1      2  0.11298900    -2.304924    -4.040503   -11.844877
      22      1      2  0.11657800    -3.619684    -4.377798    -9.093313
      23      1      2  0.11657800    -3.465010    -2.835030    -9.887318
      24      1      4 -0.16759400    -4.811500    -4.199060   -10.859636
      25      1      4 -0.13821500    -5.646117    -5.290138   -10.766662
      26      1      4 -0.04489200    -6.733440    -5.253299   -11.706642
      27      1      3 -0.09681400    -7.770604    -6.343131   -11.787371
      28      1      3 -0.15825000    -8.826559    -6.264518   -10.678808
      29      1      3 -0.17171000    -9.836511    -5.124236   -10.831033
      30      1      3 -0.22868700   -10.839755    -5.360119   -11.949667
      31      1      4 -0.17730200    -6.656745    -4.117340   -12.500507
      32      1      7  0.10902200    -5.341749    -3.109640   -12.055771
      33      1      1  0.18587300    -5.488296    -6.097018   -10.059762
      34      1      2  0.10329200    -7.251245    -7.304629   -11.683591
      35      1      2  0.10329200    -8.239989    -6.364574   -12.775891
      36      1      2  0.09621900    -8.328423    -6.158592    -9.706953
      37      1      2  0.09621900    -9.370705    -7.216839   -10.644250
      38      1      2  0.11342000   -10.392406    -5.027167    -9.890489
      39      1      2  0.11342000    -9.322664    -4.171425   -10.989018
      40      1      2  0.08756900   -11.555173    -4.532772   -11.992679
      41      1      2  0.08756900   -10.353240    -5.432886   -12.925833
      42      1      2  0.08756900   -11.402654    -6.283551   -11.779695
      43      1      3 -0.11592900    -7.559457    -3.647322   -13.607411
      44      1      4  0.42444300    -6.892855    -3.730077   -14.967016
      45      1      6 -0.47675300    -5.923454    -4.445001   -15.211285
      46      1      5 -0.35205500    -7.450132    -3.006937   -15.974383
      47      1      3 -0.00456800    -8.681669    -2.257374   -15.879790
      48      1      3 -0.14977400    -8.406724    -0.759343   -16.012671
      49      1      2  0.12720600    -8.471835    -4.246819   -13.645212
      50      1      2  0.12720600    -7.832971    -2.615023   -13.383731
      51      1      2  0.10346600    -9.266952    -2.502575   -14.989874
      52      1      2  0.10346600    -9.281473    -2.575705   -16.739867
      53      1      2  0.10664600    -7.704892    -0.583391   -16.836963
      54      1      2  0.10664600    -9.342929    -0.250794   -16.275530
      55      1      4 -0.16759400    -7.890132    -0.144656   -14.742351
      56      1      4 -0.13821500    -8.589480     0.153211   -13.591182
      57      1      4 -0.04489200    -7.775303     0.744170   -12.564029
      58      1      3 -0.09681400    -8.271487     1.157906   -11.198249
      59      1      3 -0.15825000    -9.383132     0.289982   -10.595923
      60      1      3 -0.17171000    -9.017210    -1.176085   -10.344406
      61      1      3 -0.22868700    -7.900604    -1.364325    -9.330887
      62      1      4 -0.17730200    -6.483081     0.953762   -13.031298
      63      1      7  0.10902200    -6.254851     0.312330   -14.603925
      64      1      1  0.18587300    -9.647931    -0.052564   -13.482617
      65      1      2  0.10329200    -8.646806     2.186160   -11.282327
      66      1      2  0.10329200    -7.433455     1.197208   -10.493656
      67      1      2  0.09621900   -10.267566     0.321751   -11.243515
      68      1      2  0.09621900    -9.692681     0.742784    -9.645179
      69      1      2  0.11342000    -8.742562    -1.669532   -11.281329
      70      1      2  0.11342000    -9.910591    -1.692651    -9.973056
      71      1      2  0.08756900    -7.750059    -2.430645    -9.132015
      72      1      2  0.08756900    -6.954570    -0.960627    -9.698860
      73      1      2  0.08756900    -8.142090    -0.873026    -8.383279
      74      1      3 -0.11592900    -5.346347     1.686307   -12.377403
      75      1      4  0.42444300    -4.426361     0.746558   -11.637506
      76      1      6 -0.47675300    -4.696679     0.195297   -10.578809
      77      1      5 -0.35205500    -3.236150     0.634381   -12.293103
      78      1      3 -0.00456800    -2.270759    -0.213195   -11.647467
      79      1      3 -0.14977400    -1.027605    -0.332459   -12.530068
      80      1      2  0.12720600    -4.773555     2.259736   -13.117171
      81      1      2  0.12720600    -5.713877     2.428012   -11.659385
      82      1      2  0.10346600    -2.703869    -1.198607   -11.448484
      83      1      2  0.10346600    -1.990310     0.257839   -10.698250
      84      1      2  0.10664600    -0.767790     0.647293   -12.949170
      85      1      2  0.10664600    -0.192076    -0.655428   -11.896331
      86      1      4 -0.16759400    -1.202971    -1.303250   -13.668840
      87      1      4 -0.13821500    -2.262309    -1.443540   -14.538740
      88      1      4 -0.04489200    -2.073887    -2.480637   -15.513635
      89      1      3 -0.09681400    -3.120405    -2.815603   -16.548035
      90      1      3 -0.15825000    -2.737224    -2.438569   -17.982279
      91      1      3 -0.17171000    -2.492225    -0.946758   -18.227678
      92      1      3 -0.22868700    -3.720428    -0.082642   -17.989406
      93      1      4 -0.17730200    -0.842797    -3.101222   -15.338749
      94      1      7  0.10902200     0.046235    -2.399375   -14.050775
      95      1      1  0.18587300    -3.153435    -0.829150   -14.488696
      96      1      2  0.10329200    -4.068059    -2.331004   -16.282608
      97      1      2  0.10329200    -3.327959    -3.891020   -16.508061
      98      1      2  0.09621900    -3.536143    -2.779949   -18.653172
      99      1      2  0.09621900    -1.836596    -2.986697   -18.280658
     100      1      2  0.11342000    -1.664205    -0.586466   -17.607018
     101      1      2  0.11342000    -2.176453    -0.818552   -19.270137
     102      1      2  0.08756900    -3.515701     0.951103   -18.286170
     103      1      2  0.08756900    -4.002937    -0.072869   -16.934194
     104      1      2  0.08756900    -4.573721    -0.440290   -18.573999
     105      1      3 -0.11592900    -0.202691    -4.222640   -16.114583
     106      1      4  0.42444300    -1.095711    -5.435386   -16.209637
     107      1      6 -0.47675300    -1.297974    -6.045002   -17.253692
     108      1      5 -0.35205500    -1.608971    -5.783401   -14.996417
     109      1      3 -0.00456800    -2.575728    -6.844517   -15.039529
     110      1      3 -0.14977400    -3.366589    -6.814029   -13.735774
     111      1      2  0.12720600     0.014290    -3.870759   -17.129236
     112      1      2  0.12720600     0.746827    -4.546939   -15.674271
     113      1      2  0.10346600    -2.045186    -7.797444   -15.149112
     114      1      2  0.10346600    -3.254299    -6.711472   -15.891391
     115      1      2  0.10664600    -3.844088    -5.832751   -13.626959
     116      1      2  0.10664600    -2.675254    -6.892694   -12.887337
     117      1      4 -0.16759400    -4.405988    -7.888051   -13.688973
     118      1      4 -0.13821500    -5.638405    -7.894796   -14.303406
     119      1      4 -0.04489200    -6.384743    -9.095546   -14.065436
     120      1      3 -0.09681400    -7.761687    -9.333716   -14.625551
     121      1      3 -0.15825000    -7.771457   -10.050838   -15.978381
     122      1      3 -0.17171000    -7.176259    -9.265546   -17.150967
     123      1      3 -0.22868700    -7.929818    -7.983426   -17.469077
     124      1      4 -0.17730200    -5.670140    -9.962522   -13.248635
     125      1      7  0.10902200    -4.146325    -9.316289   -12.800193
     126      1      1  0.18587300    -5.989708    -7.067171   -14.909303
     127      1      2  0.10329200    -8.297327    -8.379833   -14.696771
     128      1      2  0.10329200    -8.338224    -9.934476   -13.911250
     129      1      2  0.09621900    -7.235523   -11.003286   -15.896014
     130      1      2  0.09621900    -8.810427   -10.301401   -16.222348
     131      1      2  0.11342000    -6.121199    -9.037315   -16.966475
     132      1      2  0.11342000    -7.200262    -9.908873   -18.038965
     133      1      2  0.08756900    -8.993263    -8.183036   -17.633946
     134      1      2  0.08756900    -7.837742    -7.249315   -16.663930
     135      1      2  0.08756900    -7.526547    -7.527695   -18.379108
     136      1      3 -0.11592900    -6.068813   -11.312449   -12.726328
     137      1      4  0.42444300    -5.858987   -12.378977   -13.778640
     138      1      6 -0.47675300    -4.868104   -12.507907   -14.484944
     139      1      5 -0.35205500    -6.936708   -13.215995   -13.802747
     140      1      3 -0.00456800    -6.874023   -14.241649   -14.806446
     141      1      3 -0.14977400    -8.219230   -14.964427   -14.871371
     142      1      2  0.12720600    -5.499396   -11.600723   -11.835589
     143      1      2  0.12720600    -7.124500   -11.285034   -12.431580
     144      1      2  0.10346600    -6.097643   -14.957021   -14.511284
     145      1      2  0.10346600    -6.616457   -13.807977   -15.780977
     146      1      2  0.10664600    -8.086799   -15.911212   -15.410254
     147      1      2  0.10664600    -8.565566   -15.214067   -13.860579
     148      1      4 -0.16759400    -9.267108   -14.155622   -15.587097
     149      1      4 -0.13821500    -9.614934   -14.206918   -16.919699
     150      1      4 -0.04489200   -10.676637   -13.303433   -17.264941
     151      1      3 -0.09681400   -11.246287   -13.202701   -18.656187
     152      1      3 -0.15825000   -10.359123   -12.423858   -19.631707
     153      1      3 -0.17171000   -10.339868   -10.919459   -19.355016
     154      1      3 -0.22868700    -9.497145   -10.178187   -20.381293
     155      1      4 -0.17730200   -11.094229   -12.586370   -16.152066
     156      1      7  0.10902200   -10.216506   -13.018209   -14.743014
     157      1      1  0.18587300    -9.134999   -14.872486   -17.629118
     158      1      2  0.10329200   -12.251493   -12.767241   -18.634872
     159      1      2  0.10329200   -11.372373   -14.222727   -19.042752
     160      1      2  0.09621900    -9.335148   -12.816953   -19.610583
     161      1      2  0.09621900   -10.740316   -12.589612   -20.646986
     162      1      2  0.11342000    -9.936296   -10.721801   -18.357262
     163      1      2  0.11342000   -11.361804   -10.523652   -19.378270
     164      1      2  0.08756900    -9.497516    -9.104761   -20.168418
     165      1      2  0.08756900    -9.891894   -10.323432   -21.392061
     166      1      2  0.08756900    -8.460162   -10.527952   -20.363545
     167      1      3 -0.11592900   -12.161027   -11.536293   -16.042444
     168      1      4  0.42444300   -13.428483   -12.125144   -15.471138
     169      1      6 -0.47675300   -13.879517   -11.846441   -14.366974
     170      1      5 -0.35205500   -14.009124   -12.984700   -16.356242
     171      1      3 -0.00456800   -15.187898   -13.636360   -15.858961
     172      1      3 -0.14977400   -15.718806   -14.562111   -16.950274
     173      1      2  0.12720600   -11.833759   -10.716001   -15.391701
     174      1      2  0.12720600   -12.392493   -11.079418   -17.009905
     175      1      2  0.10346600   -15.940684   -12.882765   -15.598513
     176      1      2  0.10346600   -14.929653   -14.212280   -14.961742
     177      1      2  0.10664600   -14.909084   -15.219134   -17.293749
     178      1      2  0.10664600   -15.999616   -13.971372   -17.831514
     179      1      4 -0.16759400   -16.870944   -15.390407   -16.473403
     180      1      4 -0.13821500   -16.846667   -16.682297   -15.994831
     181      1      4 -0.04489200   -18.142479   -17.167325   -15.617583
     182      1      3 -0.09681400   -18.381008   -18.549839   -15.071383
     183      1      3 -0.15825000   -18.228327   -18.600283   -13.548428
     184      1      3 -0.17171000   -18.593554   -19.959643   -12.948578
     185      1      3 -0.22868700   -17.665038   -21.083057   -13.382181
     186      1      4 -0.17730200   -19.114994   -16.200746   -15.832242
     187      1      7  0.10902200   -18.455398   -14.759554   -16.483644
     188      1      1  0.18587300   -15.935919   -17.265439   -15.914694
     189      1      2  0.10329200   -19.381800   -18.894396   -15.358799
     190      1      2  0.10329200   -17.670612   -19.238906   -15.544404
     191      1      2  0.09621900   -17.200267   -18.338508   -13.267871
     192      1      2  0.09621900   -18.874336   -17.840108   -13.090988
     193      1      2  0.11342000   -18.555514   -19.878751   -11.855581
     194      1      2  0.11342000   -19.626001   -20.217713   -13.210715
     195      1      2  0.08756900   -16.621187   -20.837191   -13.163060
     196      1      2  0.08756900   -17.755723   -21.287462   -14.453152
     197      1      2  0.08756900   -17.915439   -22.004709   -12.847042
     198      1      3 -0.11592900   -20.590286   -16.270045   -15.554853
     199      1      4  0.42444300   -21.341243   -16.966877   -16.670917
     200      1      6 -0.47675300   -20.880785   -17.371338   -17.728507
     201      1      5 -0.35205500   -22.656363   -17.077773   -16.309993
     202      1      3 -0.00456800   -23.506612   -17.755527   -17.252220
     203      1      3 -0.14977400   -23.987030   -16.791687   -18.336746
     204      1      2  0.12720600   -20.757917   -16.825429   -14.625138
     205      1      2  0.12720600   -21.012821   -15.266208   -15.430627
     206      1      2  0.10346600   -24.358086   -18.140593   -16.679587
     207      1      2  0.10346600   -22.997297   -18.630243   -17.675798
     208      1      2  0.10664600   -24.449766   -15.913112   -17.869103
     209      1      2  0.10664600   -23.128422   -16.398561   -18.894958
     210      1      4 -0.16759400   -24.937654   -17.457135   -19.283344
     211      1      4 -0.13821500   -24.646710   -18.107605   -20.462127
     212      1      4 -0.04489200   -25.805861   -18.662254   -21.102628
     213      1      3 -0.09681400   -25.734786   -19.426538   -22.397957
     214      1      3 -0.15825000   -25.506096   -20.923342   -22.174176
     215      1      3 -0.17171000   -25.497244   -21.732305   -23.472394
     216      1      3 -0.22868700   -24.316523   -21.415931   -24.376754
     217      1      4 -0.17730200   -26.950899   -18.404596   -20.360874
     218      1      7  0.10902200   -26.609851   -17.479030   -18.955988
     219      1      1  0.18587300   -23.637963   -18.198749   -20.850478
     220      1      2  0.10329200   -24.920294   -19.008318   -23.001736
     221      1      2  0.10329200   -26.652869   -19.270382   -22.976261
     222      1      2  0.09621900   -24.564145   -21.082633   -21.634710
     223      1      2  0.09621900   -26.299954   -21.319589   -21.529468
     224      1      2  0.11342000   -26.430000   -21.566520   -24.022185
     225      1      2  0.11342000   -25.463591   -22.798247   -23.216823
     226      1      2  0.08756900   -24.309501   -22.094606   -25.235506
     227      1      2  0.08756900   -24.368767   -20.394153   -24.763357
     228      1      2  0.08756900   -23.368780   -21.537359   -23.842748
     229      1      3 -0.11592900   -28.379014   -18.797885   -20.633374
     230      1      4  0.42444300   -28.781368   -20.036563   -19.848631
     231      1      6 -0.47675300   -27.989440   -20.787362   -19.287128
     232      1      5 -0.35205500   -30.113176   -20.319593   -19.806999
     233      1      3 -0.00456800   -31.073807   -19.608229   -20.611881
     234      1      3 -0.14977400   -32.414994   -20.336952   -20.516973
     235      1      2  0.12720600   -29.028190   -17.960509   -20.356596
     236      1      2  0.12720600   -28.513103   -19.004797   -21.699163
     237      1      2  0.10346600   -31.176173   -18.586845   -20.229681
     238      1      2  0.10346600   -30.725471   -19.577025   -21.649432
     239      1      2  0.10664600   -32.871417   -20.151110   -19.536625
     240      1      2  0.10664600   -32.242567   -21.420720   -20.558126
     241      1      4 -0.16759400   -33.349302   -19.939690   -21.618567
     242      1      4 -0.13821500   -33.797173   -20.714742   -22.665996
     243      1      4 -0.04489200   -34.638509   -19.998782   -23.580177
     244      1      3 -0.09681400   -35.212157   -20.627426   -24.822372
     245      1      3 -0.15825000   -36.611250   -21.202753   -24.594928
     246      1      3 -0.17171000   -37.116364   -21.921688   -25.845756
     247      1      3 -0.22868700   -38.545544   -22.408561   -25.676219
     248      1      4 -0.17730200   -34.809379   -18.684728   -23.166776
     249      1      7  0.10902200   -33.997606   -18.364945   -21.690950
     250      1      1  0.18587300   -33.514831   -21.753362   -22.794844
     251      1      2  0.10329200   -35.244888   -19.895427   -25.635620
     252      1      2  0.10329200   -34.537730   -21.425728   -25.159329
     253      1      2  0.09621900   -37.303072   -20.395223   -24.324791
     254      1      2  0.09621900   -36.598109   -21.903384   -23.750660
     255      1      2  0.11342000   -37.068331   -21.245330   -26.704458
     256      1      2  0.11342000   -36.467415   -22.775951   -26.071366
     257      1      2  0.08756900   -38.885007   -22.917792   -26.583544
     258      1      2  0.08756900   -38.624728   -23.112064   -24.841252
     259      1      2  0.08756900   -39.222469   -21.570298   -25.485969
     260      1      3 -0.11592900   -35.579401   -17.575807   -23.821016
     261      1      4  0.42444300   -34.671795   -16.779902   -24.731240
     262      1      6 -0.47675300   -34.222995   -15.670911   -24.468888
     263      1      5 -0.35205500   -34.430731   -17.470451   -25.877014
     264      1      3 -0.00456800   -33.559205   -16.852726   -26.835746
     265      1      3 -0.14977400   -32.087581   -17.108845   -26.507645
     266      1      2  0.12720600   -36.011696   -16.892760   -23.080251
     267      1      2  0.12720600   -36.423846   -17.960368   -24.402507
     268      1      2  0.10346600   -33.821594   -17.257735   -27.818642
     269      1      2  0.10346600   -33.750784   -15.774198   -26.887396
     270      1      2  0.10664600   -31.463400   -16.625065   -27.269327
     271      1      2  0.10664600   -31.850928   -16.626959   -25.550744
     272      1      4 -0.16759400   -31.681476   -18.559174   -26.409959
     273      1      4 -0.13821500   -30.779178   -19.108235   -25.520892
     274      1      4 -0.04489200   -30.561782   -20.512912   -25.718465
     275      1      3 -0.09681400   -29.606545   -21.328290   -24.887924
     276      1      3 -0.15825000   -30.318421   -22.069223   -23.753789
     277      1      3 -0.17171000   -29.361891   -22.788290   -22.802220
     278      1      3 -0.22868700   -28.646123   -23.964906   -23.446287
     279      1      4 -0.17730200   -31.340694   -20.989759   -26.762472
     280      1      7  0.10902200   -32.277684   -19.745938   -27.480948
     281      1      1  0.18587300   -30.276903   -18.519807   -24.762033
     282      1      2  0.10329200   -29.075344   -22.033764   -25.536820
     283      1      2  0.10329200   -28.842531   -20.662543   -24.466252
     284      1      2  0.09621900   -30.899440   -21.348540   -23.170068
     285      1      2  0.09621900   -31.041875   -22.785587   -24.161766
     286      1      2  0.11342000   -29.936422   -23.157270   -21.944018
     287      1      2  0.11342000   -28.624918   -22.080094   -22.407340
     288      1      2  0.08756900   -27.990677   -23.641761   -24.259810
     289      1      2  0.08756900   -29.363209   -24.687490   -23.848178
     290      1      2  0.08756900   -28.026443   -24.479405   -22.704911
     291      1      3 -0.11592900   -31.471836   -22.394841   -27.281450
     292      1      4  0.42444300   -30.953562   -22.523746   -28.698436
     293      1      6 -0.47675300   -30.051646   -21.871881   -29.206400
     294      1      5 -0.35205500   -31.634821   -23.522361   -29.332906
     295      1      3 -0.00456800   -31.416381   -23.592332   -30.750797
     296      1      3 -0.14977400   -32.562357   -24.377484   -31.392809
     297      1      2  0.12720600   -30.920114   -23.107622   -26.660950
     298      1      2  0.12720600   -32.530777   -22.681414   -27.253984
     299      1      2  0.10346600   -30.469039   -24.112495   -30.930783
     300      1      2  0.10346600   -31.356580   -22.586393   -31.183770
     301      1      2  0.10664600   -32.397050   -24.460642   -32.473249
     302      1      2  0.10664600   -32.564373   -25.397733   -30.988601
     303      1      4 -0.16759400   -33.905399   -23.754584   -31.122942
     304      1      4 -0.13821500   -34.902320   -24.224720   -30.296755
     305      1      4 -0.04489200   -36.042560   -23.355590   -30.232515
     306      1      3 -0.09681400   -37.262281   -23.676698   -29.409432
     307      1      3 -0.15825000   -38.191757   -24.659762   -30.125524
     308      1      3 -0.17171000   -39.414036   -24.991636   -29.270594
     309      1      3 -0.22868700   -40.333355   -25.975069   -29.975941
     310      1      4 -0.17730200   -35.842610   -22.217491   -31.004114
     311      1      7  0.10902200   -34.364792   -22.295483   -31.872388
     312      1      1  0.18587300   -34.821464   -25.155832   -29.747037
     313      1      2  0.10329200   -37.817521   -22.766119   -29.167878
     314      1      2  0.10329200   -36.940341   -24.104080   -28.451369
     315      1      2  0.09621900   -37.648123   -25.583738   -30.359843
     316      1      2  0.09621900   -38.514045   -24.234013   -31.084030
     317      1      2  0.11342000   -39.092708   -25.422889   -28.315316
     318      1      2  0.11342000   -39.971040   -24.076298   -29.040949
     319      1      2  0.08756900   -39.806330   -26.904559   -30.214497
     320      1      2  0.08756900   -40.721675   -25.550296   -30.907254
     321      1      2  0.08756900   -41.182636   -26.224236   -29.333417
     322      1      3 -0.11592900   -36.738584   -21.023069   -31.183026
     323      1      4  0.42444300   -36.717066   -20.151569   -29.948756
     324      1      6 -0.47675300   -37.570052   -20.276272   -29.068813
     325      1      5 -0.35205500   -35.712748   -19.263537   -29.776756
     326      1      3 -0.00456800   -34.850370   -18.767966   -30.821998
     327      1      3 -0.14977400   -35.267667   -17.354360   -31.218970
     328      1      2  0.12720600   -36.526165   -20.445868   -32.084752
     329      1      2  0.12720600   -37.770198   -21.367804   -31.320489
     330      1      2  0.10346600   -34.794337   -19.424614   -31.688819
     331      1      2  0.10346600   -33.846054   -18.731047   -30.386727
     332      1      2  0.10664600   -34.435818   -16.873931   -31.748863
     333      1      2  0.10664600   -35.458255   -16.762981   -30.319484
     334      1      4 -0.16759400   -36.469359   -17.335659   -32.122189
     335      1      4 -0.13821500   -36.508823   -17.506275   -33.489530
     336      1      4 -0.04489200   -37.831750   -17.390760   -34.038086
     337      1      3 -0.09681400   -38.132139   -17.490559   -35.510341
     338      1      3 -0.15825000   -37.777225   -18.831429   -36.161709
     339      1      3 -0.17171000   -38.731173   -19.980397   -35.820321
     340      1      3 -0.22868700   -38.370557   -20.714380   -34.539926
     341      1      4 -0.17730200   -38.755665   -17.113539   -33.038730
     342      1      7  0.10902200   -38.024450   -17.029917   -31.492623
     343      1      1  0.18587300   -35.622843   -17.690123   -34.086761
     344      1      2  0.10329200   -37.555248   -16.702612   -36.013139
     345      1      2  0.10329200   -39.184104   -17.262517   -35.712403
     346      1      2  0.09621900   -37.832119   -18.678455   -37.247809
     347      1      2  0.09621900   -36.740806   -19.115642   -35.945343
     348      1      2  0.11342000   -39.764084   -19.619213   -35.766455
     349      1      2  0.11342000   -38.695606   -20.708841   -36.639754
     350      1      2  0.08756900   -37.339082   -21.079587   -34.572018
     351      1      2  0.08756900   -39.028414   -21.579092   -34.404982
     352      1      2  0.08756900   -38.482588   -20.074779   -33.662968
     353      1      3 -0.11592900   -40.234201   -16.875234   -33.149266
     354      1      4  0.42444300   -40.487422   -15.441625   -33.553565
     355      1      6 -0.47675300   -40.377113   -15.009494   -34.695477
     356      1      5 -0.35205500   -40.826309   -14.681405   -32.471132
     357      1      3 -0.00456800   -40.865305   -13.271325   -32.739822
     358      1      3 -0.14977400   -40.952642   -12.494025   -31.425541
     359      1      2  0.12720600   -40.687173   -17.532269   -33.898307
     360      1      2  0.12720600   -40.753616   -17.085077   -32.208036
     361      1      2  0.10346600   -41.758174   -13.060483   -33.339921
     362      1      2  0.10346600   -39.976017   -12.966311   -33.305299
     363      1      2  0.10664600   -41.098415   -11.429349   -31.644463
     364      1      2  0.10664600   -41.834877   -12.834665   -30.869551
     365      1      4 -0.16759400   -39.714516   -12.642601   -30.584235
     366      1      4 -0.13821500   -38.413283   -12.308638   -30.894715
     367      1      4 -0.04489200   -37.476938   -12.655558   -29.861089
     368      1      3 -0.09681400   -35.989333   -12.450843   -29.991465
     369      1      3 -0.15825000   -35.364695   -13.418572   -31.001434
     370      1      3 -0.17171000   -33.838610   -13.335769   -31.060263
     371      1      3 -0.22868700   -33.157245   -13.910717   -29.827040
     372      1      4 -0.17730200   -38.129092   -13.210990   -28.768439
     373      1      7  0.10902200   -39.823631   -13.284776   -29.009312
     374      1      1  0.18587300   -38.124848   -11.867978   -31.842477
     375      1      2  0.10329200   -35.513574   -12.563439   -29.013141
     376      1      2  0.10329200   -35.799293   -11.417290   -30.307030
     377      1      2  0.09621900   -35.760880   -13.197666   -32.000906
     378      1      2  0.09621900   -35.667434   -14.445434   -30.773343
     379      1      2  0.11342000   -33.522949   -12.296410   -31.206271
     380      1      2  0.11342000   -33.494122   -13.899239   -31.935713
     381      1      2  0.08756900   -33.390764   -13.332423   -28.928963
     382      1      2  0.08756900   -32.070300   -13.896227   -29.957535
     383      1      2  0.08756900   -33.462195   -14.948488   -29.658776
     384      1      3 -0.11592900   -37.561139   -13.722772   -27.475278
     385      1      4  0.42444300   -37.115695   -15.157904   -27.638768
     386      1      6 -0.47675300   -36.093613   -15.504481   -28.218330
     387      1      5 -0.35205500   -38.007210   -16.004233   -27.054780
     388      1      3 -0.00456800   -37.804717   -17.402053   -27.333696
     389      1      3 -0.14977400   -38.990830   -18.197806   -26.783690
     390      1      2  0.12720600   -38.286872   -13.651402   -26.656049
     391      1      2  0.12720600   -36.697151   -13.131571   -27.153783
     392      1      2  0.10346600   -37.688365   -17.556668   -28.410668
     393      1      2  0.10346600   -36.892187   -17.721647   -26.823579
     394      1      2  0.10664600   -39.265704   -17.832412   -25.786184
     395      1      2  0.10664600   -38.688505   -19.245251   -26.672363
     396      1      4 -0.16759400   -40.196455   -18.143249   -27.681904
     397      1      4 -0.13821500   -40.778698   -19.174178   -28.387800
     398      1      4 -0.04489200   -41.899991   -18.756484   -29.181084
     399      1      3 -0.09681400   -42.728871   -19.700368   -30.003895
     400      1      3 -0.15825000   -42.340601   -19.774754   -31.477093
     401      1      3 -0.17171000   -40.968694   -20.388164   -31.762806
     402      1      3 -0.22868700   -40.867748   -21.850800   -31.358830
     403      1      4 -0.17730200   -42.098626   -17.389002   -29.066749
     404      1      7  0.10902200   -41.053768   -16.688975   -27.907387
     405      1      1  0.18587300   -40.408999   -20.192975   -28.348775
     406      1      2  0.10329200   -43.780501   -19.394240   -29.933774
     407      1      2  0.10329200   -42.679103   -20.698543   -29.563689
     408      1      2  0.09621900   -43.098909   -20.371487   -31.998540
     409      1      2  0.09621900   -42.377246   -18.773869   -31.919725
     410      1      2  0.11342000   -40.787466   -20.315980   -32.840466
     411      1      2  0.11342000   -40.174435   -19.813868   -31.275025
     412      1      2  0.08756900   -41.693939   -22.434484   -31.775939
     413      1      2  0.08756900   -40.875738   -21.967430   -30.271794
     414      1      2  0.08756900   -39.933973   -22.280042   -31.732594
     415      1      3 -0.11592900   -43.050871   -16.495429   -29.808550
     416      1      4  0.42444300   -44.392337   -16.372874   -29.119568
     417      1      6 -0.47675300   -44.766749   -17.084640   -28.190989
     418      1      5 -0.35205500   -45.226831   -15.406556   -29.593339
     419      1      3 -0.00456800   -45.041562   -14.698098   -30.841424
     420      1      3 -0.14977400   -46.140486   -15.098949   -31.823729
     421      1      2  0.12720600   -43.208671   -16.890419   -30.816142
     422      1      2  0.12720600   -42.601337   -15.498951   -29.888174
     423      1      2  0.10346600   -44.051507   -14.832528   -31.282181
     424      1      2  0.10346600   -45.146793   -13.634583   -30.601051
     425      1      2  0.10664600   -47.113884   -15.086520   -31.317277
     426      1      2  0.10664600   -46.188443   -14.357308   -32.630214
     427      1      4 -0.16759400   -45.920773   -16.471096   -32.396910
     428      1      4 -0.13821500   -46.167921   -17.686616   -31.798115
     429      1      4 -0.04489200   -45.932242   -18.802897   -32.663587
     430      1      3 -0.09681400   -46.200037   -20.226672   -32.252673
     431      1      3 -0.15825000   -47.654413   -20.621668   -32.520453
     432      1      3 -0.17171000   -48.006004   -22.015694   -32.004389
     433      1      3 -0.22868700   -47.297419   -23.122880   -32.763461
     434      1      4 -0.17730200   -45.466984   -18.381940   -33.901343
     435      1      7  0.10902200   -45.318889   -16.675292   -33.980223
     436      1      1  0.18587300   -46.540934   -17.778494   -30.783974
     437      1      2  0.10329200   -45.515667   -20.898480   -32.782540
     438      1      2  0.10329200   -45.977669   -20.335525   -31.184300
     439      1      2  0.09621900   -47.865302   -20.561141   -33.595565
     440      1      2  0.09621900   -48.324272   -19.899632   -32.038715
     441      1      2  0.11342000   -47.776395   -22.093540   -30.936019
     442      1      2  0.11342000   -49.087012   -22.164218   -32.105493
     443      1      2  0.08756900   -47.690356   -24.095411   -32.453994
     444      1      2  0.08756900   -46.221225   -23.116827   -32.568658
     445      1      2  0.08756900   -47.455779   -23.022545   -33.841727
     446      1      3 -0.11592900   -45.137914   -19.211498   -35.111865
     447      1      4  0.42444300   -43.752241   -19.808188   -34.997384
     448      1      6 -0.47675300   -42.749744   -19.213695   -34.621803
     449      1      5 -0.35205500   -43.770148   -21.109928   -35.413551
     450      1      3 -0.00456800   -42.515655   -21.797124   -35.272866
     451      1      3 -0.14977400   -42.576160   -23.148012   -35.984072
     452      1      2  0.12720600   -45.181133   -18.629108   -36.038970
     453      1      2  0.12720600   -45.877790   -20.015784   -35.203463
     454      1      2  0.10346600   -42.293836   -21.919833   -34.207714
     455      1      2  0.10346600   -41.724169   -21.199463   -35.739223
     456      1      2  0.10664600   -41.561736   -23.556819   -36.068446
     457      1      2  0.10664600   -42.948604   -23.004664   -37.006410
     458      1      4 -0.16759400   -43.458268   -24.145994   -35.286085
     459      1      4 -0.13821500   -44.765641   -24.470918   -35.576733
     460      1      4 -0.04489200   -45.290835   -25.510595   -34.738915
     461      1      3 -0.09681400   -46.695517   -26.040154   -34.864695
     462      1      3 -0.15825000   -46.786406   -27.219771   -35.834987
     463      1      3 -0.17171000   -48.224112   -27.724192   -35.958266
     464      1      3 -0.22868700   -48.323292   -28.897177   -36.919911
     465      1      4 -0.17730200   -44.342522   -25.931044   -33.816626
     466      1      7  0.10902200   -42.863576   -25.077812   -33.985086
     467      1      1  0.18587300   -45.329613   -23.991585   -36.369126
     468      1      2  0.10329200   -47.071742   -26.338676   -33.879328
     469      1      2  0.10329200   -47.351897   -25.231296   -35.210875
     470      1      2  0.09621900   -46.137311   -28.035423   -35.492078
     471      1      2  0.09621900   -46.417028   -26.917111   -36.823116
     472      1      2  0.11342000   -48.595967   -28.033490   -34.974396
     473      1      2  0.11342000   -48.873988   -26.914702   -36.310899
     474      1      2  0.08756900   -47.711376   -29.737897   -36.577942
     475      1      2  0.08756900   -49.360421   -29.239622   -36.993727
     476      1      2  0.08756900   -47.987631   -28.612168   -37.922203
     477      1      3 -0.11592900   -44.463332   -26.985306   -32.751589
     478      1      4  0.42444300   -44.954039   -26.351855   -31.470607
     479      1      6 -0.47675300   -46.079369   -25.898607   -31.307851
     480      1      5 -0.35205500   -43.957312   -26.311605   -30.540732
     481      1      3 -0.00456800   -44.224017   -25.484929   -29.390858
     482      1      3 -0.14977400   -43.835725   -24.049987   -29.729123
     483      1      2  0.12720600   -45.174040   -27.767730   -33.038944
     484      1      2  0.12720600   -43.506547   -27.492088   -32.579271
     485      1      2  0.10346600   -43.606784   -25.868358   -28.570697
     486      1      2  0.10346600   -45.268191   -25.570082   -29.066919
     487      1      2  0.10664600   -42.793351   -24.035970   -30.072727
     488      1      2  0.10664600   -44.414677   -23.697990   -30.592802
     489      1      4 -0.16759400   -43.981268   -23.110445   -28.577565
     490      1      4 -0.13821500   -43.083127   -22.853230   -27.564496
     491      1      4 -0.04489200   -43.498559   -21.783608   -26.698252
     492      1      3 -0.09681400   -42.677704   -21.267761   -25.545848
     493      1      3 -0.15825000   -42.150797   -22.332793   -24.576194
     494      1      3 -0.17171000   -43.196332   -22.940488   -23.636464
     495      1      3 -0.22868700   -44.061063   -24.016522   -24.273695
     496      1      4 -0.17730200   -44.707850   -21.248961   -27.128352
     497      1      7  0.10902200   -45.373330   -22.139229   -28.435697
     498      1      1  0.18587300   -42.140180   -23.378836   -27.466556
     499      1      2  0.10329200   -43.235668   -20.514836   -24.977990
     500      1      2  0.10329200   -41.814190   -20.742945   -25.973376
     501      1      2  0.09621900   -41.400724   -21.840399   -23.942640
     502      1      2  0.09621900   -41.618697   -23.128150   -25.110717
     503      1      2  0.11342000   -42.663845   -23.400844   -22.794618
     504      1      2  0.11342000   -43.829227   -22.154676   -23.209850
     505      1      2  0.08756900   -44.678922   -24.499030   -23.509367
     506      1      2  0.08756900   -43.445812   -24.789318   -24.745106
     507      1      2  0.08756900   -44.738202   -23.605827   -25.024997
     508      1      3 -0.11592900   -45.434998   -20.012644   -26.659028
     509      1      4  0.42444300   -46.173421   -20.220183   -25.351641
     510      1      6 -0.47675300   -46.038517   -21.202718   -24.628399
     511      1      5 -0.35205500   -46.978364   -19.198980   -24.940254
     512      1      3 -0.00456800   -47.519765   -18.212590   -25.846692
     513      1      3 -0.14977400   -48.784493   -18.771613   -26.496813
     514      1      2  0.12720600   -44.708032   -19.206430   -26.513474
     515      1      2  0.12720600   -46.141200   -19.712221   -27.438511
     516      1      2  0.10346600   -46.771785   -17.877605   -26.569854
     517      1      2  0.10346600   -47.770237   -17.333227   -25.242189
     518      1      2  0.10664600   -49.574015   -18.847417   -25.737988
     519      1      2  0.10664600   -48.610238   -19.804229   -26.825130
     520      1      4 -0.16759400   -49.265434   -17.927515   -27.635292
     521      1      4 -0.13821500   -49.874307   -16.692156   -27.594061
     522      1      4 -0.04489200   -50.228166   -16.194768   -28.893696
     523      1      3 -0.09681400   -50.908944   -14.870666   -29.113982
     524      1      3 -0.15825000   -49.903323   -13.754784   -29.413237
     525      1      3 -0.17171000   -50.551950   -12.376782   -29.555200
     526      1      3 -0.22868700   -51.468654   -12.261647   -30.763400
     527      1      4 -0.17730200   -49.871793   -17.097778   -29.885446
     528      1      7  0.10902200   -49.108815   -18.489322   -29.236534
     529      1      1  0.18587300   -50.071583   -16.161666   -26.669252
     530      1      2  0.10329200   -51.490560   -14.610993   -28.220208
     531      1      2  0.10329200   -51.631115   -14.970268   -29.932155
     532      1      2  0.09621900   -49.166165   -13.705495   -28.601476
     533      1      2  0.09621900   -49.339572   -13.989577   -30.324579
     534      1      2  0.11342000   -49.756857   -11.627362   -29.649372
     535      1      2  0.11342000   -51.112340   -12.131457   -28.645701
     536      1      2  0.08756900   -51.819241   -11.230122   -30.871055
     537      1      2  0.08756900   -50.943822   -12.538841   -31.683160
     538      1      2  0.08756900   -52.350125   -12.901418   -30.660819
     539      1      3 -0.11592900   -50.053446   -16.994661   -31.374637
     540      1      4  0.42444300   -51.166289   -17.900724   -31.860153
     541      1      6 -0.47675300   -52.137460   -18.265983   -31.213318
     542      1      5 -0.35205500   -50.938912   -18.232209   -33.167846
     543      1      3 -0.00456800   -51.861917   -19.178359   -33.736259
     544      1      3 -0.14977400   -51.385805   -20.598807   -33.442299
     545      1      2  0.12720600   -49.119876   -17.275962   -31.873987
     546      1      2  0.12720600   -50.294993   -15.971080   -31.677626
     547      1      2  0.10346600   -51.873520   -18.997710   -34.817361
     548      1      2  0.10346600   -52.883658   -19.001063   -33.380951
     549      1      2  0.10664600   -51.279946   -20.743741   -32.359899
     550      1      2  0.10664600   -50.374586   -20.724679   -33.848778
     551      1      4 -0.16759400   -52.286586   -21.632775   -34.038482
     552      1      4 -0.13821500   -52.306115   -22.102295   -35.332717
     553      1      4 -0.04489200   -53.309365   -23.105859   -35.554779
     554      1      3 -0.09681400   -53.520066   -23.774946   -36.889869
     555      1      3 -0.15825000   -52.348120   -24.689463   -37.267935
     556      1      3 -0.17171000   -52.562473   -25.440251   -38.582757
     557      1      3 -0.22868700   -53.636261   -26.513540   -38.493550
     558      1      4 -0.17730200   -54.032210   -23.347900   -34.392527
     559      1      7  0.10902200   -53.463936   -22.402715   -33.078841
     560      1      1  0.18587300   -51.625347   -21.749906   -36.099143
     561      1      2  0.10329200   -53.641902   -22.999546   -37.657149
     562      1      2  0.10329200   -54.456408   -24.339846   -36.875456
     563      1      2  0.09621900   -51.438545   -24.083358   -37.366759
     564      1      2  0.09621900   -52.148151   -25.407760   -36.464217
     565      1      2  0.11342000   -52.811248   -24.733203   -39.381556
     566      1      2  0.11342000   -51.618353   -25.920174   -38.866879
     567      1      2  0.08756900   -53.701572   -27.060142   -39.439820
     568      1      2  0.08756900   -54.619144   -26.081843   -38.291661
     569      1      2  0.08756900   -53.407986   -27.233455   -37.701935
     570      1      3 -0.11592900   -55.229524   -24.229902   -34.169407
     571      1      4  0.42444300   -54.952765   -25.701957   -34.383698
     572      1      6 -0.47675300   -53.874771   -26.229751   -34.613022
     573      1      5 -0.35205500   -56.140230   -26.379012   -34.305859
     574      1      3 -0.00456800   -56.067147   -27.770983   -34.657497
     575      1      3 -0.14977400   -57.492871   -28.314809   -34.724669
     576      1      2  0.12720600   -56.000909   -23.921385   -34.881446
     577      1      2  0.12720600   -55.632026   -24.110536   -33.156828
     578      1      2  0.10346600   -55.487195   -28.309313   -33.898702
     579      1      2  0.10346600   -55.567971   -27.868290   -35.629014
     580      1      2  0.10664600   -58.110846   -27.650572   -35.339652
     581      1      2  0.10664600   -57.931211   -28.266538   -33.719520
     582      1      4 -0.16759400   -57.578900   -29.700588   -35.289981
     583      1      4 -0.13821500   -57.049430   -30.185987   -36.467033
     584      1      4 -0.04489200   -57.384583   -31.557855   -36.718397
     585      1      3 -0.09681400   -56.928509   -32.308374   -37.941611
     586      1      3 -0.15825000   -55.667091   -33.147311   -37.714792
     587      1      3 -0.17171000   -54.409196   -32.300155   -37.506740
     588      1      3 -0.22868700   -53.166917   -33.170322   -37.391641
     589      1      4 -0.17730200   -58.189978   -32.061995   -35.707027
     590      1      7  0.10902200   -58.488665   -30.898527   -34.484425
     591      1      1  0.18587300   -56.446975   -29.584988   -37.137529
     592      1      2  0.10329200   -56.760540   -31.602146   -38.764259
     593      1      2  0.10329200   -57.734829   -32.970582   -38.277399
     594      1      2  0.09621900   -55.520594   -33.786856   -38.594264
     595      1      2  0.09621900   -55.804654   -33.816258   -36.856630
     596      1      2  0.11342000   -54.283682   -31.605392   -38.345337
     597      1      2  0.11342000   -54.500882   -31.699437   -36.595396
     598      1      2  0.08756900   -53.013874   -33.759695   -38.301568
     599      1      2  0.08756900   -52.280350   -32.546339   -37.238626
     600      1      2  0.08756900   -53.247714   -33.858893   -36.544836
     601      1      3 -0.11592900   -58.782624   -33.431673   -35.564580
     602      1      4  0.42444300   -60.113426   -33.507886   -36.276492
     603      1      6 -0.47675300   -60.246155   -33.642590   -37.486895
     604      1      5 -0.35205500   -61.140756   -33.427380   -35.384971
     605      1      3 -0.00456800   -62.450213   -33.490788   -35.974386
     606      1      3 -0.14977400   -63.502014   -33.212718   -34.901691
     607      1      2  0.12720600   -58.908833   -33.714272   -34.512313
     608      1      2  0.12720600   -58.127074   -34.195428   -35.997081
     609      1      2  0.10346600   -62.537561   -32.777982   -36.801126
     610      1      2  0.10346600   -62.596252   -34.506019   -36.361375
     611      1      2  0.10664600   -63.285474   -33.808939   -34.006608
     612      1      2  0.10664600   -64.483593   -33.532690   -35.271532
     613      1      4 -0.16759400   -63.548910   -31.761850   -34.508475
     614      1      4 -0.13821500   -62.712525   -31.084813   -33.647619
     615      1      4 -0.04489200   -63.076381   -29.708201   -33.467060
     616      1      3 -0.09681400   -62.349757   -28.788807   -32.523948
     617      1      3 -0.15825000   -61.480386   -27.750493   -33.233077
     618      1      3 -0.17171000   -60.718887   -26.900837   -32.214529
     619      1      3 -0.22868700   -59.971250   -25.762202   -32.883171
     620      1      4 -0.17730200   -64.180342   -29.382247   -34.243467
     621      1      7  0.10902200   -64.761587   -30.735538   -35.125443
     622      1      1  0.18587300   -61.877137   -31.561338   -33.146674
     623      1      2  0.10329200   -63.083565   -28.285335   -31.881900
     624      1      2  0.10329200   -61.721047   -29.388208   -31.852489
     625      1      2  0.09621900   -62.103827   -27.103192   -33.860941
     626      1      2  0.09621900   -60.768733   -28.248116   -33.902856
     627      1      2  0.11342000   -61.416168   -26.482723   -31.478897
     628      1      2  0.11342000   -60.007345   -27.529611   -31.666675
     629      1      2  0.08756900   -59.401243   -25.192908   -32.142898
     630      1      2  0.08756900   -60.673892   -25.080114   -33.370096
     631      1      2  0.08756900   -59.272378   -26.133545   -33.636829
     632      1      3 -0.11592900   -64.906328   -28.068645   -34.362635
     633      1      4  0.42444300   -64.618903   -27.381078   -35.682814
     634      1      6 -0.47675300   -63.810954   -27.733863   -36.529990
     635      1      5 -0.35205500   -65.422347   -26.280792   -35.800187
     636      1      3 -0.00456800   -65.309502   -25.595889   -37.060868
     637      1      3 -0.14977400   -65.926207   -24.204394   -36.944175
     638      1      2  0.12720600   -64.611802   -27.391118   -33.554510
     639      1      2  0.12720600   -65.986960   -28.239825   -34.286055
     640      1      2  0.10346600   -65.880617   -26.172760   -37.795633
     641      1      2  0.10346600   -64.263801   -25.533136   -37.386596
     642      1      2  0.10664600   -66.173146   -23.833201   -37.946396
     643      1      2  0.10664600   -66.864107   -24.253435   -36.377520
     644      1      4 -0.16759400   -64.994260   -23.242730   -36.265368
     645      1      4 -0.13821500   -64.859872   -22.989153   -34.918575
     646      1      4 -0.04489200   -63.867333   -21.993725   -34.629140
     647      1      3 -0.09681400   -63.537216   -21.547816   -33.229383
     648      1      3 -0.15825000   -62.659380   -22.563225   -32.492278
     649      1      3 -0.17171000   -62.298351   -22.070445   -31.091411
     650      1      3 -0.22868700   -61.406853   -23.063802   -30.363846
     651      1      4 -0.17730200   -63.288864   -21.516141   -35.797983
     652      1      7  0.10902200   -63.918540   -22.294838   -37.188420
     653      1      1  0.18587300   -65.448788   -23.495193   -34.162320
     654      1      2  0.10329200   -64.473611   -21.402731   -32.675560
     655      1      2  0.10329200   -63.041138   -20.570653   -33.249668
     656      1      2  0.09621900   -61.742765   -22.751301   -33.064112
     657      1      2  0.09621900   -63.182979   -23.525025   -32.418717
     658      1      2  0.11342000   -63.211947   -21.910681   -30.507046
     659      1      2  0.11342000   -61.781277   -21.105763   -31.156733
     660      1      2  0.08756900   -61.895050   -24.038715   -30.274030
     661      1      2  0.08756900   -60.459958   -23.200125   -30.894827
     662      1      2  0.08756900   -61.180622   -22.702886   -29.356406
     663      1      3 -0.11592900   -62.251441   -20.446920   -35.983038
     664      1      4  0.42444300   -60.896881   -20.948984   -35.552992
     665      1      6 -0.47675300   -60.441610   -20.821796   -34.420740
     666      1      5 -0.35205500   -60.267028   -21.594898   -36.575852
     667      1      3 -0.00456800   -58.968175   -22.117275   -36.257856
     668      1      3 -0.14977400   -59.090394   -23.487826   -35.593686
     669      1      2  0.12720600   -62.498157   -19.563003   -35.383177
     670      1      2  0.12720600   -62.194694   -20.096873   -37.020040
     671      1      2  0.10346600   -58.437666   -21.420120   -35.597647
     672      1      2  0.10346600   -58.390564   -22.152749   -37.186961
     673      1      2  0.10664600   -58.238501   -23.641484   -34.922604
     674      1      2  0.10664600   -59.990586   -23.526265   -34.970633
     675      1      4 -0.16759400   -59.132706   -24.624294   -36.578031
     676      1      4 -0.13821500   -60.202721   -25.422994   -36.920842
     677      1      4 -0.04489200   -59.852448   -26.466955   -37.842203
     678      1      3 -0.09681400   -60.825020   -27.511274   -38.326961
     679      1      3 -0.15825000   -60.745402   -28.779761   -37.473412
     680      1      3 -0.17171000   -61.633858   -29.916097   -37.972725
     681      1      3 -0.22868700   -61.137131   -30.543905   -39.265306
     682      1      4 -0.17730200   -58.513912   -26.389274   -38.200214
     683      1      7  0.10902200   -57.712547   -25.110940   -37.389725
     684      1      1  0.18587300   -61.196864   -25.289410   -36.508090
     685      1      2  0.10329200   -61.843213   -27.105201   -38.297367
     686      1      2  0.10329200   -60.615056   -27.734802   -39.378511
     687      1      2  0.09621900   -59.710244   -29.133290   -37.421901
     688      1      2  0.09621900   -61.036869   -28.535148   -36.444262
     689      1      2  0.11342000   -62.662467   -29.567879   -38.105727
     690      1      2  0.11342000   -61.656801   -30.690554   -37.199708
     691      1      2  0.08756900   -61.175583   -29.835819   -40.097493
     692      1      2  0.08756900   -60.106272   -30.897736   -39.159804
     693      1      2  0.08756900   -61.763128   -31.402394   -39.529410
     694      1      3 -0.11592900   -57.735433   -27.263347   -39.141898
     695      1      4  0.42444300   -57.581791   -26.567491   -40.474076
     696      1      6 -0.47675300   -58.354187   -26.687062   -41.417163
     697      1      5 -0.35205500   -56.487078   -25.757294   -40.460510
     698      1      3 -0.00456800   -56.418361   -24.822616   -41.545694
     699      1      3 -0.14977400   -55.161193   -23.981585   -41.352442
     700      1      2  0.12720600   -58.236907   -28.221731   -39.314319
     701      1      2  0.12720600   -56.745949   -27.512751   -38.740710
     702      1      2  0.10346600   -57.313629   -24.190766   -41.523384
     703      1      2  0.10346600   -56.376763   -25.358120   -42.502045
     704      1      2  0.10664600   -54.279771   -24.589871   -41.592523
     705      1      2  0.10664600   -55.050479   -23.724740   -40.290637
     706      1      4 -0.16759400   -55.167775   -22.747781   -42.198335
     707      1      4 -0.13821500   -54.942283   -22.632357   -43.552470
     708      1      4 -0.04489200   -55.011772   -21.276959   -44.020818
     709      1      3 -0.09681400   -54.806489   -20.889232   -45.460725
     710      1      3 -0.15825000   -56.136345   -20.735798   -46.205884
     711      1      3 -0.17171000   -55.970490   -20.275604   -47.654995
     712      1      3 -0.22868700   -55.278399   -21.300766   -48.539621
     713      1      4 -0.17730200   -55.272442   -20.403867   -42.974560
     714      1      7  0.10902200   -55.481358   -21.231080   -41.486228
     715      1      1  0.18587300   -54.732113   -23.482808   -44.191184
     716      1      2  0.10329200   -54.235295   -19.954412   -45.512215
     717      1      2  0.10329200   -54.189427   -21.654726   -45.945934
     718      1      2  0.09621900   -56.688322   -21.682705   -46.182996
     719      1      2  0.09621900   -56.765608   -20.003358   -45.684230
     720      1      2  0.11342000   -56.965221   -20.073682   -48.070548
     721      1      2  0.11342000   -55.415886   -19.330352   -47.686351
     722      1      2  0.08756900   -54.236591   -21.451143   -48.240872
     723      1      2  0.08756900   -55.277265   -20.958926   -49.579918
     724      1      2  0.08756900   -55.793339   -22.266006   -48.500057
     725      1      3 -0.11592900   -55.397969   -18.906372   -42.992373
     726      1      4  0.42444300   -54.185078   -18.265554   -42.349275
     727      1      6 -0.47675300   -53.024911   -18.636858   -42.473076
     728      1      5 -0.35205500   -54.570725   -17.179674   -41.618997
     729      1      3 -0.00456800   -53.529670   -16.619363   -40.804853
     730      1      3 -0.14977400   -54.123089   -15.560448   -39.875287
     731      1      2  0.12720600   -55.484580   -18.515923   -44.010879
     732      1      2  0.12720600   -56.305453   -18.611261   -42.451122
     733      1      2  0.10346600   -52.784478   -16.150392   -41.457676
     734      1      2  0.10346600   -53.045240   -17.411898   -40.220946
     735      1      2  0.10664600   -53.320992   -15.109799   -39.278618
     736      1      2  0.10664600   -54.559155   -14.760672   -40.487062
     737      1      4 -0.16759400   -55.161270   -16.126722   -38.943835
     738      1      4 -0.13821500   -55.041613   -17.159588   -38.037575
     739      1      4 -0.04489200   -56.265739   -17.450717   -37.345620
     740      1      3 -0.09681400   -56.396326   -18.563453   -36.338466
     741      1      3 -0.15825000   -56.146467   -18.090373   -34.905446
     742      1      3 -0.17171000   -56.280674   -19.246258   -33.914634
     743      1      3 -0.22868700   -56.051329   -18.788498   -32.483618
     744      1      4 -0.17730200   -57.276368   -16.586016   -37.745264
     745      1      7  0.10902200   -56.736284   -15.470394   -38.926920
     746      1      1  0.18587300   -54.119528   -17.709073   -37.884698
     747      1      2  0.10329200   -57.390543   -19.017563   -36.413062
     748      1      2  0.10329200   -55.681814   -19.358152   -36.590744
     749      1      2  0.09621900   -55.142274   -17.654059   -34.827936
     750      1      2  0.09621900   -56.856782   -17.296319   -34.643882
     751      1      2  0.11342000   -57.279449   -19.690163   -33.991784
     752      1      2  0.11342000   -55.557472   -20.030890   -34.163409
     753      1      2  0.08756900   -56.793631   -18.040053   -32.187946
     754      1      2  0.08756900   -56.133598   -19.637242   -31.798017
     755      1      2  0.08756900   -55.056390   -18.349606   -32.364218
     756      1      3 -0.11592900   -58.706296   -16.515816   -37.287858
     757      1      4  0.42444300   -59.494440   -17.682579   -37.830582
     758      1      6 -0.47675300   -60.021578   -18.531525   -37.121618
     759      1      5 -0.35205500   -59.541749   -17.664726   -39.190967
     760      1      3 -0.00456800   -60.107531   -18.830633   -39.818068
     761      1      3 -0.14977400   -59.012171   -19.876030   -40.015379
     762      1      2  0.12720600   -59.206525   -15.588864   -37.589067
     763      1      2  0.12720600   -58.744937   -16.551345   -36.192691
     764      1      2  0.10346600   -60.956718   -19.222054   -39.245386
     765      1      2  0.10346600   -60.503949   -18.504829   -40.786162
     766      1      2  0.10664600   -58.167228   -19.409097   -40.537858
     767      1      2  0.10664600   -58.606864   -20.183953   -39.042919
     768      1      4 -0.16759400   -59.484961   -21.059867   -40.798741
     769      1      4 -0.13821500   -59.491119   -21.230134   -42.166181
     770      1      4 -0.04489200   -59.979475   -22.517019   -42.571504
     771      1      3 -0.09681400   -60.055247   -22.957809   -44.007589
     772      1      3 -0.15825000   -58.784849   -23.688911   -44.448231
     773      1      3 -0.17171000   -58.853029   -24.100877   -45.917596
     774      1      3 -0.22868700   -57.594237   -24.838308   -46.346167
     775      1      4 -0.17730200   -60.332736   -23.281874   -41.468641
     776      1      7  0.10902200   -60.086639   -22.438459   -39.998699
     777      1      1  0.18587300   -59.139434   -20.472462   -42.856583
     778      1      2  0.10329200   -60.212905   -22.078190   -44.644740
     779      1      2  0.10329200   -60.930142   -23.602908   -44.151623
     780      1      2  0.09621900   -57.914209   -23.041894   -44.289489
     781      1      2  0.09621900   -58.632842   -24.579262   -43.826401
     782      1      2  0.11342000   -58.983147   -23.213640   -46.547804
     783      1      2  0.11342000   -59.722454   -24.747923   -46.082322
     784      1      2  0.08756900   -57.454298   -25.750071   -45.756337
     785      1      2  0.08756900   -57.661576   -25.122374   -47.401109
     786      1      2  0.08756900   -56.707123   -24.209976   -46.220105
     787      1      3 -0.11592900   -60.814807   -24.703263   -41.416781
     788      1      4  0.42444300   -62.314085   -24.812531   -41.258422
     789      1      6 -0.47675300   -63.130877   -23.903023   -41.271193
     790      1      5 -0.35205500   -62.634779   -26.135372   -41.108215
     791      1      3 -0.00456800   -64.026516   -26.394945   -40.875384
     792      1      3 -0.14977400   -64.233526   -27.907983   -40.858454
     793      1      2  0.12720600   -60.349529   -25.216086   -40.569375
     794      1      2  0.12720600   -60.533608   -25.231948   -42.333388
     795      1      2  0.10346600   -64.630797   -25.936282   -41.667559
     796      1      2  0.10346600   -64.306862   -25.956137   -39.911056
     797      1      2  0.10664600   -64.057749   -28.316866   -41.861167
     798      1      2  0.10664600   -63.466795   -28.369087   -40.223524
     799      1      4 -0.16759400   -65.592488   -28.294811   -40.362041
     800      1      4 -0.13821500   -65.920781   -28.849763   -39.144369
     801      1      4 -0.04489200   -67.328038   -29.075483   -38.987762
     802      1      3 -0.09681400   -67.934964   -29.654626   -37.738680
     803      1      3 -0.15825000   -67.835768   -31.181451   -37.702699
     804      1      3 -0.17171000   -68.544123   -31.754915   -36.476167
     805      1      3 -0.22868700   -68.415730   -33.268528   -36.418107
     806      1      4 -0.17730200   -68.019372   -28.698184   -40.131434
     807      1      7  0.10902200   -66.972557   -28.083389   -41.340460
     808      1      1  0.18587300   -65.180840   -29.080515   -38.385165
     809      1      2  0.10329200   -68.983784   -29.346338   -37.655877
     810      1      2  0.10329200   -67.424061   -29.230897   -36.864595
     811      1      2  0.09621900   -68.275443   -31.610139   -38.611219
     812      1      2  0.09621900   -66.781028   -31.484162   -37.697591
     813      1      2  0.11342000   -69.606416   -31.484842   -36.501257
     814      1      2  0.11342000   -68.121034   -31.322161   -35.562754
     815      1      2  0.08756900   -68.925611   -33.658594   -35.531694
     816      1      2  0.08756900   -67.364744   -33.571228   -36.366284
     817      1      2  0.08756900   -68.864980   -33.734105   -37.301218
     818      1      3 -0.11592900   -69.494806   -28.748594   -40.402817
     819      1      4  0.42444300   -69.959167   -30.180024   -40.548764
     820      1      6 -0.47675300   -69.538997   -30.983547   -41.370957
     821      1      5 -0.35205500   -70.931133   -30.449144   -39.629875
     822      1      3 -0.00456800   -71.463000   -31.781858   -39.691664
     823      1      3 -0.14977400   -72.671930   -31.884994   -38.761074
     824      1      2  0.12720600   -70.030642   -28.260999   -39.579982
     825      1      2  0.12720600   -69.777296   -28.212878   -41.315714
     826      1      2  0.10346600   -71.740919   -32.035298   -40.722352
     827      1      2  0.10346600   -70.686019   -32.474007   -39.346722
     828      1      2  0.10664600   -72.426651   -31.467257   -37.777039
     829      1      2  0.10664600   -72.917430   -32.943541   -38.610605
     830      1      4 -0.16759400   -73.878333   -31.194088   -39.334153
     831      1      4 -0.13821500   -74.812393   -31.705243   -40.209826
     832      1      4 -0.04489200   -75.826482   -30.756630   -40.566711
     833      1      3 -0.09681400   -76.948792   -31.060854   -41.523227
     834      1      3 -0.15825000   -76.542132   -30.790701   -42.974724
     835      1      3 -0.17171000   -77.671144   -31.039626   -43.976018
     836      1      3 -0.22868700   -78.803509   -30.031897   -43.857647
     837      1      4 -0.17730200   -75.623833   -29.545828   -39.918602
     838      1      7  0.10902200   -74.233424   -29.577211   -38.919462
     839      1      1  0.18587300   -74.770480   -32.718510   -40.593014
     840      1      2  0.10329200   -77.243450   -32.112079   -41.413222
     841      1      2  0.10329200   -77.827432   -30.466256   -41.250982
     842      1      2  0.09621900   -76.180523   -29.759692   -43.080938
     843      1      2  0.09621900   -75.696555   -31.439946   -43.236781
     844      1      2  0.11342000   -78.066313   -32.054975   -43.858259
     845      1      2  0.11342000   -77.255325   -30.975107   -44.988975
     846      1      2  0.08756900   -79.356214   -30.154795   -42.921708
     847      1      2  0.08756900   -78.421869   -29.007304   -43.901999
     848      1      2  0.08756900   -79.511274   -30.163994   -44.681759
     849      1      3 -0.11592900   -76.433876   -28.283443   -40.013296
     850      1      4  0.42444300   -77.665994   -28.347709   -39.135105
     851      1      6 -0.47675300   -77.850175   -29.095648   -38.185347
     852      1      5 -0.35205500   -78.556480   -27.395097   -39.549006
     853      1      3 -0.00456800   -79.786207   -27.377380   -38.804831
     854      1      3 -0.14977400   -80.753889   -26.383837   -39.447279
     855      1      2  0.12720600   -75.848791   -27.405717   -39.717254
     856      1      2  0.12720600   -76.749426   -28.141924   -41.054223
     857      1      2  0.10346600   -79.561547   -27.045999   -37.784197
     858      1      2  0.10346600   -80.222927   -28.382798   -38.770650
     859      1      2  0.10664600   -80.239462   -25.433759   -39.638925
     860      1      2  0.10664600   -81.570047   -26.174010   -38.745223
     861      1      4 -0.16759400   -81.315186   -26.900634   -40.742736
     862      1      4 -0.13821500   -80.797609   -26.762472   -42.012733
     863      1      4 -0.04489200   -81.589074   -27.411132   -43.017957
     864      1      3 -0.09681400   -81.224450   -27.426022   -44.478833
     865      1      3 -0.15825000   -81.973181   -26.358706   -45.277677
     866      1      3 -0.17171000   -81.683581   -26.406696   -46.779209
     867      1      3 -0.22868700   -80.252603   -26.029907   -47.130287
     868      1      4 -0.17730200   -82.701430   -28.021552   -42.454855
     869      1      7  0.10902200   -82.777569   -27.779470   -40.760180
     870      1      1  0.18587300   -79.876865   -26.228996   -42.217036
     871      1      2  0.10329200   -80.143812   -27.268654   -44.572355
     872      1      2  0.10329200   -81.428466   -28.418253   -44.894514
     873      1      2  0.09621900   -83.052997   -26.490311   -45.138025
     874      1      2  0.09621900   -81.726439   -25.364339   -44.885108
     875      1      2  0.11342000   -82.359758   -25.708469   -47.286400
     876      1      2  0.11342000   -81.907355   -27.404399   -47.173639
     877      1      2  0.08756900   -79.537187   -26.760903   -46.742306
     878      1      2  0.08756900   -80.131168   -25.992909   -48.217648
     879      1      2  0.08756900   -79.995614   -25.044903   -46.727158
     880      1      3 -0.11592900   -83.791612   -28.805468   -43.130208
     881      1      4  0.42444300   -83.627963   -30.293121   -42.916551
     882      1      6 -0.47675300   -84.518660   -31.016057   -42.483288
     883      1      5 -0.35205500   -82.401353   -30.728577   -43.328040
     884      1      3 -0.00456800   -82.231492   -32.153941   -43.426616
     885      1      3 -0.14977400   -81.879631   -32.531899   -44.869770
     886      1      2  0.12720600   -83.814356   -28.620351   -44.208238
     887      1      2  0.12720600   -84.770954   -28.503245   -42.739886
     888      1      2  0.10346600   -83.114185   -32.712002   -43.095139
     889      1      2  0.10346600   -81.403417   -32.430165   -42.764989
     890      1      2  0.10664600   -81.775393   -33.620353   -44.947086
     891      1      2  0.10664600   -80.905005   -32.101386   -45.128150
     892      1      4 -0.16759400   -82.925744   -32.057285   -45.838316
     893      1      4 -0.13821500   -84.195220   -32.552531   -46.041223
     894      1      4 -0.04489200   -84.969557   -31.754954   -46.949280
     895      1      3 -0.09681400   -86.408789   -32.043129   -47.281149
     896      1      3 -0.15825000   -86.547097   -32.910355   -48.534380
     897      1      3 -0.17171000   -88.014450   -33.190755   -48.855958
     898      1      3 -0.22868700   -88.157186   -34.057991   -50.096229
     899      1      4 -0.17730200   -84.227443   -30.681463   -47.421887
     900      1      7  0.10902200   -82.619258   -30.705517   -46.834181
     901      1      1  0.18587300   -84.583901   -33.418539   -45.516223
     902      1      2  0.10329200   -86.953468   -31.100443   -47.415081
     903      1      2  0.10329200   -86.880043   -32.549917   -46.429259
     904      1      2  0.09621900   -86.013704   -33.858072   -48.389231
     905      1      2  0.09621900   -86.073153   -32.410642   -49.388345
     906      1      2  0.11342000   -88.548054   -32.246565   -49.014270
     907      1      2  0.11342000   -88.491654   -33.695083   -48.007676
     908      1      2  0.08756900   -89.214850   -34.246153   -50.307199
     909      1      2  0.08756900   -87.718292   -33.567722   -50.970899
     910      1      2  0.08756900   -87.660743   -35.024228   -49.958736
     911      1      3 -0.11592900   -84.653963   -29.557329   -48.323552
     912      1      4  0.42444300   -85.190559   -28.396154   -47.508262
     913      1      6 -0.47675300   -85.562205   -28.437073   -46.342913
     914      1      5 -0.35205500   -85.230199   -27.273701   -48.288338
     915      1      3 -0.00456800   -85.784040   -26.123230   -47.627833
     916      1      3 -0.14977400   -85.523320   -24.873313   -48.463506
     917      1      2  0.12720600   -85.440423   -29.888636   -49.009996
     918      1      2  0.12720600   -83.804845   -29.209021   -48.923124
     919      1      2  0.10346600   -85.290815   -25.993995   -46.657846
     920      1      2  0.10346600   -86.856988   -26.280930   -47.469306
     921      1      2  0.10664600   -85.730715   -23.987638   -47.853134
     922      1      2  0.10664600   -84.463709   -24.829953   -48.743951
     923      1      4 -0.16759400   -86.354794   -24.824376   -49.710884
     924      1      4 -0.13821500   -86.046572   -25.315171   -50.960236
     925      1      4 -0.04489200   -87.058739   -25.042794   -51.941620
     926      1      3 -0.09681400   -86.943208   -25.467456   -53.382807
     927      1      3 -0.15825000   -86.258293   -24.434760   -54.283071
     928      1      3 -0.17171000   -84.752715   -24.311744   -54.037120
     929      1      3 -0.22868700   -84.114262   -23.322317   -55.000426
     930      1      4 -0.17730200   -88.129751   -24.366475   -51.370600
     931      1      7  0.10902200   -87.884098   -24.071250   -49.698867
     932      1      1  0.18587300   -85.120175   -25.835341   -51.174432
     933      1      2  0.10329200   -87.946035   -25.666874   -53.778646
     934      1      2  0.10329200   -86.405434   -26.422387   -53.439590
     935      1      2  0.09621900   -86.418649   -24.733396   -55.326729
     936      1      2  0.09621900   -86.726815   -23.453066   -54.159401
     937      1      2  0.11342000   -84.274301   -25.290578   -54.156107
     938      1      2  0.11342000   -84.557179   -23.975253   -53.013995
     939      1      2  0.08756900   -83.040310   -23.241835   -54.804820
     940      1      2  0.08756900   -84.247355   -23.643490   -56.038398
     941      1      2  0.08756900   -84.555814   -22.326808   -54.889007
     942      1      3 -0.11592900   -89.416956   -23.915246   -51.998790
     943      1      4  0.42444300   -89.221282   -22.663002   -52.818682
     944      1      6 -0.47675300   -89.291251   -22.630742   -54.042335
     945      1      5 -0.35205500   -88.995818   -21.578550   -52.026170
     946      1      3 -0.00456800   -88.825998   -20.322838   -52.708388
     947      1      3 -0.14977400   -87.419569   -20.161115   -53.292370
     948      1      2  0.12720600   -90.203805   -23.725988   -51.259239
     949      1      2  0.12720600   -89.807369   -24.700209   -52.657172
     950      1      2  0.10346600   -89.580279   -20.232228   -53.499342
     951      1      2  0.10346600   -89.039087   -19.531805   -51.980590
     952      1      2  0.10664600   -87.427030   -19.313603   -53.989322
     953      1      2  0.10664600   -87.130712   -21.044510   -53.872766
     954      1      4 -0.16759400   -86.388057   -19.888921   -52.233115
     955      1      4 -0.13821500   -85.911466   -18.670559   -51.798025
     956      1      4 -0.04489200   -84.926232   -18.787872   -50.760616
     957      1      3 -0.09681400   -84.261792   -17.604725   -50.108296
     958      1      3 -0.15825000   -82.958356   -17.212811   -50.808892
     959      1      3 -0.17171000   -82.186479   -16.113478   -50.074875
     960      1      3 -0.22868700   -82.905920   -14.774455   -50.056954
     961      1      4 -0.17730200   -84.698588   -20.120002   -50.444312
     962      1      7  0.10902200   -85.631235   -21.177921   -51.413834
     963      1      1  0.18587300   -86.254786   -17.724520   -52.200277
     964      1      2  0.10329200   -84.059076   -17.834700   -49.057303
     965      1      2  0.10329200   -84.962085   -16.760668   -50.111199
     966      1      2  0.09621900   -83.167882   -16.894286   -51.837982
     967      1      2  0.09621900   -82.306735   -18.092864   -50.885439
     968      1      2  0.11342000   -81.976197   -16.427330   -49.046505
     969      1      2  0.11342000   -81.215822   -15.981395   -50.568619
     970      1      2  0.08756900   -83.839736   -14.826892   -49.490889
     971      1      2  0.08756900   -83.135897   -14.439729   -51.072865
     972      1      2  0.08756900   -82.274773   -14.015195   -49.584304
     973      1      3 -0.11592900   -83.767762   -20.708853   -49.425455
     974      1      4  0.42444300   -84.414892   -20.754721   -48.056477
     975      1      6 -0.47675300   -85.191004   -19.929345   -47.594538
     976      1      5 -0.35205500   -83.931643   -21.826805   -47.360451
     977      1      3 -0.00456800   -84.455927   -21.966348   -46.028515
     978      1      3 -0.14977400   -83.664210   -23.069739   -45.336969
     979      1      2  0.12720600   -82.851562   -20.115313   -49.348712
     980      1      2  0.12720600   -83.473519   -21.723760   -49.720261
     981      1      2  0.10346600   -84.343055   -21.024707   -45.482180
     982      1      2  0.10346600   -85.520592   -22.222965   -46.087707
     983      1      2  0.10664600   -82.605630   -22.780451   -45.294845
     984      1      2  0.10664600   -83.686181   -23.973960   -45.957390
     985      1      4 -0.16759400   -84.160442   -23.356467   -43.956319
     986      1      4 -0.13821500   -83.805058   -22.740834   -42.776228
     987      1      4 -0.04489200   -84.484102   -23.280974   -41.633592
     988      1      3 -0.09681400   -84.289478   -22.759385   -40.234943
     989      1      3 -0.15825000   -83.194181   -23.521189   -39.486694
     990      1      3 -0.17171000   -83.053321   -23.102564   -38.022022
     991      1      3 -0.22868700   -82.616438   -21.656534   -37.840809
     992      1      4 -0.17730200   -85.326433   -24.320924   -42.002183
     993      1      7  0.10902200   -85.298807   -24.598040   -43.692434
     994      1      1  0.18587300   -83.090088   -21.928019   -42.725313
     995      1      2  0.10329200   -84.035468   -21.693439   -40.291474
     996      1      2  0.10329200   -85.234967   -22.821195   -39.683284
     997      1      2  0.09621900   -82.233242   -23.393340   -40.000941
     998      1      2  0.09621900   -83.418938   -24.594357   -39.513029
     999      1      2  0.11342000   -84.001320   -23.266044   -37.495517
    1000      1      2  0.11342000   -82.310817   -23.753927   -37.545748
    1001      1      2  0.08756900   -82.433849   -21.449900   -36.781174
    1002      1      2  0.08756900   -83.385848   -20.959228   -38.184472
    1003      1      2  0.08756900   -81.691484   -21.452529   -38.390674
    1004      1      3 -0.11592900   -86.208113   -25.180928   -41.138498
    1005      1      4  0.42444300   -87.654634   -24.754949   -41.246667
    1006      1      6 -0.47675300   -88.571308   -25.507854   -41.552367
    1007      1      5 -0.35205500   -87.809260   -23.438024   -40.927124
    1008      1      3 -0.00456800   -89.130714   -22.895848   -41.106321
    1009      1      3 -0.14977400   -89.450051   -22.636023   -42.582380
    1010      1      2  0.12720600   -85.913375   -25.138122   -40.084829
    1011      1      2  0.12720600   -86.130236   -26.230917   -41.445299
    1012      1      2  0.10346600   -89.867701   -23.579302   -40.667430
    1013      1      2  0.10346600   -89.178673   -21.965986   -40.528469
    1014      1      2  0.10664600   -90.528749   -22.448334   -42.660790
    1015      1      2  0.10664600   -89.226357   -23.523895   -43.186351
    1016      1      4 -0.16759400   -88.699629   -21.472471   -43.179122
    1017      1      4 -0.13821500   -87.451952   -20.972756   -42.873885
    1018      1      4 -0.04489200   -87.054571   -19.870234   -43.702548
    1019      1      3 -0.09681400   -85.728164   -19.176720   -43.546922
    1020      1      3 -0.15825000   -85.704218   -18.228394   -42.345836
    1021      1      3 -0.17171000   -84.345714   -17.544141   -42.204739
    1022      1      3 -0.22868700   -84.306699   -16.623270   -40.996713
    1023      1      4 -0.17730200   -88.037325   -19.575770   -44.637873
    1024      1      7  0.10902200   -89.399573   -20.602802   -44.472935
    1025      1      1  0.18587300   -86.825277   -21.378199   -42.088881
    1026      1      2  0.10329200   -84.947851   -19.936811   -43.419013
    1027      1      2  0.10329200   -85.474485   -18.632871   -44.462819
    1028      1      2  0.09621900   -86.488270   -17.469242   -42.450844
    1029      1      2  0.09621900   -85.928795   -18.785249   -41.427375
    1030      1      2  0.11342000   -84.133167   -16.958106   -43.103353
    1031      1      2  0.11342000   -83.555131   -18.297798   -42.110300
    1032      1      2  0.08756900   -83.325320   -16.145507   -40.915353
    1033      1      2  0.08756900   -85.062281   -15.835061   -41.080266
    1034      1      2  0.08756900   -84.490853   -17.180771   -40.072103
    1035      1      3 -0.11592900   -88.032710   -18.569918   -45.755318
    1036      1      4  0.42444300   -87.783955   -17.166723   -45.252964
    1037      1      6 -0.47675300   -88.345243   -16.629762   -44.306983
    1038      1      5 -0.35205500   -86.845211   -16.562418   -46.037762
    1039      1      3 -0.00456800   -86.444327   -15.248895   -45.614882
    1040      1      3 -0.14977400   -85.243828   -14.809944   -46.456016
    1041      1      2  0.12720600   -87.250750   -18.850651   -46.468013
    1042      1      2  0.12720600   -88.976925   -18.552170   -46.309912
    1043      1      2  0.10346600   -86.195232   -15.250890   -44.546449
    1044      1      2  0.10346600   -87.280920   -14.563824   -45.793516
    1045      1      2  0.10664600   -85.435369   -15.020670   -47.515504
    1046      1      2  0.10664600   -85.117175   -13.725341   -46.356411
    1047      1      4 -0.17799700   -83.980292   -15.521462   -46.050431
    1048      1      4 -0.13600600   -83.665221   -16.854797   -46.204577
    1049      1      4 -0.07055000   -82.380836   -17.199713   -45.670112
    1050      1      3 -0.09507500   -81.828282   -18.599198   -45.683704
    1051      1      3 -0.15832300   -80.922501   -18.857161   -46.889980
    1052      1      3 -0.16675300   -80.449027   -20.308755   -46.995482
    1053      1      3 -0.22850700   -79.606463   -20.764885   -45.813734
    1054      1      4 -0.16733200   -81.755893   -16.083918   -45.132233
    1055      1      7  0.11013600   -82.709493   -14.670785   -45.295085
    1056      1      1  0.18565900   -84.344056   -17.567267   -46.661725
    1057      1      2  0.10930200   -81.282540   -18.777576   -44.750536
    1058      1      2  0.10930200   -82.661274   -19.312016   -45.692974
    1059      1      2  0.10215600   -80.050648   -18.192226   -46.854550
    1060      1      2  0.10215600   -81.462877   -18.603825   -47.811496
    1061      1      2  0.10180900   -79.854604   -20.413144   -47.911430
    1062      1      2  0.10180900   -81.310918   -20.975957   -47.101765
    1063      1      2  0.09273800   -78.759628   -20.090525   -45.649865
    1064      1      2  0.09273800   -80.197360   -20.811302   -44.894162
    1065      1      2  0.09273800   -79.210766   -21.768720   -46.000514
    1066      1      3 -0.06577600   -78.531917   -17.505180   -42.462401
    1067      1      5 -0.38006300   -79.236639   -16.277789   -42.329940
    1068      1      3  0.00180600   -80.521038   -16.298620   -42.958272
    1069      1      3 -0.14498500   -80.418203   -15.992062   -44.454101
    1070      1      2  0.07052200   -77.579122   -17.411405   -41.932446
    1071      1      2  0.07052200   -78.320747   -17.726835   -43.511620
    1072      1      2  0.07052200   -79.099839   -18.324386   -42.010549
    1073      1      2  0.09044800   -81.020542   -17.256336   -42.766420
    1074      1      2  0.09044800   -81.125405   -15.525568   -42.469438
    1075      1      2  0.09827800   -79.717359   -16.681949   -44.936212
    1076      1      2  0.09827800   -79.971843   -14.998685   -44.591421

Bonds

       1      1        1        2
       2      1        2        3
       3      2        3        4
       4      3        1        5
       5      3        1        6
       6      3        1        7
       7      3        3        8
       8      3        3        9
       9      3        4       10
      10      3        4       11
      11      4       12       13
      12      5       13       14
      13      6       13       15
      14      1       15       16
      15      2       16       17
      16      3       12       18
      17      3       12       19
      18      3       16       20
      19      3       16       21
      20      3       17       22
      21      3       17       23
      22      2        4       12
      23      7       24       25
      24      8       25       26
      25      9       26       27
      26      2       27       28
      27      2       28       29
      28      2       29       30
      29      7       26       31
      30     10       31       32
      31     10       32       24
      32     11       25       33
      33      3       27       34
      34      3       27       35
      35      3       28       36
      36      3       28       37
      37      3       29       38
      38      3       29       39
      39      3       30       40
      40      3       30       41
      41      3       30       42
      42     12       17       24
      43      4       43       44
      44      5       44       45
      45      6       44       46
      46      1       46       47
      47      2       47       48
      48      3       43       49
      49      3       43       50
      50      3       47       51
      51      3       47       52
      52      3       48       53
      53      3       48       54
      54     12       31       43
      55      7       55       56
      56      8       56       57
      57      9       57       58
      58      2       58       59
      59      2       59       60
      60      2       60       61
      61      7       57       62
      62     10       62       63
      63     10       63       55
      64     11       56       64
      65      3       58       65
      66      3       58       66
      67      3       59       67
      68      3       59       68
      69      3       60       69
      70      3       60       70
      71      3       61       71
      72      3       61       72
      73      3       61       73
      74     12       48       55
      75      4       74       75
      76      5       75       76
      77      6       75       77
      78      1       77       78
      79      2       78       79
      80      3       74       80
      81      3       74       81
      82      3       78       82
      83      3       78       83
      84      3       79       84
      85      3       79       85
      86     12       62       74
      87      7       86       87
      88      8       87       88
      89      9       88       89
      90      2       89       90
      91      2       90       91
      92      2       91       92
      93      7       88       93
      94     10       93       94
      95     10       94       86
      96     11       87       95
      97      3       89       96
      98      3       89       97
      99      3       90       98
     100      3       90       99
     101      3       91      100
     102      3       91      101
     103      3       92      102
     104      3       92      103
     105      3       92      104
     106     12       79       86
     107      4      105      106
     108      5      106      107
     109      6      106      108
     110      1      108      109
     111      2      109      110
     112      3      105      111
     113      3      105      112
     114      3      109      113
     115      3      109      114
     116      3      110      115
     117      3      110      116
     118     12       93      105
     119      7      117      118
     120      8      118      119
     121      9      119      120
     122      2      120      121
     123      2      121      122
     124      2      122      123
     125      7      119      124
     126     10      124      125
     127     10      125      117
     128     11      118      126
     129      3      120      127
     130      3      120      128
     131      3      121      129
     132      3      121      130
     133      3      122      131
     134      3      122      132
     135      3      123      133
     136      3      123      134
     137      3      123      135
     138     12      110      117
     139      4      136      137
     140      5      137      138
     141      6      137      139
     142      1      139      140
     143      2      140      141
     144      3      136      142
     145      3      136      143
     146      3      140      144
     147      3      140      145
     148      3      141      146
     149      3      141      147
     150     12      124      136
     151      7      148      149
     152      8      149      150
     153      9      150      151
     154      2      151      152
     155      2      152      153
     156      2      153      154
     157      7      150      155
     158     10      155      156
     159     10      156      148
     160     11      149      157
     161      3      151      158
     162      3      151      159
     163      3      152      160
     164      3      152      161
     165      3      153      162
     166      3      153      163
     167      3      154      164
     168      3      154      165
     169      3      154      166
     170     12      141      148
     171      4      167      168
     172      5      168      169
     173      6      168      170
     174      1      170      171
     175      2      171      172
     176      3      167      173
     177      3      167      174
     178      3      171      175
     179      3      171      176
     180      3      172      177
     181      3      172      178
     182     12      155      167
     183      7      179      180
     184      8      180      181
     185      9      181      182
     186      2      182      183
     187      2      183      184
     188      2      184      185
     189      7      181      186
     190     10      186      187
     191     10      187      179
     192     11      180      188
     193      3      182      189
     194      3      182      190
     195      3      183      191
     196      3      183      192
     197      3      184      193
     198      3      184      194
     199      3      185      195
     200      3      185      196
     201      3      185      197
     202     12      172      179
     203      4      198      199
     204      5      199      200
     205      6      199      201
     206      1      201      202
     207      2      202      203
     208      3      198      204
     209      3      198      205
     210      3      202      206
     211      3      202      207
     212      3      203      208
     213      3      203      209
     214     12      186      198
     215      7      210      211
     216      8      211      212
     217      9      212      213
     218      2      213      214
     219      2      214      215
     220      2      215      216
     221      7      212      217
     222     10      217      218
     223     10      218      210
     224     11      211      219
     225      3      213      220
     226      3      213      221
     227      3      214      222
     228      3      214      223
     229      3      215      224
     230      3      215      225
     231      3      216      226
     232      3      216      227
     233      3      216      228
     234     12      203      210
     235      4      229      230
     236      5      230      231
     237      6      230      232
     238      1      232      233
     239      2      233      234
     240      3      229      235
     241      3      229      236
     242      3      233      237
     243      3      233      238
     244      3      234      239
     245      3      234      240
     246     12      217      229
     247      7      241      242
     248      8      242      243
     249      9      243      244
     250      2      244      245
     251      2      245      246
     252      2      246      247
     253      7      243      248
     254     10      248      249
     255     10      249      241
     256     11      242      250
     257      3      244      251
     258      3      244      252
     259      3      245      253
     260      3      245      254
     261      3      246      255
     262      3      246      256
     263      3      247      257
     264      3      247      258
     265      3      247      259
     266     12      234      241
     267      4      260      261
     268      5      261      262
     269      6      261      263
     270      1      263      264
     271      2      264      265
     272      3      260      266
     273      3      260      267
     274      3      264      268
     275      3      264      269
     276      3      265      270
     277      3      265      271
     278     12      248      260
     279      7      272      273
     280      8      273      274
     281      9      274      275
     282      2      275      276
     283      2      276      277
     284      2      277      278
     285      7      274      279
     286     10      279      280
     287     10      280      272
     288     11      273      281
     289      3      275      282
     290      3      275      283
     291      3      276      284
     292      3      276      285
     293      3      277      286
     294      3      277      287
     295      3      278      288
     296      3      278      289
     297      3      278      290
     298     12      265      272
     299      4      291      292
     300      5      292      293
     301      6      292      294
     302      1      294      295
     303      2      295      296
     304      3      291      297
     305      3      291      298
     306      3      295      299
     307      3      295      300
     308      3      296      301
     309      3      296      302
     310     12      279      291
     311      7      303      304
     312      8      304      305
     313      9      305      306
     314      2      306      307
     315      2      307      308
     316      2      308      309
     317      7      305      310
     318     10      310      311
     319     10      311      303
     320     11      304      312
     321      3      306      313
     322      3      306      314
     323      3      307      315
     324      3      307      316
     325      3      308      317
     326      3      308      318
     327      3      309      319
     328      3      309      320
     329      3      309      321
     330     12      296      303
     331      4      322      323
     332      5      323      324
     333      6      323      325
     334      1      325      326
     335      2      326      327
     336      3      322      328
     337      3      322      329
     338      3      326      330
     339      3      326      331
     340      3      327      332
     341      3      327      333
     342     12      310      322
     343      7      334      335
     344      8      335      336
     345      9      336      337
     346      2      337      338
     347      2      338      339
     348      2      339      340
     349      7      336      341
     350     10      341      342
     351     10      342      334
     352     11      335      343
     353      3      337      344
     354      3      337      345
     355      3      338      346
     356      3      338      347
     357      3      339      348
     358      3      339      349
     359      3      340      350
     360      3      340      351
     361      3      340      352
     362     12      327      334
     363      4      353      354
     364      5      354      355
     365      6      354      356
     366      1      356      357
     367      2      357      358
     368      3      353      359
     369      3      353      360
     370      3      357      361
     371      3      357      362
     372      3      358      363
     373      3      358      364
     374     12      341      353
     375      7      365      366
     376      8      366      367
     377      9      367      368
     378      2      368      369
     379      2      369      370
     380      2      370      371
     381      7      367      372
     382     10      372      373
     383     10      373      365
     384     11      366      374
     385      3      368      375
     386      3      368      376
     387      3      369      377
     388      3      369      378
     389      3      370      379
     390      3      370      380
     391      3      371      381
     392      3      371      382
     393      3      371      383
     394     12      358      365
     395      4      384      385
     396      5      385      386
     397      6      385      387
     398      1      387      388
     399      2      388      389
     400      3      384      390
     401      3      384      391
     402      3      388      392
     403      3      388      393
     404      3      389      394
     405      3      389      395
     406     12      372      384
     407      7      396      397
     408      8      397      398
     409      9      398      399
     410      2      399      400
     411      2      400      401
     412      2      401      402
     413      7      398      403
     414     10      403      404
     415     10      404      396
     416     11      397      405
     417      3      399      406
     418      3      399      407
     419      3      400      408
     420      3      400      409
     421      3      401      410
     422      3      401      411
     423      3      402      412
     424      3      402      413
     425      3      402      414
     426     12      389      396
     427      4      415      416
     428      5      416      417
     429      6      416      418
     430      1      418      419
     431      2      419      420
     432      3      415      421
     433      3      415      422
     434      3      419      423
     435      3      419      424
     436      3      420      425
     437      3      420      426
     438     12      403      415
     439      7      427      428
     440      8      428      429
     441      9      429      430
     442      2      430      431
     443      2      431      432
     444      2      432      433
     445      7      429      434
     446     10      434      435
     447     10      435      427
     448     11      428      436
     449      3      430      437
     450      3      430      438
     451      3      431      439
     452      3      431      440
     453      3      432      441
     454      3      432      442
     455      3      433      443
     456      3      433      444
     457      3      433      445
     458     12      420      427
     459      4      446      447
     460      5      447      448
     461      6      447      449
     462      1      449      450
     463      2      450      451
     464      3      446      452
     465      3      446      453
     466      3      450      454
     467      3      450      455
     468      3      451      456
     469      3      451      457
     470     12      434      446
     471      7      458      459
     472      8      459      460
     473      9      460      461
     474      2      461      462
     475      2      462      463
     476      2      463      464
     477      7      460      465
     478     10      465      466
     479     10      466      458
     480     11      459      467
     481      3      461      468
     482      3      461      469
     483      3      462      470
     484      3      462      471
     485      3      463      472
     486      3      463      473
     487      3      464      474
     488      3      464      475
     489      3      464      476
     490     12      451      458
     491      4      477      478
     492      5      478      479
     493      6      478      480
     494      1      480      481
     495      2      481      482
     496      3      477      483
     497      3      477      484
     498      3      481      485
     499      3      481      486
     500      3      482      487
     501      3      482      488
     502     12      465      477
     503      7      489      490
     504      8      490      491
     505      9      491      492
     506      2      492      493
     507      2      493      494
     508      2      494      495
     509      7      491      496
     510     10      496      497
     511     10      497      489
     512     11      490      498
     513      3      492      499
     514      3      492      500
     515      3      493      501
     516      3      493      502
     517      3      494      503
     518      3      494      504
     519      3      495      505
     520      3      495      506
     521      3      495      507
     522     12      482      489
     523      4      508      509
     524      5      509      510
     525      6      509      511
     526      1      511      512
     527      2      512      513
     528      3      508      514
     529      3      508      515
     530      3      512      516
     531      3      512      517
     532      3      513      518
     533      3      513      519
     534     12      496      508
     535      7      520      521
     536      8      521      522
     537      9      522      523
     538      2      523      524
     539      2      524      525
     540      2      525      526
     541      7      522      527
     542     10      527      528
     543     10      528      520
     544     11      521      529
     545      3      523      530
     546      3      523      531
     547      3      524      532
     548      3      524      533
     549      3      525      534
     550      3      525      535
     551      3      526      536
     552      3      526      537
     553      3      526      538
     554     12      513      520
     555      4      539      540
     556      5      540      541
     557      6      540      542
     558      1      542      543
     559      2      543      544
     560      3      539      545
     561      3      539      546
     562      3      543      547
     563      3      543      548
     564      3      544      549
     565      3      544      550
     566     12      527      539
     567      7      551      552
     568      8      552      553
     569      9      553      554
     570      2      554      555
     571      2      555      556
     572      2      556      557
     573      7      553      558
     574     10      558      559
     575     10      559      551
     576     11      552      560
     577      3      554      561
     578      3      554      562
     579      3      555      563
     580      3      555      564
     581      3      556      565
     582      3      556      566
     583      3      557      567
     584      3      557      568
     585      3      557      569
     586     12      544      551
     587      4      570      571
     588      5      571      572
     589      6      571      573
     590      1      573      574
     591      2      574      575
     592      3      570      576
     593      3      570      577
     594      3      574      578
     595      3      574      579
     596      3      575      580
     597      3      575      581
     598     12      558      570
     599      7      582      583
     600      8      583      584
     601      9      584      585
     602      2      585      586
     603      2      586      587
     604      2      587      588
     605      7      584      589
     606     10      589      590
     607     10      590      582
     608     11      583      591
     609      3      585      592
     610      3      585      593
     611      3      586      594
     612      3      586      595
     613      3      587      596
     614      3      587      597
     615      3      588      598
     616      3      588      599
     617      3      588      600
     618     12      575      582
     619      4      601      602
     620      5      602      603
     621      6      602      604
     622      1      604      605
     623      2      605      606
     624      3      601      607
     625      3      601      608
     626      3      605      609
     627      3      605      610
     628      3      606      611
     629      3      606      612
     630     12      589      601
     631      7      613      614
     632      8      614      615
     633      9      615      616
     634      2      616      617
     635      2      617      618
     636      2      618      619
     637      7      615      620
     638     10      620      621
     639     10      621      613
     640     11      614      622
     641      3      616      623
     642      3      616      624
     643      3      617      625
     644      3      617      626
     645      3      618      627
     646      3      618      628
     647      3      619      629
     648      3      619      630
     649      3      619      631
     650     12      606      613
     651      4      632      633
     652      5      633      634
     653      6      633      635
     654      1      635      636
     655      2      636      637
     656      3      632      638
     657      3      632      639
     658      3      636      640
     659      3      636      641
     660      3      637      642
     661      3      637      643
     662     12      620      632
     663      7      644      645
     664      8      645      646
     665      9      646      647
     666      2      647      648
     667      2      648      649
     668      2      649      650
     669      7      646      651
     670     10      651      652
     671     10      652      644
     672     11      645      653
     673      3      647      654
     674      3      647      655
     675      3      648      656
     676      3      648      657
     677      3      649      658
     678      3      649      659
     679      3      650      660
     680      3      650      661
     681      3      650      662
     682     12      637      644
     683      4      663      664
     684      5      664      665
     685      6      664      666
     686      1      666      667
     687      2      667      668
     688      3      663      669
     689      3      663      670
     690      3      667      671
     691      3      667      672
     692      3      668      673
     693      3      668      674
     694     12      651      663
     695      7      675      676
     696      8      676      677
     697      9      677      678
     698      2      678      679
     699      2      679      680
     700      2      680      681
     701      7      677      682
     702     10      682      683
     703     10      683      675
     704     11      676      684
     705      3      678      685
     706      3      678      686
     707      3      679      687
     708      3      679      688
     709      3      680      689
     710      3      680      690
     711      3      681      691
     712      3      681      692
     713      3      681      693
     714     12      668      675
     715      4      694      695
     716      5      695      696
     717      6      695      697
     718      1      697      698
     719      2      698      699
     720      3      694      700
     721      3      694      701
     722      3      698      702
     723      3      698      703
     724      3      699      704
     725      3      699      705
     726     12      682      694
     727      7      706      707
     728      8      707      708
     729      9      708      709
     730      2      709      710
     731      2      710      711
     732      2      711      712
     733      7      708      713
     734     10      713      714
     735     10      714      706
     736     11      707      715
     737      3      709      716
     738      3      709      717
     739      3      710      718
     740      3      710      719
     741      3      711      720
     742      3      711      721
     743      3      712      722
     744      3      712      723
     745      3      712      724
     746     12      699      706
     747      4      725      726
     748      5      726      727
     749      6      726      728
     750      1      728      729
     751      2      729      730
     752      3      725      731
     753      3      725      732
     754      3      729      733
     755      3      729      734
     756      3      730      735
     757      3      730      736
     758     12      713      725
     759      7      737      738
     760      8      738      739
     761      9      739      740
     762      2      740      741
     763      2      741      742
     764      2      742      743
     765      7      739      744
     766     10      744      745
     767     10      745      737
     768     11      738      746
     769      3      740      747
     770      3      740      748
     771      3      741      749
     772      3      741      750
     773      3      742      751
     774      3      742      752
     775      3      743      753
     776      3      743      754
     777      3      743      755
     778     12      730      737
     779      4      756      757
     780      5      757      758
     781      6      757      759
     782      1      759      760
     783      2      760      761
     784      3      756      762
     785      3      756      763
     786      3      760      764
     787      3      760      765
     788      3      761      766
     789      3      761      767
     790     12      744      756
     791      7      768      769
     792      8      769      770
     793      9      770      771
     794      2      771      772
     795      2      772      773
     796      2      773      774
     797      7      770      775
     798     10      775      776
     799     10      776      768
     800     11      769      777
     801      3      771      778
     802      3      771      779
     803      3      772      780
     804      3      772      781
     805      3      773      782
     806      3      773      783
     807      3      774      784
     808      3      774      785
     809      3      774      786
     810     12      761      768
     811      4      787      788
     812      5      788      789
     813      6      788      790
     814      1      790      791
     815      2      791      792
     816      3      787      793
     817      3      787      794
     818      3      791      795
     819      3      791      796
     820      3      792      797
     821      3      792      798
     822     12      775      787
     823      7      799      800
     824      8      800      801
     825      9      801      802
     826      2      802      803
     827      2      803      804
     828      2      804      805
     829      7      801      806
     830     10      806      807
     831     10      807      799
     832     11      800      808
     833      3      802      809
     834      3      802      810
     835      3      803      811
     836      3      803      812
     837      3      804      813
     838      3      804      814
     839      3      805      815
     840      3      805      816
     841      3      805      817
     842     12      792      799
     843      4      818      819
     844      5      819      820
     845      6      819      821
     846      1      821      822
     847      2      822      823
     848      3      818      824
     849      3      818      825
     850      3      822      826
     851      3      822      827
     852      3      823      828
     853      3      823      829
     854     12      806      818
     855      7      830      831
     856      8      831      832
     857      9      832      833
     858      2      833      834
     859      2      834      835
     860      2      835      836
     861      7      832      837
     862     10      837      838
     863     10      838      830
     864     11      831      839
     865      3      833      840
     866      3      833      841
     867      3      834      842
     868      3      834      843
     869      3      835      844
     870      3      835      845
     871      3      836      846
     872      3      836      847
     873      3      836      848
     874     12      823      830
     875      4      849      850
     876      5      850      851
     877      6      850      852
     878      1      852      853
     879      2      853      854
     880      3      849      855
     881      3      849      856
     882      3      853      857
     883      3      853      858
     884      3      854      859
     885      3      854      860
     886     12      837      849
     887      7      861      862
     888      8      862      863
     889      9      863      864
     890      2      864      865
     891      2      865      866
     892      2      866      867
     893      7      863      868
     894     10      868      869
     895     10      869      861
     896     11      862      870
     897      3      864      871
     898      3      864      872
     899      3      865      873
     900      3      865      874
     901      3      866      875
     902      3      866      876
     903      3      867      877
     904      3      867      878
     905      3      867      879
     906     12      854      861
     907      4      880      881
     908      5      881      882
     909      6      881      883
     910      1      883      884
     911      2      884      885
     912      3      880      886
     913      3      880      887
     914      3      884      888
     915      3      884      889
     916      3      885      890
     917      3      885      891
     918     12      868      880
     919      7      892      893
     920      8      893      894
     921      9      894      895
     922      2      895      896
     923      2      896      897
     924      2      897      898
     925      7      894      899
     926     10      899      900
     927     10      900      892
     928     11      893      901
     929      3      895      902
     930      3      895      903
     931      3      896      904
     932      3      896      905
     933      3      897      906
     934      3      897      907
     935      3      898      908
     936      3      898      909
     937      3      898      910
     938     12      885      892
     939      4      911      912
     940      5      912      913
     941      6      912      914
     942      1      914      915
     943      2      915      916
     944      3      911      917
     945      3      911      918
     946      3      915      919
     947      3      915      920
     948      3      916      921
     949      3      916      922
     950     12      899      911
     951      7      923      924
     952      8      924      925
     953      9      925      926
     954      2      926      927
     955      2      927      928
     956      2      928      929
     957      7      925      930
     958     10      930      931
     959     10      931      923
     960     11      924      932
     961      3      926      933
     962      3      926      934
     963      3      927      935
     964      3      927      936
     965      3      928      937
     966      3      928      938
     967      3      929      939
     968      3      929      940
     969      3      929      941
     970     12      916      923
     971      4      942      943
     972      5      943      944
     973      6      943      945
     974      1      945      946
     975      2      946      947
     976      3      942      948
     977      3      942      949
     978      3      946      950
     979      3      946      951
     980      3      947      952
     981      3      947      953
     982     12      930      942
     983      7      954      955
     984      8      955      956
     985      9      956      957
     986      2      957      958
     987      2      958      959
     988      2      959      960
     989      7      956      961
     990     10      961      962
     991     10      962      954
     992     11      955      963
     993      3      957      964
     994      3      957      965
     995      3      958      966
     996      3      958      967
     997      3      959      968
     998      3      959      969
     999      3      960      970
    1000      3      960      971
    1001      3      960      972
    1002     12      947      954
    1003      4      973      974
    1004      5      974      975
    1005      6      974      976
    1006      1      976      977
    1007      2      977      978
    1008      3      973      979
    1009      3      973      980
    1010      3      977      981
    1011      3      977      982
    1012      3      978      983
    1013      3      978      984
    1014     12      961      973
    1015      7      985      986
    1016      8      986      987
    1017      9      987      988
    1018      2      988      989
    1019      2      989      990
    1020      2      990      991
    1021      7      987      992
    1022     10      992      993
    1023     10      993      985
    1024     11      986      994
    1025      3      988      995
    1026      3      988      996
    1027      3      989      997
    1028      3      989      998
    1029      3      990      999
    1030      3      990     1000
    1031      3      991     1001
    1032      3      991     1002
    1033      3      991     1003
    1034     12      978      985
    1035      4     1004     1005
    1036      5     1005     1006
    1037      6     1005     1007
    1038      1     1007     1008
    1039      2     1008     1009
    1040      3     1004     1010
    1041      3     1004     1011
    1042      3     1008     1012
    1043      3     1008     1013
    1044      3     1009     1014
    1045      3     1009     1015
    1046     12      992     1004
    1047      7     1016     1017
    1048      8     1017     1018
    1049      9     1018     1019
    1050      2     1019     1020
    1051      2     1020     1021
    1052      2     1021     1022
    1053      7     1018     1023
    1054     10     1023     1024
    1055     10     1024     1016
    1056     11     1017     1025
    1057      3     1019     1026
    1058      3     1019     1027
    1059      3     1020     1028
    1060      3     1020     1029
    1061      3     1021     1030
    1062      3     1021     1031
    1063      3     1022     1032
    1064      3     1022     1033
    1065      3     1022     1034
    1066     12     1009     1016
    1067      4     1035     1036
    1068      5     1036     1037
    1069      6     1036     1038
    1070      1     1038     1039
    1071      2     1039     1040
    1072      3     1035     1041
    1073      3     1035     1042
    1074      3     1039     1043
    1075      3     1039     1044
    1076      3     1040     1045
    1077      3     1040     1046
    1078     12     1023     1035
    1079      7     1047     1048
    1080      8     1048     1049
    1081      9     1049     1050
    1082      2     1050     1051
    1083      2     1051     1052
    1084      2     1052     1053
    1085      7     1049     1054
    1086     10     1054     1055
    1087     10     1055     1047
    1088     11     1048     1056
    1089      3     1050     1057
    1090      3     1050     1058
    1091      3     1051     1059
    1092      3     1051     1060
    1093      3     1052     1061
    1094      3     1052     1062
    1095      3     1053     1063
    1096      3     1053     1064
    1097      3     1053     1065
    1098     12     1040     1047
    1099      1     1066     1067
    1100      1     1067     1068
    1101      2     1068     1069
    1102      3     1066     1070
    1103      3     1066     1071
    1104      3     1066     1072
    1105      3     1068     1073
    1106      3     1068     1074
    1107      3     1069     1075
    1108      3     1069     1076
    1109     12     1054     1069

Angles

       1      1        2        1        5
       2      1        2        1        6
       3      1        2        1        7
       4      2        5        1        6
       5      2        5        1        7
       6      2        6        1        7
       7      3        1        2        3
       8      4        2        3        4
       9      1        2        3        8
      10      1        2        3        9
      11      5        4        3        8
      12      5        4        3        9
      13      2        8        3        9
      14      5        3        4       10
      15      5        3        4       11
      16      6        3        4       12
      17      2       10        4       11
      18      5       10        4       12
      19      5       11        4       12
      20      1       13       12       18
      21      1       13       12       19
      22      7       13       12        4
      23      2       18       12       19
      24      5       18       12        4
      25      5       19       12        4
      26      8       12       13       14
      27      9       12       13       15
      28     10       14       13       15
      29     11       13       15       16
      30      4       15       16       17
      31      1       15       16       20
      32      1       15       16       21
      33      5       17       16       20
      34      5       17       16       21
      35      2       20       16       21
      36      5       16       17       22
      37      5       16       17       23
      38     12       16       17       24
      39      2       22       17       23
      40      1       22       17       24
      41      1       23       17       24
      42     13       25       24       32
      43     14       25       24       17
      44     15       32       24       17
      45     16       24       25       26
      46     17       24       25       33
      47     18       26       25       33
      48     19       25       26       27
      49     16       25       26       31
      50     20       27       26       31
      51     21       26       27       28
      52      1       26       27       34
      53      1       26       27       35
      54      5       28       27       34
      55      5       28       27       35
      56      2       34       27       35
      57      6       27       28       29
      58      5       27       28       36
      59      5       27       28       37
      60      5       29       28       36
      61      5       29       28       37
      62      2       36       28       37
      63      6       28       29       30
      64      5       28       29       38
      65      5       28       29       39
      66      5       30       29       38
      67      5       30       29       39
      68      2       38       29       39
      69      5       29       30       40
      70      5       29       30       41
      71      5       29       30       42
      72      2       40       30       41
      73      2       40       30       42
      74      2       41       30       42
      75     13       26       31       32
      76     14       26       31       43
      77     15       32       31       43
      78     22       31       32       24
      79      1       44       43       49
      80      1       44       43       50
      81     23       44       43       31
      82      2       49       43       50
      83      1       49       43       31
      84      1       50       43       31
      85      8       43       44       45
      86      9       43       44       46
      87     10       45       44       46
      88     11       44       46       47
      89      4       46       47       48
      90      1       46       47       51
      91      1       46       47       52
      92      5       48       47       51
      93      5       48       47       52
      94      2       51       47       52
      95      5       47       48       53
      96      5       47       48       54
      97     12       47       48       55
      98      2       53       48       54
      99      1       53       48       55
     100      1       54       48       55
     101     13       56       55       63
     102     14       56       55       48
     103     15       63       55       48
     104     16       55       56       57
     105     17       55       56       64
     106     18       57       56       64
     107     19       56       57       58
     108     16       56       57       62
     109     20       58       57       62
     110     21       57       58       59
     111      1       57       58       65
     112      1       57       58       66
     113      5       59       58       65
     114      5       59       58       66
     115      2       65       58       66
     116      6       58       59       60
     117      5       58       59       67
     118      5       58       59       68
     119      5       60       59       67
     120      5       60       59       68
     121      2       67       59       68
     122      6       59       60       61
     123      5       59       60       69
     124      5       59       60       70
     125      5       61       60       69
     126      5       61       60       70
     127      2       69       60       70
     128      5       60       61       71
     129      5       60       61       72
     130      5       60       61       73
     131      2       71       61       72
     132      2       71       61       73
     133      2       72       61       73
     134     13       57       62       63
     135     14       57       62       74
     136     15       63       62       74
     137     22       62       63       55
     138      1       75       74       80
     139      1       75       74       81
     140     23       75       74       62
     141      2       80       74       81
     142      1       80       74       62
     143      1       81       74       62
     144      8       74       75       76
     145      9       74       75       77
     146     10       76       75       77
     147     11       75       77       78
     148      4       77       78       79
     149      1       77       78       82
     150      1       77       78       83
     151      5       79       78       82
     152      5       79       78       83
     153      2       82       78       83
     154      5       78       79       84
     155      5       78       79       85
     156     12       78       79       86
     157      2       84       79       85
     158      1       84       79       86
     159      1       85       79       86
     160     13       87       86       94
     161     14       87       86       79
     162     15       94       86       79
     163     16       86       87       88
     164     17       86       87       95
     165     18       88       87       95
     166     19       87       88       89
     167     16       87       88       93
     168     20       89       88       93
     169     21       88       89       90
     170      1       88       89       96
     171      1       88       89       97
     172      5       90       89       96
     173      5       90       89       97
     174      2       96       89       97
     175      6       89       90       91
     176      5       89       90       98
     177      5       89       90       99
     178      5       91       90       98
     179      5       91       90       99
     180      2       98       90       99
     181      6       90       91       92
     182      5       90       91      100
     183      5       90       91      101
     184      5       92       91      100
     185      5       92       91      101
     186      2      100       91      101
     187      5       91       92      102
     188      5       91       92      103
     189      5       91       92      104
     190      2      102       92      103
     191      2      102       92      104
     192      2      103       92      104
     193     13       88       93       94
     194     14       88       93      105
     195     15       94       93      105
     196     22       93       94       86
     197      1      106      105      111
     198      1      106      105      112
     199     23      106      105       93
     200      2      111      105      112
     201      1      111      105       93
     202      1      112      105       93
     203      8      105      106      107
     204      9      105      106      108
     205     10      107      106      108
     206     11      106      108      109
     207      4      108      109      110
     208      1      108      109      113
     209      1      108      109      114
     210      5      110      109      113
     211      5      110      109      114
     212      2      113      109      114
     213      5      109      110      115
     214      5      109      110      116
     215     12      109      110      117
     216      2      115      110      116
     217      1      115      110      117
     218      1      116      110      117
     219     13      118      117      125
     220     14      118      117      110
     221     15      125      117      110
     222     16      117      118      119
     223     17      117      118      126
     224     18      119      118      126
     225     19      118      119      120
     226     16      118      119      124
     227     20      120      119      124
     228     21      119      120      121
     229      1      119      120      127
     230      1      119      120      128
     231      5      121      120      127
     232      5      121      120      128
     233      2      127      120      128
     234      6      120      121      122
     235      5      120      121      129
     236      5      120      121      130
     237      5      122      121      129
     238      5      122      121      130
     239      2      129      121      130
     240      6      121      122      123
     241      5      121      122      131
     242      5      121      122      132
     243      5      123      122      131
     244      5      123      122      132
     245      2      131      122      132
     246      5      122      123      133
     247      5      122      123      134
     248      5      122      123      135
     249      2      133      123      134
     250      2      133      123      135
     251      2      134      123      135
     252     13      119      124      125
     253     14      119      124      136
     254     15      125      124      136
     255     22      124      125      117
     256      1      137      136      142
     257      1      137      136      143
     258     23      137      136      124
     259      2      142      136      143
     260      1      142      136      124
     261      1      143      136      124
     262      8      136      137      138
     263      9      136      137      139
     264     10      138      137      139
     265     11      137      139      140
     266      4      139      140      141
     267      1      139      140      144
     268      1      139      140      145
     269      5      141      140      144
     270      5      141      140      145
     271      2      144      140      145
     272      5      140      141      146
     273      5      140      141      147
     274     12      140      141      148
     275      2      146      141      147
     276      1      146      141      148
     277      1      147      141      148
     278     13      149      148      156
     279     14      149      148      141
     280     15      156      148      141
     281     16      148      149      150
     282     17      148      149      157
     283     18      150      149      157
     284     19      149      150      151
     285     16      149      150      155
     286     20      151      150      155
     287     21      150      151      152
     288      1      150      151      158
     289      1      150      151      159
     290      5      152      151      158
     291      5      152      151      159
     292      2      158      151      159
     293      6      151      152      153
     294      5      151      152      160
     295      5      151      152      161
     296      5      153      152      160
     297      5      153      152      161
     298      2      160      152      161
     299      6      152      153      154
     300      5      152      153      162
     301      5      152      153      163
     302      5      154      153      162
     303      5      154      153      163
     304      2      162      153      163
     305      5      153      154      164
     306      5      153      154      165
     307      5      153      154      166
     308      2      164      154      165
     309      2      164      154      166
     310      2      165      154      166
     311     13      150      155      156
     312     14      150      155      167
     313     15      156      155      167
     314     22      155      156      148
     315      1      168      167      173
     316      1      168      167      174
     317     23      168      167      155
     318      2      173      167      174
     319      1      173      167      155
     320      1      174      167      155
     321      8      167      168      169
     322      9      167      168      170
     323     10      169      168      170
     324     11      168      170      171
     325      4      170      171      172
     326      1      170      171      175
     327      1      170      171      176
     328      5      172      171      175
     329      5      172      171      176
     330      2      175      171      176
     331      5      171      172      177
     332      5      171      172      178
     333     12      171      172      179
     334      2      177      172      178
     335      1      177      172      179
     336      1      178      172      179
     337     13      180      179      187
     338     14      180      179      172
     339     15      187      179      172
     340     16      179      180      181
     341     17      179      180      188
     342     18      181      180      188
     343     19      180      181      182
     344     16      180      181      186
     345     20      182      181      186
     346     21      181      182      183
     347      1      181      182      189
     348      1      181      182      190
     349      5      183      182      189
     350      5      183      182      190
     351      2      189      182      190
     352      6      182      183      184
     353      5      182      183      191
     354      5      182      183      192
     355      5      184      183      191
     356      5      184      183      192
     357      2      191      183      192
     358      6      183      184      185
     359      5      183      184      193
     360      5      183      184      194
     361      5      185      184      193
     362      5      185      184      194
     363      2      193      184      194
     364      5      184      185      195
     365      5      184      185      196
     366      5      184      185      197
     367      2      195      185      196
     368      2      195      185      197
     369      2      196      185      197
     370     13      181      186      187
     371     14      181      186      198
     372     15      187      186      198
     373     22      186      187      179
     374      1      199      198      204
     375      1      199      198      205
     376     23      199      198      186
     377      2      204      198      205
     378      1      204      198      186
     379      1      205      198      186
     380      8      198      199      200
     381      9      198      199      201
     382     10      200      199      201
     383     11      199      201      202
     384      4      201      202      203
     385      1      201      202      206
     386      1      201      202      207
     387      5      203      202      206
     388      5      203      202      207
     389      2      206      202      207
     390      5      202      203      208
     391      5      202      203      209
     392     12      202      203      210
     393      2      208      203      209
     394      1      208      203      210
     395      1      209      203      210
     396     13      211      210      218
     397     14      211      210      203
     398     15      218      210      203
     399     16      210      211      212
     400     17      210      211      219
     401     18      212      211      219
     402     19      211      212      213
     403     16      211      212      217
     404     20      213      212      217
     405     21      212      213      214
     406      1      212      213      220
     407      1      212      213      221
     408      5      214      213      220
     409      5      214      213      221
     410      2      220      213      221
     411      6      213      214      215
     412      5      213      214      222
     413      5      213      214      223
     414      5      215      214      222
     415      5      215      214      223
     416      2      222      214      223
     417      6      214      215      216
     418      5      214      215      224
     419      5      214      215      225
     420      5      216      215      224
     421      5      216      215      225
     422      2      224      215      225
     423      5      215      216      226
     424      5      215      216      227
     425      5      215      216      228
     426      2      226      216      227
     427      2      226      216      228
     428      2      227      216      228
     429     13      212      217      218
     430     14      212      217      229
     431     15      218      217      229
     432     22      217      218      210
     433      1      230      229      235
     434      1      230      229      236
     435     23      230      229      217
     436      2      235      229      236
     437      1      235      229      217
     438      1      236      229      217
     439      8      229      230      231
     440      9      229      230      232
     441     10      231      230      232
     442     11      230      232      233
     443      4      232      233      234
     444      1      232      233      237
     445      1      232      233      238
     446      5      234      233      237
     447      5      234      233      238
     448      2      237      233      238
     449      5      233      234      239
     450      5      233      234      240
     451     12      233      234      241
     452      2      239      234      240
     453      1      239      234      241
     454      1      240      234      241
     455     13      242      241      249
     456     14      242      241      234
     457     15      249      241      234
     458     16      241      242      243
     459     17      241      242      250
     460     18      243      242      250
     461     19      242      243      244
     462     16      242      243      248
     463     20      244      243      248
     464     21      243      244      245
     465      1      243      244      251
     466      1      243      244      252
     467      5      245      244      251
     468      5      245      244      252
     469      2      251      244      252
     470      6      244      245      246
     471      5      244      245      253
     472      5      244      245      254
     473      5      246      245      253
     474      5      246      245      254
     475      2      253      245      254
     476      6      245      246      247
     477      5      245      246      255
     478      5      245      246      256
     479      5      247      246      255
     480      5      247      246      256
     481      2      255      246      256
     482      5      246      247      257
     483      5      246      247      258
     484      5      246      247      259
     485      2      257      247      258
     486      2      257      247      259
     487      2      258      247      259
     488     13      243      248      249
     489     14      243      248      260
     490     15      249      248      260
     491     22      248      249      241
     492      1      261      260      266
     493      1      261      260      267
     494     23      261      260      248
     495      2      266      260      267
     496      1      266      260      248
     497      1      267      260      248
     498      8      260      261      262
     499      9      260      261      263
     500     10      262      261      263
     501     11      261      263      264
     502      4      263      264      265
     503      1      263      264      268
     504      1      263      264      269
     505      5      265      264      268
     506      5      265      264      269
     507      2      268      264      269
     508      5      264      265      270
     509      5      264      265      271
     510     12      264      265      272
     511      2      270      265      271
     512      1      270      265      272
     513      1      271      265      272
     514     13      273      272      280
     515     14      273      272      265
     516     15      280      272      265
     517     16      272      273      274
     518     17      272      273      281
     519     18      274      273      281
     520     19      273      274      275
     521     16      273      274      279
     522     20      275      274      279
     523     21      274      275      276
     524      1      274      275      282
     525      1      274      275      283
     526      5      276      275      282
     527      5      276      275      283
     528      2      282      275      283
     529      6      275      276      277
     530      5      275      276      284
     531      5      275      276      285
     532      5      277      276      284
     533      5      277      276      285
     534      2      284      276      285
     535      6      276      277      278
     536      5      276      277      286
     537      5      276      277      287
     538      5      278      277      286
     539      5      278      277      287
     540      2      286      277      287
     541      5      277      278      288
     542      5      277      278      289
     543      5      277      278      290
     544      2      288      278      289
     545      2      288      278      290
     546      2      289      278      290
     547     13      274      279      280
     548     14      274      279      291
     549     15      280      279      291
     550     22      279      280      272
     551      1      292      291      297
     552      1      292      291      298
     553     23      292      291      279
     554      2      297      291      298
     555      1      297      291      279
     556      1      298      291      279
     557      8      291      292      293
     558      9      291      292      294
     559     10      293      292      294
     560     11      292      294      295
     561      4      294      295      296
     562      1      294      295      299
     563      1      294      295      300
     564      5      296      295      299
     565      5      296      295      300
     566      2      299      295      300
     567      5      295      296      301
     568      5      295      296      302
     569     12      295      296      303
     570      2      301      296      302
     571      1      301      296      303
     572      1      302      296      303
     573     13      304      303      311
     574     14      304      303      296
     575     15      311      303      296
     576     16      303      304      305
     577     17      303      304      312
     578     18      305      304      312
     579     19      304      305      306
     580     16      304      305      310
     581     20      306      305      310
     582     21      305      306      307
     583      1      305      306      313
     584      1      305      306      314
     585      5      307      306      313
     586      5      307      306      314
     587      2      313      306      314
     588      6      306      307      308
     589      5      306      307      315
     590      5      306      307      316
     591      5      308      307      315
     592      5      308      307      316
     593      2      315      307      316
     594      6      307      308      309
     595      5      307      308      317
     596      5      307      308      318
     597      5      309      308      317
     598      5      309      308      318
     599      2      317      308      318
     600      5      308      309      319
     601      5      308      309      320
     602      5      308      309      321
     603      2      319      309      320
     604      2      319      309      321
     605      2      320      309      321
     606     13      305      310      311
     607     14      305      310      322
     608     15      311      310      322
     609     22      310      311      303
     610      1      323      322      328
     611      1      323      322      329
     612     23      323      322      310
     613      2      328      322      329
     614      1      328      322      310
     615      1      329      322      310
     616      8      322      323      324
     617      9      322      323      325
     618     10      324      323      325
     619     11      323      325      326
     620      4      325      326      327
     621      1      325      326      330
     622      1      325      326      331
     623      5      327      326      330
     624      5      327      326      331
     625      2      330      326      331
     626      5      326      327      332
     627      5      326      327      333
     628     12      326      327      334
     629      2      332      327      333
     630      1      332      327      334
     631      1      333      327      334
     632     13      335      334      342
     633     14      335      334      327
     634     15      342      334      327
     635     16      334      335      336
     636     17      334      335      343
     637     18      336      335      343
     638     19      335      336      337
     639     16      335      336      341
     640     20      337      336      341
     641     21      336      337      338
     642      1      336      337      344
     643      1      336      337      345
     644      5      338      337      344
     645      5      338      337      345
     646      2      344      337      345
     647      6      337      338      339
     648      5      337      338      346
     649      5      337      338      347
     650      5      339      338      346
     651      5      339      338      347
     652      2      346      338      347
     653      6      338      339      340
     654      5      338      339      348
     655      5      338      339      349
     656      5      340      339      348
     657      5      340      339      349
     658      2      348      339      349
     659      5      339      340      350
     660      5      339      340      351
     661      5      339      340      352
     662      2      350      340      351
     663      2      350      340      352
     664      2      351      340      352
     665     13      336      341      342
     666     14      336      341      353
     667     15      342      341      353
     668     22      341      342      334
     669      1      354      353      359
     670      1      354      353      360
     671     23      354      353      341
     672      2      359      353      360
     673      1      359      353      341
     674      1      360      353      341
     675      8      353      354      355
     676      9      353      354      356
     677     10      355      354      356
     678     11      354      356      357
     679      4      356      357      358
     680      1      356      357      361
     681      1      356      357      362
     682      5      358      357      361
     683      5      358      357      362
     684      2      361      357      362
     685      5      357      358      363
     686      5      357      358      364
     687     12      357      358      365
     688      2      363      358      364
     689      1      363      358      365
     690      1      364      358      365
     691     13      366      365      373
     692     14      366      365      358
     693     15      373      365      358
     694     16      365      366      367
     695     17      365      366      374
     696     18      367      366      374
     697     19      366      367      368
     698     16      366      367      372
     699     20      368      367      372
     700     21      367      368      369
     701      1      367      368      375
     702      1      367      368      376
     703      5      369      368      375
     704      5      369      368      376
     705      2      375      368      376
     706      6      368      369      370
     707      5      368      369      377
     708      5      368      369      378
     709      5      370      369      377
     710      5      370      369      378
     711      2      377      369      378
     712      6      369      370      371
     713      5      369      370      379
     714      5      369      370      380
     715      5      371      370      379
     716      5      371      370      380
     717      2      379      370      380
     718      5      370      371      381
     719      5      370      371      382
     720      5      370      371      383
     721      2      381      371      382
     722      2      381      371      383
     723      2      382      371      383
     724     13      367      372      373
     725     14      367      372      384
     726     15      373      372      384
     727     22      372      373      365
     728      1      385      384      390
     729      1      385      384      391
     730     23      385      384      372
     731      2      390      384      391
     732      1      390      384      372
     733      1      391      384      372
     734      8      384      385      386
     735      9      384      385      387
     736     10      386      385      387
     737     11      385      387      388
     738      4      387      388      389
     739      1      387      388      392
     740      1      387      388      393
     741      5      389      388      392
     742      5      389      388      393
     743      2      392      388      393
     744      5      388      389      394
     745      5      388      389      395
     746     12      388      389      396
     747      2      394      389      395
     748      1      394      389      396
     749      1      395      389      396
     750     13      397      396      404
     751     14      397      396      389
     752     15      404      396      389
     753     16      396      397      398
     754     17      396      397      405
     755     18      398      397      405
     756     19      397      398      399
     757     16      397      398      403
     758     20      399      398      403
     759     21      398      399      400
     760      1      398      399      406
     761      1      398      399      407
     762      5      400      399      406
     763      5      400      399      407
     764      2      406      399      407
     765      6      399      400      401
     766      5      399      400      408
     767      5      399      400      409
     768      5      401      400      408
     769      5      401      400      409
     770      2      408      400      409
     771      6      400      401      402
     772      5      400      401      410
     773      5      400      401      411
     774      5      402      401      410
     775      5      402      401      411
     776      2      410      401      411
     777      5      401      402      412
     778      5      401      402      413
     779      5      401      402      414
     780      2      412      402      413
     781      2      412      402      414
     782      2      413      402      414
     783     13      398      403      404
     784     14      398      403      415
     785     15      404      403      415
     786     22      403      404      396
     787      1      416      415      421
     788      1      416      415      422
     789     23      416      415      403
     790      2      421      415      422
     791      1      421      415      403
     792      1      422      415      403
     793      8      415      416      417
     794      9      415      416      418
     795     10      417      416      418
     796     11      416      418      419
     797      4      418      419      420
     798      1      418      419      423
     799      1      418      419      424
     800      5      420      419      423
     801      5      420      419      424
     802      2      423      419      424
     803      5      419      420      425
     804      5      419      420      426
     805     12      419      420      427
     806      2      425      420      426
     807      1      425      420      427
     808      1      426      420      427
     809     13      428      427      435
     810     14      428      427      420
     811     15      435      427      420
     812     16      427      428      429
     813     17      427      428      436
     814     18      429      428      436
     815     19      428      429      430
     816     16      428      429      434
     817     20      430      429      434
     818     21      429      430      431
     819      1      429      430      437
     820      1      429      430      438
     821      5      431      430      437
     822      5      431      430      438
     823      2      437      430      438
     824      6      430      431      432
     825      5      430      431      439
     826      5      430      431      440
     827      5      432      431      439
     828      5      432      431      440
     829      2      439      431      440
     830      6      431      432      433
     831      5      431      432      441
     832      5      431      432      442
     833      5      433      432      441
     834      5      433      432      442
     835      2      441      432      442
     836      5      432      433      443
     837      5      432      433      444
     838      5      432      433      445
     839      2      443      433      444
     840      2      443      433      445
     841      2      444      433      445
     842     13      429      434      435
     843     14      429      434      446
     844     15      435      434      446
     845     22      434      435      427
     846      1      447      446      452
     847      1      447      446      453
     848     23      447      446      434
     849      2      452      446      453
     850      1      452      446      434
     851      1      453      446      434
     852      8      446      447      448
     853      9      446      447      449
     854     10      448      447      449
     855     11      447      449      450
     856      4      449      450      451
     857      1      449      450      454
     858      1      449      450      455
     859      5      451      450      454
     860      5      451      450      455
     861      2      454      450      455
     862      5      450      451      456
     863      5      450      451      457
     864     12      450      451      458
     865      2      456      451      457
     866      1      456      451      458
     867      1      457      451      458
     868     13      459      458      466
     869     14      459      458      451
     870     15      466      458      451
     871     16      458      459      460
     872     17      458      459      467
     873     18      460      459      467
     874     19      459      460      461
     875     16      459      460      465
     876     20      461      460      465
     877     21      460      461      462
     878      1      460      461      468
     879      1      460      461      469
     880      5      462      461      468
     881      5      462      461      469
     882      2      468      461      469
     883      6      461      462      463
     884      5      461      462      470
     885      5      461      462      471
     886      5      463      462      470
     887      5      463      462      471
     888      2      470      462      471
     889      6      462      463      464
     890      5      462      463      472
     891      5      462      463      473
     892      5      464      463      472
     893      5      464      463      473
     894      2      472      463      473
     895      5      463      464      474
     896      5      463      464      475
     897      5      463      464      476
     898      2      474      464      475
     899      2      474      464      476
     900      2      475      464      476
     901     13      460      465      466
     902     14      460      465      477
     903     15      466      465      477
     904     22      465      466      458
     905      1      478      477      483
     906      1      478      477      484
     907     23      478      477      465
     908      2      483      477      484
     909      1      483      477      465
     910      1      484      477      465
     911      8      477      478      479
     912      9      477      478      480
     913     10      479      478      480
     914     11      478      480      481
     915      4      480      481      482
     916      1      480      481      485
     917      1      480      481      486
     918      5      482      481      485
     919      5      482      481      486
     920      2      485      481      486
     921      5      481      482      487
     922      5      481      482      488
     923     12      481      482      489
     924      2      487      482      488
     925      1      487      482      489
     926      1      488      482      489
     927     13      490      489      497
     928     14      490      489      482
     929     15      497      489      482
     930     16      489      490      491
     931     17      489      490      498
     932     18      491      490      498
     933     19      490      491      492
     934     16      490      491      496
     935     20      492      491      496
     936     21      491      492      493
     937      1      491      492      499
     938      1      491      492      500
     939      5      493      492      499
     940      5      493      492      500
     941      2      499      492      500
     942      6      492      493      494
     943      5      492      493      501
     944      5      492      493      502
     945      5      494      493      501
     946      5      494      493      502
     947      2      501      493      502
     948      6      493      494      495
     949      5      493      494      503
     950      5      493      494      504
     951      5      495      494      503
     952      5      495      494      504
     953      2      503      494      504
     954      5      494      495      505
     955      5      494      495      506
     956      5      494      495      507
     957      2      505      495      506
     958      2      505      495      507
     959      2      506      495      507
     960     13      491      496      497
     961     14      491      496      508
     962     15      497      496      508
     963     22      496      497      489
     964      1      509      508      514
     965      1      509      508      515
     966     23      509      508      496
     967      2      514      508      515
     968      1      514      508      496
     969      1      515      508      496
     970      8      508      509      510
     971      9      508      509      511
     972     10      510      509      511
     973     11      509      511      512
     974      4      511      512      513
     975      1      511      512      516
     976      1      511      512      517
     977      5      513      512      516
     978      5      513      512      517
     979      2      516      512      517
     980      5      512      513      518
     981      5      512      513      519
     982     12      512      513      520
     983      2      518      513      519
     984      1      518      513      520
     985      1      519      513      520
     986     13      521      520      528
     987     14      521      520      513
     988     15      528      520      513
     989     16      520      521      522
     990     17      520      521      529
     991     18      522      521      529
     992     19      521      522      523
     993     16      521      522      527
     994     20      523      522      527
     995     21      522      523      524
     996      1      522      523      530
     997      1      522      523      531
     998      5      524      523      530
     999      5      524      523      531
    1000      2      530      523      531
    1001      6      523      524      525
    1002      5      523      524      532
    1003      5      523      524      533
    1004      5      525      524      532
    1005      5      525      524      533
    1006      2      532      524      533
    1007      6      524      525      526
    1008      5      524      525      534
    1009      5      524      525      535
    1010      5      526      525      534
    1011      5      526      525      535
    1012      2      534      525      535
    1013      5      525      526      536
    1014      5      525      526      537
    1015      5      525      526      538
    1016      2      536      526      537
    1017      2      536      526      538
    1018      2      537      526      538
    1019     13      522      527      528
    1020     14      522      527      539
    1021     15      528      527      539
    1022     22      527      528      520
    1023      1      540      539      545
    1024      1      540      539      546
    1025     23      540      539      527
    1026      2      545      539      546
    1027      1      545      539      527
    1028      1      546      539      527
    1029      8      539      540      541
    1030      9      539      540      542
    1031     10      541      540      542
    1032     11      540      542      543
    1033      4      542      543      544
    1034      1      542      543      547
    1035      1      542      543      548
    1036      5      544      543      547
    1037      5      544      543      548
    1038      2      547      543      548
    1039      5      543      544      549
    1040      5      543      544      550
    1041     12      543      544      551
    1042      2      549      544      550
    1043      1      549      544      551
    1044      1      550      544      551
    1045     13      552      551      559
    1046     14      552      551      544
    1047     15      559      551      544
    1048     16      551      552      553
    1049     17      551      552      560
    1050     18      553      552      560
    1051     19      552      553      554
    1052     16      552      553      558
    1053     20      554      553      558
    1054     21      553      554      555
    1055      1      553      554      561
    1056      1      553      554      562
    1057      5      555      554      561
    1058      5      555      554      562
    1059      2      561      554      562
    1060      6      554      555      556
    1061      5      554      555      563
    1062      5      554      555      564
    1063      5      556      555      563
    1064      5      556      555      564
    1065      2      563      555      564
    1066      6      555      556      557
    1067      5      555      556      565
    1068      5      555      556      566
    1069      5      557      556      565
    1070      5      557      556      566
    1071      2      565      556      566
    1072      5      556      557      567
    1073      5      556      557      568
    1074      5      556      557      569
    1075      2      567      557      568
    1076      2      567      557      569
    1077      2      568      557      569
    1078     13      553      558      559
    1079     14      553      558      570
    1080     15      559      558      570
    1081     22      558      559      551
    1082      1      571      570      576
    1083      1      571      570      577
    1084     23      571      570      558
    1085      2      576      570      577
    1086      1      576      570      558
    1087      1      577      570      558
    1088      8      570      571      572
    1089      9      570      571      573
    1090     10      572      571      573
    1091     11      571      573      574
    1092      4      573      574      575
    1093      1      573      574      578
    1094      1      573      574      579
    1095      5      575      574      578
    1096      5      575      574      579
    1097      2      578      574      579
    1098      5      574      575      580
    1099      5      574      575      581
    1100     12      574      575      582
    1101      2      580      575      581
    1102      1      580      575      582
    1103      1      581      575      582
    1104     13      583      582      590
    1105     14      583      582      575
    1106     15      590      582      575
    1107     16      582      583      584
    1108     17      582      583      591
    1109     18      584      583      591
    1110     19      583      584      585
    1111     16      583      584      589
    1112     20      585      584      589
    1113     21      584      585      586
    1114      1      584      585      592
    1115      1      584      585      593
    1116      5      586      585      592
    1117      5      586      585      593
    1118      2      592      585      593
    1119      6      585      586      587
    1120      5      585      586      594
    1121      5      585      586      595
    1122      5      587      586      594
    1123      5      587      586      595
    1124      2      594      586      595
    1125      6      586      587      588
    1126      5      586      587      596
    1127      5      586      587      597
    1128      5      588      587      596
    1129      5      588      587      597
    1130      2      596      587      597
    1131      5      587      588      598
    1132      5      587      588      599
    1133      5      587      588      600
    1134      2      598      588      599
    1135      2      598      588      600
    1136      2      599      588      600
    1137     13      584      589      590
    1138     14      584      589      601
    1139     15      590      589      601
    1140     22      589      590      582
    1141      1      602      601      607
    1142      1      602      601      608
    1143     23      602      601      589
    1144      2      607      601      608
    1145      1      607      601      589
    1146      1      608      601      589
    1147      8      601      602      603
    1148      9      601      602      604
    1149     10      603      602      604
    1150     11      602      604      605
    1151      4      604      605      606
    1152      1      604      605      609
    1153      1      604      605      610
    1154      5      606      605      609
    1155      5      606      605      610
    1156      2      609      605      610
    1157      5      605      606      611
    1158      5      605      606      612
    1159     12      605      606      613
    1160      2      611      606      612
    1161      1      611      606      613
    1162      1      612      606      613
    1163     13      614      613      621
    1164     14      614      613      606
    1165     15      621      613      606
    1166     16      613      614      615
    1167     17      613      614      622
    1168     18      615      614      622
    1169     19      614      615      616
    1170     16      614      615      620
    1171     20      616      615      620
    1172     21      615      616      617
    1173      1      615      616      623
    1174      1      615      616      624
    1175      5      617      616      623
    1176      5      617      616      624
    1177      2      623      616      624
    1178      6      616      617      618
    1179      5      616      617      625
    1180      5      616      617      626
    1181      5      618      617      625
    1182      5      618      617      626
    1183      2      625      617      626
    1184      6      617      618      619
    1185      5      617      618      627
    1186      5      617      618      628
    1187      5      619      618      627
    1188      5      619      618      628
    1189      2      627      618      628
    1190      5      618      619      629
    1191      5      618      619      630
    1192      5      618      619      631
    1193      2      629      619      630
    1194      2      629      619      631
    1195      2      630      619      631
    1196     13      615      620      621
    1197     14      615      620      632
    1198     15      621      620      632
    1199     22      620      621      613
    1200      1      633      632      638
    1201      1      633      632      639
    1202     23      633      632      620
    1203      2      638      632      639
    1204      1      638      632      620
    1205      1      639      632      620
    1206      8      632      633      634
    1207      9      632      633      635
    1208     10      634      633      635
    1209     11      633      635      636
    1210      4      635      636      637
    1211      1      635      636      640
    1212      1      635      636      641
    1213      5      637      636      640
    1214      5      637      636      641
    1215      2      640      636      641
    1216      5      636      637      642
    1217      5      636      637      643
    1218     12      636      637      644
    1219      2      642      637      643
    1220      1      642      637      644
    1221      1      643      637      644
    1222     13      645      644      652
    1223     14      645      644      637
    1224     15      652      644      637
    1225     16      644      645      646
    1226     17      644      645      653
    1227     18      646      645      653
    1228     19      645      646      647
    1229     16      645      646      651
    1230     20      647      646      651
    1231     21      646      647      648
    1232      1      646      647      654
    1233      1      646      647      655
    1234      5      648      647      654
    1235      5      648      647      655
    1236      2      654      647      655
    1237      6      647      648      649
    1238      5      647      648      656
    1239      5      647      648      657
    1240      5      649      648      656
    1241      5      649      648      657
    1242      2      656      648      657
    1243      6      648      649      650
    1244      5      648      649      658
    1245      5      648      649      659
    1246      5      650      649      658
    1247      5      650      649      659
    1248      2      658      649      659
    1249      5      649      650      660
    1250      5      649      650      661
    1251      5      649      650      662
    1252      2      660      650      661
    1253      2      660      650      662
    1254      2      661      650      662
    1255     13      646      651      652
    1256     14      646      651      663
    1257     15      652      651      663
    1258     22      651      652      644
    1259      1      664      663      669
    1260      1      664      663      670
    1261     23      664      663      651
    1262      2      669      663      670
    1263      1      669      663      651
    1264      1      670      663      651
    1265      8      663      664      665
    1266      9      663      664      666
    1267     10      665      664      666
    1268     11      664      666      667
    1269      4      666      667      668
    1270      1      666      667      671
    1271      1      666      667      672
    1272      5      668      667      671
    1273      5      668      667      672
    1274      2      671      667      672
    1275      5      667      668      673
    1276      5      667      668      674
    1277     12      667      668      675
    1278      2      673      668      674
    1279      1      673      668      675
    1280      1      674      668      675
    1281     13      676      675      683
    1282     14      676      675      668
    1283     15      683      675      668
    1284     16      675      676      677
    1285     17      675      676      684
    1286     18      677      676      684
    1287     19      676      677      678
    1288     16      676      677      682
    1289     20      678      677      682
    1290     21      677      678      679
    1291      1      677      678      685
    1292      1      677      678      686
    1293      5      679      678      685
    1294      5      679      678      686
    1295      2      685      678      686
    1296      6      678      679      680
    1297      5      678      679      687
    1298      5      678      679      688
    1299      5      680      679      687
    1300      5      680      679      688
    1301      2      687      679      688
    1302      6      679      680      681
    1303      5      679      680      689
    1304      5      679      680      690
    1305      5      681      680      689
    1306      5      681      680      690
    1307      2      689      680      690
    1308      5      680      681      691
    1309      5      680      681      692
    1310      5      680      681      693
    1311      2      691      681      692
    1312      2      691      681      693
    1313      2      692      681      693
    1314     13      677      682      683
    1315     14      677      682      694
    1316     15      683      682      694
    1317     22      682      683      675
    1318      1      695      694      700
    1319      1      695      694      701
    1320     23      695      694      682
    1321      2      700      694      701
    1322      1      700      694      682
    1323      1      701      694      682
    1324      8      694      695      696
    1325      9      694      695      697
    1326     10      696      695      697
    1327     11      695      697      698
    1328      4      697      698      699
    1329      1      697      698      702
    1330      1      697      698      703
    1331      5      699      698      702
    1332      5      699      698      703
    1333      2      702      698      703
    1334      5      698      699      704
    1335      5      698      699      705
    1336     12      698      699      706
    1337      2      704      699      705
    1338      1      704      699      706
    1339      1      705      699      706
    1340     13      707      706      714
    1341     14      707      706      699
    1342     15      714      706      699
    1343     16      706      707      708
    1344     17      706      707      715
    1345     18      708      707      715
    1346     19      707      708      709
    1347     16      707      708      713
    1348     20      709      708      713
    1349     21      708      709      710
    1350      1      708      709      716
    1351      1      708      709      717
    1352      5      710      709      716
    1353      5      710      709      717
    1354      2      716      709      717
    1355      6      709      710      711
    1356      5      709      710      718
    1357      5      709      710      719
    1358      5      711      710      718
    1359      5      711      710      719
    1360      2      718      710      719
    1361      6      710      711      712
    1362      5      710      711      720
    1363      5      710      711      721
    1364      5      712      711      720
    1365      5      712      711      721
    1366      2      720      711      721
    1367      5      711      712      722
    1368      5      711      712      723
    1369      5      711      712      724
    1370      2      722      712      723
    1371      2      722      712      724
    1372      2      723      712      724
    1373     13      708      713      714
    1374     14      708      713      725
    1375     15      714      713      725
    1376     22      713      714      706
    1377      1      726      725      731
    1378      1      726      725      732
    1379     23      726      725      713
    1380      2      731      725      732
    1381      1      731      725      713
    1382      1      732      725      713
    1383      8      725      726      727
    1384      9      725      726      728
    1385     10      727      726      728
    1386     11      726      728      729
    1387      4      728      729      730
    1388      1      728      729      733
    1389      1      728      729      734
    1390      5      730      729      733
    1391      5      730      729      734
    1392      2      733      729      734
    1393      5      729      730      735
    1394      5      729      730      736
    1395     12      729      730      737
    1396      2      735      730      736
    1397      1      735      730      737
    1398      1      736      730      737
    1399     13      738      737      745
    1400     14      738      737      730
    1401     15      745      737      730
    1402     16      737      738      739
    1403     17      737      738      746
    1404     18      739      738      746
    1405     19      738      739      740
    1406     16      738      739      744
    1407     20      740      739      744
    1408     21      739      740      741
    1409      1      739      740      747
    1410      1      739      740      748
    1411      5      741      740      747
    1412      5      741      740      748
    1413      2      747      740      748
    1414      6      740      741      742
    1415      5      740      741      749
    1416      5      740      741      750
    1417      5      742      741      749
    1418      5      742      741      750
    1419      2      749      741      750
    1420      6      741      742      743
    1421      5      741      742      751
    1422      5      741      742      752
    1423      5      743      742      751
    1424      5      743      742      752
    1425      2      751      742      752
    1426      5      742      743      753
    1427      5      742      743      754
    1428      5      742      743      755
    1429      2      753      743      754
    1430      2      753      743      755
    1431      2      754      743      755
    1432     13      739      744      745
    1433     14      739      744      756
    1434     15      745      744      756
    1435     22      744      745      737
    1436      1      757      756      762
    1437      1      757      756      763
    1438     23      757      756      744
    1439      2      762      756      763
    1440      1      762      756      744
    1441      1      763      756      744
    1442      8      756      757      758
    1443      9      756      757      759
    1444     10      758      757      759
    1445     11      757      759      760
    1446      4      759      760      761
    1447      1      759      760      764
    1448      1      759      760      765
    1449      5      761      760      764
    1450      5      761      760      765
    1451      2      764      760      765
    1452      5      760      761      766
    1453      5      760      761      767
    1454     12      760      761      768
    1455      2      766      761      767
    1456      1      766      761      768
    1457      1      767      761      768
    1458     13      769      768      776
    1459     14      769      768      761
    1460     15      776      768      761
    1461     16      768      769      770
    1462     17      768      769      777
    1463     18      770      769      777
    1464     19      769      770      771
    1465     16      769      770      775
    1466     20      771      770      775
    1467     21      770      771      772
    1468      1      770      771      778
    1469      1      770      771      779
    1470      5      772      771      778
    1471      5      772      771      779
    1472      2      778      771      779
    1473      6      771      772      773
    1474      5      771      772      780
    1475      5      771      772      781
    1476      5      773      772      780
    1477      5      773      772      781
    1478      2      780      772      781
    1479      6      772      773      774
    1480      5      772      773      782
    1481      5      772      773      783
    1482      5      774      773      782
    1483      5      774      773      783
    1484      2      782      773      783
    1485      5      773      774      784
    1486      5      773      774      785
    1487      5      773      774      786
    1488      2      784      774      785
    1489      2      784      774      786
    1490      2      785      774      786
    1491     13      770      775      776
    1492     14      770      775      787
    1493     15      776      775      787
    1494     22      775      776      768
    1495      1      788      787      793
    1496      1      788      787      794
    1497     23      788      787      775
    1498      2      793      787      794
    1499      1      793      787      775
    1500      1      794      787      775
    1501      8      787      788      789
    1502      9      787      788      790
    1503     10      789      788      790
    1504     11      788      790      791
    1505      4      790      791      792
    1506      1      790      791      795
    1507      1      790      791      796
    1508      5      792      791      795
    1509      5      792      791      796
    1510      2      795      791      796
    1511      5      791      792      797
    1512      5      791      792      798
    1513     12      791      792      799
    1514      2      797      792      798
    1515      1      797      792      799
    1516      1      798      792      799
    1517     13      800      799      807
    1518     14      800      799      792
    1519     15      807      799      792
    1520     16      799      800      801
    1521     17      799      800      808
    1522     18      801      800      808
    1523     19      800      801      802
    1524     16      800      801      806
    1525     20      802      801      806
    1526     21      801      802      803
    1527      1      801      802      809
    1528      1      801      802      810
    1529      5      803      802      809
    1530      5      803      802      810
    1531      2      809      802      810
    1532      6      802      803      804
    1533      5      802      803      811
    1534      5      802      803      812
    1535      5      804      803      811
    1536      5      804      803      812
    1537      2      811      803      812
    1538      6      803      804      805
    1539      5      803      804      813
    1540      5      803      804      814
    1541      5      805      804      813
    1542      5      805      804      814
    1543      2      813      804      814
    1544      5      804      805      815
    1545      5      804      805      816
    1546      5      804      805      817
    1547      2      815      805      816
    1548      2      815      805      817
    1549      2      816      805      817
    1550     13      801      806      807
    1551     14      801      806      818
    1552     15      807      806      818
    1553     22      806      807      799
    1554      1      819      818      824
    1555      1      819      818      825
    1556     23      819      818      806
    1557      2      824      818      825
    1558      1      824      818      806
    1559      1      825      818      806
    1560      8      818      819      820
    1561      9      818      819      821
    1562     10      820      819      821
    1563     11      819      821      822
    1564      4      821      822      823
    1565      1      821      822      826
    1566      1      821      822      827
    1567      5      823      822      826
    1568      5      823      822      827
    1569      2      826      822      827
    1570      5      822      823      828
    1571      5      822      823      829
    1572     12      822      823      830
    1573      2      828      823      829
    1574      1      828      823      830
    1575      1      829      823      830
    1576     13      831      830      838
    1577     14      831      830      823
    1578     15      838      830      823
    1579     16      830      831      832
    1580     17      830      831      839
    1581     18      832      831      839
    1582     19      831      832      833
    1583     16      831      832      837
    1584     20      833      832      837
    1585     21      832      833      834
    1586      1      832      833      840
    1587      1      832      833      841
    1588      5      834      833      840
    1589      5      834      833      841
    1590      2      840      833      841
    1591      6      833      834      835
    1592      5      833      834      842
    1593      5      833      834      843
    1594      5      835      834      842
    1595      5      835      834      843
    1596      2      842      834      843
    1597      6      834      835      836
    1598      5      834      835      844
    1599      5      834      835      845
    1600      5      836      835      844
    1601      5      836      835      845
    1602      2      844      835      845
    1603      5      835      836      846
    1604      5      835      836      847
    1605      5      835      836      848
    1606      2      846      836      847
    1607      2      846      836      848
    1608      2      847      836      848
    1609     13      832      837      838
    1610     14      832      837      849
    1611     15      838      837      849
    1612     22      837      838      830
    1613      1      850      849      855
    1614      1      850      849      856
    1615     23      850      849      837
    1616      2      855      849      856
    1617      1      855      849      837
    1618      1      856      849      837
    1619      8      849      850      851
    1620      9      849      850      852
    1621     10      851      850      852
    1622     11      850      852      853
    1623      4      852      853      854
    1624      1      852      853      857
    1625      1      852      853      858
    1626      5      854      853      857
    1627      5      854      853      858
    1628      2      857      853      858
    1629      5      853      854      859
    1630      5      853      854      860
    1631     12      853      854      861
    1632      2      859      854      860
    1633      1      859      854      861
    1634      1      860      854      861
    1635     13      862      861      869
    1636     14      862      861      854
    1637     15      869      861      854
    1638     16      861      862      863
    1639     17      861      862      870
    1640     18      863      862      870
    1641     19      862      863      864
    1642     16      862      863      868
    1643     20      864      863      868
    1644     21      863      864      865
    1645      1      863      864      871
    1646      1      863      864      872
    1647      5      865      864      871
    1648      5      865      864      872
    1649      2      871      864      872
    1650      6      864      865      866
    1651      5      864      865      873
    1652      5      864      865      874
    1653      5      866      865      873
    1654      5      866      865      874
    1655      2      873      865      874
    1656      6      865      866      867
    1657      5      865      866      875
    1658      5      865      866      876
    1659      5      867      866      875
    1660      5      867      866      876
    1661      2      875      866      876
    1662      5      866      867      877
    1663      5      866      867      878
    1664      5      866      867      879
    1665      2      877      867      878
    1666      2      877      867      879
    1667      2      878      867      879
    1668     13      863      868      869
    1669     14      863      868      880
    1670     15      869      868      880
    1671     22      868      869      861
    1672      1      881      880      886
    1673      1      881      880      887
    1674     23      881      880      868
    1675      2      886      880      887
    1676      1      886      880      868
    1677      1      887      880      868
    1678      8      880      881      882
    1679      9      880      881      883
    1680     10      882      881      883
    1681     11      881      883      884
    1682      4      883      884      885
    1683      1      883      884      888
    1684      1      883      884      889
    1685      5      885      884      888
    1686      5      885      884      889
    1687      2      888      884      889
    1688      5      884      885      890
    1689      5      884      885      891
    1690     12      884      885      892
    1691      2      890      885      891
    1692      1      890      885      892
    1693      1      891      885      892
    1694     13      893      892      900
    1695     14      893      892      885
    1696     15      900      892      885
    1697     16      892      893      894
    1698     17      892      893      901
    1699     18      894      893      901
    1700     19      893      894      895
    1701     16      893      894      899
    1702     20      895      894      899
    1703     21      894      895      896
    1704      1      894      895      902
    1705      1      894      895      903
    1706      5      896      895      902
    1707      5      896      895      903
    1708      2      902      895      903
    1709      6      895      896      897
    1710      5      895      896      904
    1711      5      895      896      905
    1712      5      897      896      904
    1713      5      897      896      905
    1714      2      904      896      905
    1715      6      896      897      898
    1716      5      896      897      906
    1717      5      896      897      907
    1718      5      898      897      906
    1719      5      898      897      907
    1720      2      906      897      907
    1721      5      897      898      908
    1722      5      897      898      909
    1723      5      897      898      910
    1724      2      908      898      909
    1725      2      908      898      910
    1726      2      909      898      910
    1727     13      894      899      900
    1728     14      894      899      911
    1729     15      900      899      911
    1730     22      899      900      892
    1731      1      912      911      917
    1732      1      912      911      918
    1733     23      912      911      899
    1734      2      917      911      918
    1735      1      917      911      899
    1736      1      918      911      899
    1737      8      911      912      913
    1738      9      911      912      914
    1739     10      913      912      914
    1740     11      912      914      915
    1741      4      914      915      916
    1742      1      914      915      919
    1743      1      914      915      920
    1744      5      916      915      919
    1745      5      916      915      920
    1746      2      919      915      920
    1747      5      915      916      921
    1748      5      915      916      922
    1749     12      915      916      923
    1750      2      921      916      922
    1751      1      921      916      923
    1752      1      922      916      923
    1753     13      924      923      931
    1754     14      924      923      916
    1755     15      931      923      916
    1756     16      923      924      925
    1757     17      923      924      932
    1758     18      925      924      932
    1759     19      924      925      926
    1760     16      924      925      930
    1761     20      926      925      930
    1762     21      925      926      927
    1763      1      925      926      933
    1764      1      925      926      934
    1765      5      927      926      933
    1766      5      927      926      934
    1767      2      933      926      934
    1768      6      926      927      928
    1769      5      926      927      935
    1770      5      926      927      936
    1771      5      928      927      935
    1772      5      928      927      936
    1773      2      935      927      936
    1774      6      927      928      929
    1775      5      927      928      937
    1776      5      927      928      938
    1777      5      929      928      937
    1778      5      929      928      938
    1779      2      937      928      938
    1780      5      928      929      939
    1781      5      928      929      940
    1782      5      928      929      941
    1783      2      939      929      940
    1784      2      939      929      941
    1785      2      940      929      941
    1786     13      925      930      931
    1787     14      925      930      942
    1788     15      931      930      942
    1789     22      930      931      923
    1790      1      943      942      948
    1791      1      943      942      949
    1792     23      943      942      930
    1793      2      948      942      949
    1794      1      948      942      930
    1795      1      949      942      930
    1796      8      942      943      944
    1797      9      942      943      945
    1798     10      944      943      945
    1799     11      943      945      946
    1800      4      945      946      947
    1801      1      945      946      950
    1802      1      945      946      951
    1803      5      947      946      950
    1804      5      947      946      951
    1805      2      950      946      951
    1806      5      946      947      952
    1807      5      946      947      953
    1808     12      946      947      954
    1809      2      952      947      953
    1810      1      952      947      954
    1811      1      953      947      954
    1812     13      955      954      962
    1813     14      955      954      947
    1814     15      962      954      947
    1815     16      954      955      956
    1816     17      954      955      963
    1817     18      956      955      963
    1818     19      955      956      957
    1819     16      955      956      961
    1820     20      957      956      961
    1821     21      956      957      958
    1822      1      956      957      964
    1823      1      956      957      965
    1824      5      958      957      964
    1825      5      958      957      965
    1826      2      964      957      965
    1827      6      957      958      959
    1828      5      957      958      966
    1829      5      957      958      967
    1830      5      959      958      966
    1831      5      959      958      967
    1832      2      966      958      967
    1833      6      958      959      960
    1834      5      958      959      968
    1835      5      958      959      969
    1836      5      960      959      968
    1837      5      960      959      969
    1838      2      968      959      969
    1839      5      959      960      970
    1840      5      959      960      971
    1841      5      959      960      972
    1842      2      970      960      971
    1843      2      970      960      972
    1844      2      971      960      972
    1845     13      956      961      962
    1846     14      956      961      973
    1847     15      962      961      973
    1848     22      961      962      954
    1849      1      974      973      979
    1850      1      974      973      980
    1851     23      974      973      961
    1852      2      979      973      980
    1853      1      979      973      961
    1854      1      980      973      961
    1855      8      973      974      975
    1856      9      973      974      976
    1857     10      975      974      976
    1858     11      974      976      977
    1859      4      976      977      978
    1860      1      976      977      981
    1861      1      976      977      982
    1862      5      978      977      981
    1863      5      978      977      982
    1864      2      981      977      982
    1865      5      977      978      983
    1866      5      977      978      984
    1867     12      977      978      985
    1868      2      983      978      984
    1869      1      983      978      985
    1870      1      984      978      985
    1871     13      986      985      993
    1872     14      986      985      978
    1873     15      993      985      978
    1874     16      985      986      987
    1875     17      985      986      994
    1876     18      987      986      994
    1877     19      986      987      988
    1878     16      986      987      992
    1879     20      988      987      992
    1880     21      987      988      989
    1881      1      987      988      995
    1882      1      987      988      996
    1883      5      989      988      995
    1884      5      989      988      996
    1885      2      995      988      996
    1886      6      988      989      990
    1887      5      988      989      997
    1888      5      988      989      998
    1889      5      990      989      997
    1890      5      990      989      998
    1891      2      997      989      998
    1892      6      989      990      991
    1893      5      989      990      999
    1894      5      989      990     1000
    1895      5      991      990      999
    1896      5      991      990     1000
    1897      2      999      990     1000
    1898      5      990      991     1001
    1899      5      990      991     1002
    1900      5      990      991     1003
    1901      2     1001      991     1002
    1902      2     1001      991     1003
    1903      2     1002      991     1003
    1904     13      987      992      993
    1905     14      987      992     1004
    1906     15      993      992     1004
    1907     22      992      993      985
    1908      1     1005     1004     1010
    1909      1     1005     1004     1011
    1910     23     1005     1004      992
    1911      2     1010     1004     1011
    1912      1     1010     1004      992
    1913      1     1011     1004      992
    1914      8     1004     1005     1006
    1915      9     1004     1005     1007
    1916     10     1006     1005     1007
    1917     11     1005     1007     1008
    1918      4     1007     1008     1009
    1919      1     1007     1008     1012
    1920      1     1007     1008     1013
    1921      5     1009     1008     1012
    1922      5     1009     1008     1013
    1923      2     1012     1008     1013
    1924      5     1008     1009     1014
    1925      5     1008     1009     1015
    1926     12     1008     1009     1016
    1927      2     1014     1009     1015
    1928      1     1014     1009     1016
    1929      1     1015     1009     1016
    1930     13     1017     1016     1024
    1931     14     1017     1016     1009
    1932     15     1024     1016     1009
    1933     16     1016     1017     1018
    1934     17     1016     1017     1025
    1935     18     1018     1017     1025
    1936     19     1017     1018     1019
    1937     16     1017     1018     1023
    1938     20     1019     1018     1023
    1939     21     1018     1019     1020
    1940      1     1018     1019     1026
    1941      1     1018     1019     1027
    1942      5     1020     1019     1026
    1943      5     1020     1019     1027
    1944      2     1026     1019     1027
    1945      6     1019     1020     1021
    1946      5     1019     1020     1028
    1947      5     1019     1020     1029
    1948      5     1021     1020     1028
    1949      5     1021     1020     1029
    1950      2     1028     1020     1029
    1951      6     1020     1021     1022
    1952      5     1020     1021     1030
    1953      5     1020     1021     1031
    1954      5     1022     1021     1030
    1955      5     1022     1021     1031
    1956      2     1030     1021     1031
    1957      5     1021     1022     1032
    1958      5     1021     1022     1033
    1959      5     1021     1022     1034
    1960      2     1032     1022     1033
    1961      2     1032     1022     1034
    1962      2     1033     1022     1034
    1963     13     1018     1023     1024
    1964     14     1018     1023     1035
    1965     15     1024     1023     1035
    1966     22     1023     1024     1016
    1967      1     1036     1035     1041
    1968      1     1036     1035     1042
    1969     23     1036     1035     1023
    1970      2     1041     1035     1042
    1971      1     1041     1035     1023
    1972      1     1042     1035     1023
    1973      8     1035     1036     1037
    1974      9     1035     1036     1038
    1975     10     1037     1036     1038
    1976     11     1036     1038     1039
    1977      4     1038     1039     1040
    1978      1     1038     1039     1043
    1979      1     1038     1039     1044
    1980      5     1040     1039     1043
    1981      5     1040     1039     1044
    1982      2     1043     1039     1044
    1983      5     1039     1040     1045
    1984      5     1039     1040     1046
    1985     12     1039     1040     1047
    1986      2     1045     1040     1046
    1987      1     1045     1040     1047
    1988      1     1046     1040     1047
    1989     13     1048     1047     1055
    1990     14     1048     1047     1040
    1991     15     1055     1047     1040
    1992     16     1047     1048     1049
    1993     17     1047     1048     1056
    1994     18     1049     1048     1056
    1995     19     1048     1049     1050
    1996     16     1048     1049     1054
    1997     20     1050     1049     1054
    1998     21     1049     1050     1051
    1999      1     1049     1050     1057
    2000      1     1049     1050     1058
    2001      5     1051     1050     1057
    2002      5     1051     1050     1058
    2003      2     1057     1050     1058
    2004      6     1050     1051     1052
    2005      5     1050     1051     1059
    2006      5     1050     1051     1060
    2007      5     1052     1051     1059
    2008      5     1052     1051     1060
    2009      2     1059     1051     1060
    2010      6     1051     1052     1053
    2011      5     1051     1052     1061
    2012      5     1051     1052     1062
    2013      5     1053     1052     1061
    2014      5     1053     1052     1062
    2015      2     1061     1052     1062
    2016      5     1052     1053     1063
    2017      5     1052     1053     1064
    2018      5     1052     1053     1065
    2019      2     1063     1053     1064
    2020      2     1063     1053     1065
    2021      2     1064     1053     1065
    2022     13     1049     1054     1055
    2023     14     1049     1054     1069
    2024     15     1055     1054     1069
    2025     22     1054     1055     1047
    2026      1     1067     1066     1070
    2027      1     1067     1066     1071
    2028      1     1067     1066     1072
    2029      2     1070     1066     1071
    2030      2     1070     1066     1072
    2031      2     1071     1066     1072
    2032      3     1066     1067     1068
    2033      4     1067     1068     1069
    2034      1     1067     1068     1073
    2035      1     1067     1068     1074
    2036      5     1069     1068     1073
    2037      5     1069     1068     1074
    2038      2     1073     1068     1074
    2039      5     1068     1069     1075
    2040      5     1068     1069     1076
    2041     12     1068     1069     1054
    2042      2     1075     1069     1076
    2043      1     1075     1069     1054
    2044      1     1076     1069     1054

Dihedrals

       1      1        5        1        2        3
       2      1        6        1        2        3
       3      1        7        1        2        3
       4      2        1        2        3        4
       5      1        1        2        3        8
       6      1        1        2        3        9
       7      3        2        3        4       10
       8      3        2        3        4       11
       9      4        2        3        4       12
      10      3        8        3        4       10
      11      3        8        3        4       11
      12      3        8        3        4       12
      13      3        9        3        4       10
      14      3        9        3        4       11
      15      3        9        3        4       12
      16      5       18       12       13       14
      17      6       18       12       13       15
      18      5       19       12       13       14
      19      6       19       12       13       15
      20      7        4       12       13       14
      21      8        4       12       13       15
      22      9       12       13       15       16
      23     10       14       13       15       16
      24     11       13       15       16       17
      25     12       13       15       16       20
      26     12       13       15       16       21
      27      3       15       16       17       22
      28      3       15       16       17       23
      29      4       15       16       17       24
      30      3       20       16       17       22
      31      3       20       16       17       23
      32      3       20       16       17       24
      33      3       21       16       17       22
      34      3       21       16       17       23
      35      3       21       16       17       24
      36     13        3        4       12       13
      37      3        3        4       12       18
      38      3        3        4       12       19
      39     14       10        4       12       13
      40      3       10        4       12       18
      41      3       10        4       12       19
      42     14       11        4       12       13
      43      3       11        4       12       18
      44      3       11        4       12       19
      45     15       32       24       25       26
      46     16       32       24       25       33
      47     15       17       24       25       26
      48     15       17       24       25       33
      49     15       24       25       26       27
      50     15       24       25       26       31
      51     15       33       25       26       27
      52     15       33       25       26       31
      53      5       25       26       27       28
      54      5       25       26       27       34
      55      5       25       26       27       35
      56      5       31       26       27       28
      57      5       31       26       27       34
      58      5       31       26       27       35
      59     17       26       27       28       29
      60     18       26       27       28       36
      61     18       26       27       28       37
      62      3       34       27       28       29
      63      3       34       27       28       36
      64      3       34       27       28       37
      65      3       35       27       28       29
      66      3       35       27       28       36
      67      3       35       27       28       37
      68     17       27       28       29       30
      69      3       27       28       29       38
      70      3       27       28       29       39
      71      3       36       28       29       30
      72      3       36       28       29       38
      73      3       36       28       29       39
      74      3       37       28       29       30
      75      3       37       28       29       38
      76      3       37       28       29       39
      77      3       28       29       30       40
      78      3       28       29       30       41
      79      3       28       29       30       42
      80      3       38       29       30       40
      81      3       38       29       30       41
      82      3       38       29       30       42
      83      3       39       29       30       40
      84      3       39       29       30       41
      85      3       39       29       30       42
      86     15       25       26       31       32
      87     15       25       26       31       43
      88     15       27       26       31       32
      89     15       27       26       31       43
      90     15       26       31       32       24
      91     15       43       31       32       24
      92     15       31       32       24       25
      93     15       31       32       24       17
      94      5       16       17       24       25
      95     19       16       17       24       32
      96      5       22       17       24       25
      97     20       22       17       24       32
      98      5       23       17       24       25
      99     20       23       17       24       32
     100      5       49       43       44       45
     101      6       49       43       44       46
     102      5       50       43       44       45
     103      6       50       43       44       46
     104      5       31       43       44       45
     105      8       31       43       44       46
     106      9       43       44       46       47
     107     10       45       44       46       47
     108     11       44       46       47       48
     109     12       44       46       47       51
     110     12       44       46       47       52
     111      3       46       47       48       53
     112      3       46       47       48       54
     113      4       46       47       48       55
     114      3       51       47       48       53
     115      3       51       47       48       54
     116      3       51       47       48       55
     117      3       52       47       48       53
     118      3       52       47       48       54
     119      3       52       47       48       55
     120     21       26       31       43       44
     121      5       26       31       43       49
     122      5       26       31       43       50
     123     19       32       31       43       44
     124     20       32       31       43       49
     125     20       32       31       43       50
     126     15       63       55       56       57
     127     16       63       55       56       64
     128     15       48       55       56       57
     129     15       48       55       56       64
     130     15       55       56       57       58
     131     15       55       56       57       62
     132     15       64       56       57       58
     133     15       64       56       57       62
     134      5       56       57       58       59
     135      5       56       57       58       65
     136      5       56       57       58       66
     137      5       62       57       58       59
     138      5       62       57       58       65
     139      5       62       57       58       66
     140     17       57       58       59       60
     141     18       57       58       59       67
     142     18       57       58       59       68
     143      3       65       58       59       60
     144      3       65       58       59       67
     145      3       65       58       59       68
     146      3       66       58       59       60
     147      3       66       58       59       67
     148      3       66       58       59       68
     149     17       58       59       60       61
     150      3       58       59       60       69
     151      3       58       59       60       70
     152      3       67       59       60       61
     153      3       67       59       60       69
     154      3       67       59       60       70
     155      3       68       59       60       61
     156      3       68       59       60       69
     157      3       68       59       60       70
     158      3       59       60       61       71
     159      3       59       60       61       72
     160      3       59       60       61       73
     161      3       69       60       61       71
     162      3       69       60       61       72
     163      3       69       60       61       73
     164      3       70       60       61       71
     165      3       70       60       61       72
     166      3       70       60       61       73
     167     15       56       57       62       63
     168     15       56       57       62       74
     169     15       58       57       62       63
     170     15       58       57       62       74
     171     15       57       62       63       55
     172     15       74       62       63       55
     173     15       62       63       55       56
     174     15       62       63       55       48
     175      5       47       48       55       56
     176     19       47       48       55       63
     177      5       53       48       55       56
     178     20       53       48       55       63
     179      5       54       48       55       56
     180     20       54       48       55       63
     181      5       80       74       75       76
     182      6       80       74       75       77
     183      5       81       74       75       76
     184      6       81       74       75       77
     185      5       62       74       75       76
     186      8       62       74       75       77
     187      9       74       75       77       78
     188     10       76       75       77       78
     189     11       75       77       78       79
     190     12       75       77       78       82
     191     12       75       77       78       83
     192      3       77       78       79       84
     193      3       77       78       79       85
     194      4       77       78       79       86
     195      3       82       78       79       84
     196      3       82       78       79       85
     197      3       82       78       79       86
     198      3       83       78       79       84
     199      3       83       78       79       85
     200      3       83       78       79       86
     201     21       57       62       74       75
     202      5       57       62       74       80
     203      5       57       62       74       81
     204     19       63       62       74       75
     205     20       63       62       74       80
     206     20       63       62       74       81
     207     15       94       86       87       88
     208     16       94       86       87       95
     209     15       79       86       87       88
     210     15       79       86       87       95
     211     15       86       87       88       89
     212     15       86       87       88       93
     213     15       95       87       88       89
     214     15       95       87       88       93
     215      5       87       88       89       90
     216      5       87       88       89       96
     217      5       87       88       89       97
     218      5       93       88       89       90
     219      5       93       88       89       96
     220      5       93       88       89       97
     221     17       88       89       90       91
     222     18       88       89       90       98
     223     18       88       89       90       99
     224      3       96       89       90       91
     225      3       96       89       90       98
     226      3       96       89       90       99
     227      3       97       89       90       91
     228      3       97       89       90       98
     229      3       97       89       90       99
     230     17       89       90       91       92
     231      3       89       90       91      100
     232      3       89       90       91      101
     233      3       98       90       91       92
     234      3       98       90       91      100
     235      3       98       90       91      101
     236      3       99       90       91       92
     237      3       99       90       91      100
     238      3       99       90       91      101
     239      3       90       91       92      102
     240      3       90       91       92      103
     241      3       90       91       92      104
     242      3      100       91       92      102
     243      3      100       91       92      103
     244      3      100       91       92      104
     245      3      101       91       92      102
     246      3      101       91       92      103
     247      3      101       91       92      104
     248     15       87       88       93       94
     249     15       87       88       93      105
     250     15       89       88       93       94
     251     15       89       88       93      105
     252     15       88       93       94       86
     253     15      105       93       94       86
     254     15       93       94       86       87
     255     15       93       94       86       79
     256      5       78       79       86       87
     257     19       78       79       86       94
     258      5       84       79       86       87
     259     20       84       79       86       94
     260      5       85       79       86       87
     261     20       85       79       86       94
     262      5      111      105      106      107
     263      6      111      105      106      108
     264      5      112      105      106      107
     265      6      112      105      106      108
     266      5       93      105      106      107
     267      8       93      105      106      108
     268      9      105      106      108      109
     269     10      107      106      108      109
     270     11      106      108      109      110
     271     12      106      108      109      113
     272     12      106      108      109      114
     273      3      108      109      110      115
     274      3      108      109      110      116
     275      4      108      109      110      117
     276      3      113      109      110      115
     277      3      113      109      110      116
     278      3      113      109      110      117
     279      3      114      109      110      115
     280      3      114      109      110      116
     281      3      114      109      110      117
     282     21       88       93      105      106
     283      5       88       93      105      111
     284      5       88       93      105      112
     285     19       94       93      105      106
     286     20       94       93      105      111
     287     20       94       93      105      112
     288     15      125      117      118      119
     289     16      125      117      118      126
     290     15      110      117      118      119
     291     15      110      117      118      126
     292     15      117      118      119      120
     293     15      117      118      119      124
     294     15      126      118      119      120
     295     15      126      118      119      124
     296      5      118      119      120      121
     297      5      118      119      120      127
     298      5      118      119      120      128
     299      5      124      119      120      121
     300      5      124      119      120      127
     301      5      124      119      120      128
     302     17      119      120      121      122
     303     18      119      120      121      129
     304     18      119      120      121      130
     305      3      127      120      121      122
     306      3      127      120      121      129
     307      3      127      120      121      130
     308      3      128      120      121      122
     309      3      128      120      121      129
     310      3      128      120      121      130
     311     17      120      121      122      123
     312      3      120      121      122      131
     313      3      120      121      122      132
     314      3      129      121      122      123
     315      3      129      121      122      131
     316      3      129      121      122      132
     317      3      130      121      122      123
     318      3      130      121      122      131
     319      3      130      121      122      132
     320      3      121      122      123      133
     321      3      121      122      123      134
     322      3      121      122      123      135
     323      3      131      122      123      133
     324      3      131      122      123      134
     325      3      131      122      123      135
     326      3      132      122      123      133
     327      3      132      122      123      134
     328      3      132      122      123      135
     329     15      118      119      124      125
     330     15      118      119      124      136
     331     15      120      119      124      125
     332     15      120      119      124      136
     333     15      119      124      125      117
     334     15      136      124      125      117
     335     15      124      125      117      118
     336     15      124      125      117      110
     337      5      109      110      117      118
     338     19      109      110      117      125
     339      5      115      110      117      118
     340     20      115      110      117      125
     341      5      116      110      117      118
     342     20      116      110      117      125
     343      5      142      136      137      138
     344      6      142      136      137      139
     345      5      143      136      137      138
     346      6      143      136      137      139
     347      5      124      136      137      138
     348      8      124      136      137      139
     349      9      136      137      139      140
     350     10      138      137      139      140
     351     11      137      139      140      141
     352     12      137      139      140      144
     353     12      137      139      140      145
     354      3      139      140      141      146
     355      3      139      140      141      147
     356      4      139      140      141      148
     357      3      144      140      141      146
     358      3      144      140      141      147
     359      3      144      140      141      148
     360      3      145      140      141      146
     361      3      145      140      141      147
     362      3      145      140      141      148
     363     21      119      124      136      137
     364      5      119      124      136      142
     365      5      119      124      136      143
     366     19      125      124      136      137
     367     20      125      124      136      142
     368     20      125      124      136      143
     369     15      156      148      149      150
     370     16      156      148      149      157
     371     15      141      148      149      150
     372     15      141      148      149      157
     373     15      148      149      150      151
     374     15      148      149      150      155
     375     15      157      149      150      151
     376     15      157      149      150      155
     377      5      149      150      151      152
     378      5      149      150      151      158
     379      5      149      150      151      159
     380      5      155      150      151      152
     381      5      155      150      151      158
     382      5      155      150      151      159
     383     17      150      151      152      153
     384     18      150      151      152      160
     385     18      150      151      152      161
     386      3      158      151      152      153
     387      3      158      151      152      160
     388      3      158      151      152      161
     389      3      159      151      152      153
     390      3      159      151      152      160
     391      3      159      151      152      161
     392     17      151      152      153      154
     393      3      151      152      153      162
     394      3      151      152      153      163
     395      3      160      152      153      154
     396      3      160      152      153      162
     397      3      160      152      153      163
     398      3      161      152      153      154
     399      3      161      152      153      162
     400      3      161      152      153      163
     401      3      152      153      154      164
     402      3      152      153      154      165
     403      3      152      153      154      166
     404      3      162      153      154      164
     405      3      162      153      154      165
     406      3      162      153      154      166
     407      3      163      153      154      164
     408      3      163      153      154      165
     409      3      163      153      154      166
     410     15      149      150      155      156
     411     15      149      150      155      167
     412     15      151      150      155      156
     413     15      151      150      155      167
     414     15      150      155      156      148
     415     15      167      155      156      148
     416     15      155      156      148      149
     417     15      155      156      148      141
     418      5      140      141      148      149
     419     19      140      141      148      156
     420      5      146      141      148      149
     421     20      146      141      148      156
     422      5      147      141      148      149
     423     20      147      141      148      156
     424      5      173      167      168      169
     425      6      173      167      168      170
     426      5      174      167      168      169
     427      6      174      167      168      170
     428      5      155      167      168      169
     429      8      155      167      168      170
     430      9      167      168      170      171
     431     10      169      168      170      171
     432     11      168      170      171      172
     433     12      168      170      171      175
     434     12      168      170      171      176
     435      3      170      171      172      177
     436      3      170      171      172      178
     437      4      170      171      172      179
     438      3      175      171      172      177
     439      3      175      171      172      178
     440      3      175      171      172      179
     441      3      176      171      172      177
     442      3      176      171      172      178
     443      3      176      171      172      179
     444     21      150      155      167      168
     445      5      150      155      167      173
     446      5      150      155      167      174
     447     19      156      155      167      168
     448     20      156      155      167      173
     449     20      156      155      167      174
     450     15      187      179      180      181
     451     16      187      179      180      188
     452     15      172      179      180      181
     453     15      172      179      180      188
     454     15      179      180      181      182
     455     15      179      180      181      186
     456     15      188      180      181      182
     457     15      188      180      181      186
     458      5      180      181      182      183
     459      5      180      181      182      189
     460      5      180      181      182      190
     461      5      186      181      182      183
     462      5      186      181      182      189
     463      5      186      181      182      190
     464     17      181      182      183      184
     465     18      181      182      183      191
     466     18      181      182      183      192
     467      3      189      182      183      184
     468      3      189      182      183      191
     469      3      189      182      183      192
     470      3      190      182      183      184
     471      3      190      182      183      191
     472      3      190      182      183      192
     473     17      182      183      184      185
     474      3      182      183      184      193
     475      3      182      183      184      194
     476      3      191      183      184      185
     477      3      191      183      184      193
     478      3      191      183      184      194
     479      3      192      183      184      185
     480      3      192      183      184      193
     481      3      192      183      184      194
     482      3      183      184      185      195
     483      3      183      184      185      196
     484      3      183      184      185      197
     485      3      193      184      185      195
     486      3      193      184      185      196
     487      3      193      184      185      197
     488      3      194      184      185      195
     489      3      194      184      185      196
     490      3      194      184      185      197
     491     15      180      181      186      187
     492     15      180      181      186      198
     493     15      182      181      186      187
     494     15      182      181      186      198
     495     15      181      186      187      179
     496     15      198      186      187      179
     497     15      186      187      179      180
     498     15      186      187      179      172
     499      5      171      172      179      180
     500     19      171      172      179      187
     501      5      177      172      179      180
     502     20      177      172      179      187
     503      5      178      172      179      180
     504     20      178      172      179      187
     505      5      204      198      199      200
     506      6      204      198      199      201
     507      5      205      198      199      200
     508      6      205      198      199      201
     509      5      186      198      199      200
     510      8      186      198      199      201
     511      9      198      199      201      202
     512     10      200      199      201      202
     513     11      199      201      202      203
     514     12      199      201      202      206
     515     12      199      201      202      207
     516      3      201      202      203      208
     517      3      201      202      203      209
     518      4      201      202      203      210
     519      3      206      202      203      208
     520      3      206      202      203      209
     521      3      206      202      203      210
     522      3      207      202      203      208
     523      3      207      202      203      209
     524      3      207      202      203      210
     525     21      181      186      198      199
     526      5      181      186      198      204
     527      5      181      186      198      205
     528     19      187      186      198      199
     529     20      187      186      198      204
     530     20      187      186      198      205
     531     15      218      210      211      212
     532     16      218      210      211      219
     533     15      203      210      211      212
     534     15      203      210      211      219
     535     15      210      211      212      213
     536     15      210      211      212      217
     537     15      219      211      212      213
     538     15      219      211      212      217
     539      5      211      212      213      214
     540      5      211      212      213      220
     541      5      211      212      213      221
     542      5      217      212      213      214
     543      5      217      212      213      220
     544      5      217      212      213      221
     545     17      212      213      214      215
     546     18      212      213      214      222
     547     18      212      213      214      223
     548      3      220      213      214      215
     549      3      220      213      214      222
     550      3      220      213      214      223
     551      3      221      213      214      215
     552      3      221      213      214      222
     553      3      221      213      214      223
     554     17      213      214      215      216
     555      3      213      214      215      224
     556      3      213      214      215      225
     557      3      222      214      215      216
     558      3      222      214      215      224
     559      3      222      214      215      225
     560      3      223      214      215      216
     561      3      223      214      215      224
     562      3      223      214      215      225
     563      3      214      215      216      226
     564      3      214      215      216      227
     565      3      214      215      216      228
     566      3      224      215      216      226
     567      3      224      215      216      227
     568      3      224      215      216      228
     569      3      225      215      216      226
     570      3      225      215      216      227
     571      3      225      215      216      228
     572     15      211      212      217      218
     573     15      211      212      217      229
     574     15      213      212      217      218
     575     15      213      212      217      229
     576     15      212      217      218      210
     577     15      229      217      218      210
     578     15      217      218      210      211
     579     15      217      218      210      203
     580      5      202      203      210      211
     581     19      202      203      210      218
     582      5      208      203      210      211
     583     20      208      203      210      218
     584      5      209      203      210      211
     585     20      209      203      210      218
     586      5      235      229      230      231
     587      6      235      229      230      232
     588      5      236      229      230      231
     589      6      236      229      230      232
     590      5      217      229      230      231
     591      8      217      229      230      232
     592      9      229      230      232      233
     593     10      231      230      232      233
     594     11      230      232      233      234
     595     12      230      232      233      237
     596     12      230      232      233      238
     597      3      232      233      234      239
     598      3      232      233      234      240
     599      4      232      233      234      241
     600      3      237      233      234      239
     601      3      237      233      234      240
     602      3      237      233      234      241
     603      3      238      233      234      239
     604      3      238      233      234      240
     605      3      238      233      234      241
     606     21      212      217      229      230
     607      5      212      217      229      235
     608      5      212      217      229      236
     609     19      218      217      229      230
     610     20      218      217      229      235
     611     20      218      217      229      236
     612     15      249      241      242      243
     613     16      249      241      242      250
     614     15      234      241      242      243
     615     15      234      241      242      250
     616     15      241      242      243      244
     617     15      241      242      243      248
     618     15      250      242      243      244
     619     15      250      242      243      248
     620      5      242      243      244      245
     621      5      242      243      244      251
     622      5      242      243      244      252
     623      5      248      243      244      245
     624      5      248      243      244      251
     625      5      248      243      244      252
     626     17      243      244      245      246
     627     18      243      244      245      253
     628     18      243      244      245      254
     629      3      251      244      245      246
     630      3      251      244      245      253
     631      3      251      244      245      254
     632      3      252      244      245      246
     633      3      252      244      245      253
     634      3      252      244      245      254
     635     17      244      245      246      247
     636      3      244      245      246      255
     637      3      244      245      246      256
     638      3      253      245      246      247
     639      3      253      245      246      255
     640      3      253      245      246      256
     641      3      254      245      246      247
     642      3      254      245      246      255
     643      3      254      245      246      256
     644      3      245      246      247      257
     645      3      245      246      247      258
     646      3      245      246      247      259
     647      3      255      246      247      257
     648      3      255      246      247      258
     649      3      255      246      247      259
     650      3      256      246      247      257
     651      3      256      246      247      258
     652      3      256      246      247      259
     653     15      242      243      248      249
     654     15      242      243      248      260
     655     15      244      243      248      249
     656     15      244      243      248      260
     657     15      243      248      249      241
     658     15      260      248      249      241
     659     15      248      249      241      242
     660     15      248      249      241      234
     661      5      233      234      241      242
     662     19      233      234      241      249
     663      5      239      234      241      242
     664     20      239      234      241      249
     665      5      240      234      241      242
     666     20      240      234      241      249
     667      5      266      260      261      262
     668      6      266      260      261      263
     669      5      267      260      261      262
     670      6      267      260      261      263
     671      5      248      260      261      262
     672      8      248      260      261      263
     673      9      260      261      263      264
     674     10      262      261      263      264
     675     11      261      263      264      265
     676     12      261      263      264      268
     677     12      261      263      264      269
     678      3      263      264      265      270
     679      3      263      264      265      271
     680      4      263      264      265      272
     681      3      268      264      265      270
     682      3      268      264      265      271
     683      3      268      264      265      272
     684      3      269      264      265      270
     685      3      269      264      265      271
     686      3      269      264      265      272
     687     21      243      248      260      261
     688      5      243      248      260      266
     689      5      243      248      260      267
     690     19      249      248      260      261
     691     20      249      248      260      266
     692     20      249      248      260      267
     693     15      280      272      273      274
     694     16      280      272      273      281
     695     15      265      272      273      274
     696     15      265      272      273      281
     697     15      272      273      274      275
     698     15      272      273      274      279
     699     15      281      273      274      275
     700     15      281      273      274      279
     701      5      273      274      275      276
     702      5      273      274      275      282
     703      5      273      274      275      283
     704      5      279      274      275      276
     705      5      279      274      275      282
     706      5      279      274      275      283
     707     17      274      275      276      277
     708     18      274      275      276      284
     709     18      274      275      276      285
     710      3      282      275      276      277
     711      3      282      275      276      284
     712      3      282      275      276      285
     713      3      283      275      276      277
     714      3      283      275      276      284
     715      3      283      275      276      285
     716     17      275      276      277      278
     717      3      275      276      277      286
     718      3      275      276      277      287
     719      3      284      276      277      278
     720      3      284      276      277      286
     721      3      284      276      277      287
     722      3      285      276      277      278
     723      3      285      276      277      286
     724      3      285      276      277      287
     725      3      276      277      278      288
     726      3      276      277      278      289
     727      3      276      277      278      290
     728      3      286      277      278      288
     729      3      286      277      278      289
     730      3      286      277      278      290
     731      3      287      277      278      288
     732      3      287      277      278      289
     733      3      287      277      278      290
     734     15      273      274      279      280
     735     15      273      274      279      291
     736     15      275      274      279      280
     737     15      275      274      279      291
     738     15      274      279      280      272
     739     15      291      279      280      272
     740     15      279      280      272      273
     741     15      279      280      272      265
     742      5      264      265      272      273
     743     19      264      265      272      280
     744      5      270      265      272      273
     745     20      270      265      272      280
     746      5      271      265      272      273
     747     20      271      265      272      280
     748      5      297      291      292      293
     749      6      297      291      292      294
     750      5      298      291      292      293
     751      6      298      291      292      294
     752      5      279      291      292      293
     753      8      279      291      292      294
     754      9      291      292      294      295
     755     10      293      292      294      295
     756     11      292      294      295      296
     757     12      292      294      295      299
     758     12      292      294      295      300
     759      3      294      295      296      301
     760      3      294      295      296      302
     761      4      294      295      296      303
     762      3      299      295      296      301
     763      3      299      295      296      302
     764      3      299      295      296      303
     765      3      300      295      296      301
     766      3      300      295      296      302
     767      3      300      295      296      303
     768     21      274      279      291      292
     769      5      274      279      291      297
     770      5      274      279      291      298
     771     19      280      279      291      292
     772     20      280      279      291      297
     773     20      280      279      291      298
     774     15      311      303      304      305
     775     16      311      303      304      312
     776     15      296      303      304      305
     777     15      296      303      304      312
     778     15      303      304      305      306
     779     15      303      304      305      310
     780     15      312      304      305      306
     781     15      312      304      305      310
     782      5      304      305      306      307
     783      5      304      305      306      313
     784      5      304      305      306      314
     785      5      310      305      306      307
     786      5      310      305      306      313
     787      5      310      305      306      314
     788     17      305      306      307      308
     789     18      305      306      307      315
     790     18      305      306      307      316
     791      3      313      306      307      308
     792      3      313      306      307      315
     793      3      313      306      307      316
     794      3      314      306      307      308
     795      3      314      306      307      315
     796      3      314      306      307      316
     797     17      306      307      308      309
     798      3      306      307      308      317
     799      3      306      307      308      318
     800      3      315      307      308      309
     801      3      315      307      308      317
     802      3      315      307      308      318
     803      3      316      307      308      309
     804      3      316      307      308      317
     805      3      316      307      308      318
     806      3      307      308      309      319
     807      3      307      308      309      320
     808      3      307      308      309      321
     809      3      317      308      309      319
     810      3      317      308      309      320
     811      3      317      308      309      321
     812      3      318      308      309      319
     813      3      318      308      309      320
     814      3      318      308      309      321
     815     15      304      305      310      311
     816     15      304      305      310      322
     817     15      306      305      310      311
     818     15      306      305      310      322
     819     15      305      310      311      303
     820     15      322      310      311      303
     821     15      310      311      303      304
     822     15      310      311      303      296
     823      5      295      296      303      304
     824     19      295      296      303      311
     825      5      301      296      303      304
     826     20      301      296      303      311
     827      5      302      296      303      304
     828     20      302      296      303      311
     829      5      328      322      323      324
     830      6      328      322      323      325
     831      5      329      322      323      324
     832      6      329      322      323      325
     833      5      310      322      323      324
     834      8      310      322      323      325
     835      9      322      323      325      326
     836     10      324      323      325      326
     837     11      323      325      326      327
     838     12      323      325      326      330
     839     12      323      325      326      331
     840      3      325      326      327      332
     841      3      325      326      327      333
     842      4      325      326      327      334
     843      3      330      326      327      332
     844      3      330      326      327      333
     845      3      330      326      327      334
     846      3      331      326      327      332
     847      3      331      326      327      333
     848      3      331      326      327      334
     849     21      305      310      322      323
     850      5      305      310      322      328
     851      5      305      310      322      329
     852     19      311      310      322      323
     853     20      311      310      322      328
     854     20      311      310      322      329
     855     15      342      334      335      336
     856     16      342      334      335      343
     857     15      327      334      335      336
     858     15      327      334      335      343
     859     15      334      335      336      337
     860     15      334      335      336      341
     861     15      343      335      336      337
     862     15      343      335      336      341
     863      5      335      336      337      338
     864      5      335      336      337      344
     865      5      335      336      337      345
     866      5      341      336      337      338
     867      5      341      336      337      344
     868      5      341      336      337      345
     869     17      336      337      338      339
     870     18      336      337      338      346
     871     18      336      337      338      347
     872      3      344      337      338      339
     873      3      344      337      338      346
     874      3      344      337      338      347
     875      3      345      337      338      339
     876      3      345      337      338      346
     877      3      345      337      338      347
     878     17      337      338      339      340
     879      3      337      338      339      348
     880      3      337      338      339      349
     881      3      346      338      339      340
     882      3      346      338      339      348
     883      3      346      338      339      349
     884      3      347      338      339      340
     885      3      347      338      339      348
     886      3      347      338      339      349
     887      3      338      339      340      350
     888      3      338      339      340      351
     889      3      338      339      340      352
     890      3      348      339      340      350
     891      3      348      339      340      351
     892      3      348      339      340      352
     893      3      349      339      340      350
     894      3      349      339      340      351
     895      3      349      339      340      352
     896     15      335      336      341      342
     897     15      335      336      341      353
     898     15      337      336      341      342
     899     15      337      336      341      353
     900     15      336      341      342      334
     901     15      353      341      342      334
     902     15      341      342      334      335
     903     15      341      342      334      327
     904      5      326      327      334      335
     905     19      326      327      334      342
     906      5      332      327      334      335
     907     20      332      327      334      342
     908      5      333      327      334      335
     909     20      333      327      334      342
     910      5      359      353      354      355
     911      6      359      353      354      356
     912      5      360      353      354      355
     913      6      360      353      354      356
     914      5      341      353      354      355
     915      8      341      353      354      356
     916      9      353      354      356      357
     917     10      355      354      356      357
     918     11      354      356      357      358
     919     12      354      356      357      361
     920     12      354      356      357      362
     921      3      356      357      358      363
     922      3      356      357      358      364
     923      4      356      357      358      365
     924      3      361      357      358      363
     925      3      361      357      358      364
     926      3      361      357      358      365
     927      3      362      357      358      363
     928      3      362      357      358      364
     929      3      362      357      358      365
     930     21      336      341      353      354
     931      5      336      341      353      359
     932      5      336      341      353      360
     933     19      342      341      353      354
     934     20      342      341      353      359
     935     20      342      341      353      360
     936     15      373      365      366      367
     937     16      373      365      366      374
     938     15      358      365      366      367
     939     15      358      365      366      374
     940     15      365      366      367      368
     941     15      365      366      367      372
     942     15      374      366      367      368
     943     15      374      366      367      372
     944      5      366      367      368      369
     945      5      366      367      368      375
     946      5      366      367      368      376
     947      5      372      367      368      369
     948      5      372      367      368      375
     949      5      372      367      368      376
     950     17      367      368      369      370
     951     18      367      368      369      377
     952     18      367      368      369      378
     953      3      375      368      369      370
     954      3      375      368      369      377
     955      3      375      368      369      378
     956      3      376      368      369      370
     957      3      376      368      369      377
     958      3      376      368      369      378
     959     17      368      369      370      371
     960      3      368      369      370      379
     961      3      368      369      370      380
     962      3      377      369      370      371
     963      3      377      369      370      379
     964      3      377      369      370      380
     965      3      378      369      370      371
     966      3      378      369      370      379
     967      3      378      369      370      380
     968      3      369      370      371      381
     969      3      369      370      371      382
     970      3      369      370      371      383
     971      3      379      370      371      381
     972      3      379      370      371      382
     973      3      379      370      371      383
     974      3      380      370      371      381
     975      3      380      370      371      382
     976      3      380      370      371      383
     977     15      366      367      372      373
     978     15      366      367      372      384
     979     15      368      367      372      373
     980     15      368      367      372      384
     981     15      367      372      373      365
     982     15      384      372      373      365
     983     15      372      373      365      366
     984     15      372      373      365      358
     985      5      357      358      365      366
     986     19      357      358      365      373
     987      5      363      358      365      366
     988     20      363      358      365      373
     989      5      364      358      365      366
     990     20      364      358      365      373
     991      5      390      384      385      386
     992      6      390      384      385      387
     993      5      391      384      385      386
     994      6      391      384      385      387
     995      5      372      384      385      386
     996      8      372      384      385      387
     997      9      384      385      387      388
     998     10      386      385      387      388
     999     11      385      387      388      389
    1000     12      385      387      388      392
    1001     12      385      387      388      393
    1002      3      387      388      389      394
    1003      3      387      388      389      395
    1004      4      387      388      389      396
    1005      3      392      388      389      394
    1006      3      392      388      389      395
    1007      3      392      388      389      396
    1008      3      393      388      389      394
    1009      3      393      388      389      395
    1010      3      393      388      389      396
    1011     21      367      372      384      385
    1012      5      367      372      384      390
    1013      5      367      372      384      391
    1014     19      373      372      384      385
    1015     20      373      372      384      390
    1016     20      373      372      384      391
    1017     15      404      396      397      398
    1018     16      404      396      397      405
    1019     15      389      396      397      398
    1020     15      389      396      397      405
    1021     15      396      397      398      399
    1022     15      396      397      398      403
    1023     15      405      397      398      399
    1024     15      405      397      398      403
    1025      5      397      398      399      400
    1026      5      397      398      399      406
    1027      5      397      398      399      407
    1028      5      403      398      399      400
    1029      5      403      398      399      406
    1030      5      403      398      399      407
    1031     17      398      399      400      401
    1032     18      398      399      400      408
    1033     18      398      399      400      409
    1034      3      406      399      400      401
    1035      3      406      399      400      408
    1036      3      406      399      400      409
    1037      3      407      399      400      401
    1038      3      407      399      400      408
    1039      3      407      399      400      409
    1040     17      399      400      401      402
    1041      3      399      400      401      410
    1042      3      399      400      401      411
    1043      3      408      400      401      402
    1044      3      408      400      401      410
    1045      3      408      400      401      411
    1046      3      409      400      401      402
    1047      3      409      400      401      410
    1048      3      409      400      401      411
    1049      3      400      401      402      412
    1050      3      400      401      402      413
    1051      3      400      401      402      414
    1052      3      410      401      402      412
    1053      3      410      401      402      413
    1054      3      410      401      402      414
    1055      3      411      401      402      412
    1056      3      411      401      402      413
    1057      3      411      401      402      414
    1058     15      397      398      403      404
    1059     15      397      398      403      415
    1060     15      399      398      403      404
    1061     15      399      398      403      415
    1062     15      398      403      404      396
    1063     15      415      403      404      396
    1064     15      403      404      396      397
    1065     15      403      404      396      389
    1066      5      388      389      396      397
    1067     19      388      389      396      404
    1068      5      394      389      396      397
    1069     20      394      389      396      404
    1070      5      395      389      396      397
    1071     20      395      389      396      404
    1072      5      421      415      416      417
    1073      6      421      415      416      418
    1074      5      422      415      416      417
    1075      6      422      415      416      418
    1076      5      403      415      416      417
    1077      8      403      415      416      418
    1078      9      415      416      418      419
    1079     10      417      416      418      419
    1080     11      416      418      419      420
    1081     12      416      418      419      423
    1082     12      416      418      419      424
    1083      3      418      419      420      425
    1084      3      418      419      420      426
    1085      4      418      419      420      427
    1086      3      423      419      420      425
    1087      3      423      419      420      426
    1088      3      423      419      420      427
    1089      3      424      419      420      425
    1090      3      424      419      420      426
    1091      3      424      419      420      427
    1092     21      398      403      415      416
    1093      5      398      403      415      421
    1094      5      398      403      415      422
    1095     19      404      403      415      416
    1096     20      404      403      415      421
    1097     20      404      403      415      422
    1098     15      435      427      428      429
    1099     16      435      427      428      436
    1100     15      420      427      428      429
    1101     15      420      427      428      436
    1102     15      427      428      429      430
    1103     15      427      428      429      434
    1104     15      436      428      429      430
    1105     15      436      428      429      434
    1106      5      428      429      430      431
    1107      5      428      429      430      437
    1108      5      428      429      430      438
    1109      5      434      429      430      431
    1110      5      434      429      430      437
    1111      5      434      429      430      438
    1112     17      429      430      431      432
    1113     18      429      430      431      439
    1114     18      429      430      431      440
    1115      3      437      430      431      432
    1116      3      437      430      431      439
    1117      3      437      430      431      440
    1118      3      438      430      431      432
    1119      3      438      430      431      439
    1120      3      438      430      431      440
    1121     17      430      431      432      433
    1122      3      430      431      432      441
    1123      3      430      431      432      442
    1124      3      439      431      432      433
    1125      3      439      431      432      441
    1126      3      439      431      432      442
    1127      3      440      431      432      433
    1128      3      440      431      432      441
    1129      3      440      431      432      442
    1130      3      431      432      433      443
    1131      3      431      432      433      444
    1132      3      431      432      433      445
    1133      3      441      432      433      443
    1134      3      441      432      433      444
    1135      3      441      432      433      445
    1136      3      442      432      433      443
    1137      3      442      432      433      444
    1138      3      442      432      433      445
    1139     15      428      429      434      435
    1140     15      428      429      434      446
    1141     15      430      429      434      435
    1142     15      430      429      434      446
    1143     15      429      434      435      427
    1144     15      446      434      435      427
    1145     15      434      435      427      428
    1146     15      434      435      427      420
    1147      5      419      420      427      428
    1148     19      419      420      427      435
    1149      5      425      420      427      428
    1150     20      425      420      427      435
    1151      5      426      420      427      428
    1152     20      426      420      427      435
    1153      5      452      446      447      448
    1154      6      452      446      447      449
    1155      5      453      446      447      448
    1156      6      453      446      447      449
    1157      5      434      446      447      448
    1158      8      434      446      447      449
    1159      9      446      447      449      450
    1160     10      448      447      449      450
    1161     11      447      449      450      451
    1162     12      447      449      450      454
    1163     12      447      449      450      455
    1164      3      449      450      451      456
    1165      3      449      450      451      457
    1166      4      449      450      451      458
    1167      3      454      450      451      456
    1168      3      454      450      451      457
    1169      3      454      450      451      458
    1170      3      455      450      451      456
    1171      3      455      450      451      457
    1172      3      455      450      451      458
    1173     21      429      434      446      447
    1174      5      429      434      446      452
    1175      5      429      434      446      453
    1176     19      435      434      446      447
    1177     20      435      434      446      452
    1178     20      435      434      446      453
    1179     15      466      458      459      460
    1180     16      466      458      459      467
    1181     15      451      458      459      460
    1182     15      451      458      459      467
    1183     15      458      459      460      461
    1184     15      458      459      460      465
    1185     15      467      459      460      461
    1186     15      467      459      460      465
    1187      5      459      460      461      462
    1188      5      459      460      461      468
    1189      5      459      460      461      469
    1190      5      465      460      461      462
    1191      5      465      460      461      468
    1192      5      465      460      461      469
    1193     17      460      461      462      463
    1194     18      460      461      462      470
    1195     18      460      461      462      471
    1196      3      468      461      462      463
    1197      3      468      461      462      470
    1198      3      468      461      462      471
    1199      3      469      461      462      463
    1200      3      469      461      462      470
    1201      3      469      461      462      471
    1202     17      461      462      463      464
    1203      3      461      462      463      472
    1204      3      461      462      463      473
    1205      3      470      462      463      464
    1206      3      470      462      463      472
    1207      3      470      462      463      473
    1208      3      471      462      463      464
    1209      3      471      462      463      472
    1210      3      471      462      463      473
    1211      3      462      463      464      474
    1212      3      462      463      464      475
    1213      3      462      463      464      476
    1214      3      472      463      464      474
    1215      3      472      463      464      475
    1216      3      472      463      464      476
    1217      3      473      463      464      474
    1218      3      473      463      464      475
    1219      3      473      463      464      476
    1220     15      459      460      465      466
    1221     15      459      460      465      477
    1222     15      461      460      465      466
    1223     15      461      460      465      477
    1224     15      460      465      466      458
    1225     15      477      465      466      458
    1226     15      465      466      458      459
    1227     15      465      466      458      451
    1228      5      450      451      458      459
    1229     19      450      451      458      466
    1230      5      456      451      458      459
    1231     20      456      451      458      466
    1232      5      457      451      458      459
    1233     20      457      451      458      466
    1234      5      483      477      478      479
    1235      6      483      477      478      480
    1236      5      484      477      478      479
    1237      6      484      477      478      480
    1238      5      465      477      478      479
    1239      8      465      477      478      480
    1240      9      477      478      480      481
    1241     10      479      478      480      481
    1242     11      478      480      481      482
    1243     12      478      480      481      485
    1244     12      478      480      481      486
    1245      3      480      481      482      487
    1246      3      480      481      482      488
    1247      4      480      481      482      489
    1248      3      485      481      482      487
    1249      3      485      481      482      488
    1250      3      485      481      482      489
    1251      3      486      481      482      487
    1252      3      486      481      482      488
    1253      3      486      481      482      489
    1254     21      460      465      477      478
    1255      5      460      465      477      483
    1256      5      460      465      477      484
    1257     19      466      465      477      478
    1258     20      466      465      477      483
    1259     20      466      465      477      484
    1260     15      497      489      490      491
    1261     16      497      489      490      498
    1262     15      482      489      490      491
    1263     15      482      489      490      498
    1264     15      489      490      491      492
    1265     15      489      490      491      496
    1266     15      498      490      491      492
    1267     15      498      490      491      496
    1268      5      490      491      492      493
    1269      5      490      491      492      499
    1270      5      490      491      492      500
    1271      5      496      491      492      493
    1272      5      496      491      492      499
    1273      5      496      491      492      500
    1274     17      491      492      493      494
    1275     18      491      492      493      501
    1276     18      491      492      493      502
    1277      3      499      492      493      494
    1278      3      499      492      493      501
    1279      3      499      492      493      502
    1280      3      500      492      493      494
    1281      3      500      492      493      501
    1282      3      500      492      493      502
    1283     17      492      493      494      495
    1284      3      492      493      494      503
    1285      3      492      493      494      504
    1286      3      501      493      494      495
    1287      3      501      493      494      503
    1288      3      501      493      494      504
    1289      3      502      493      494      495
    1290      3      502      493      494      503
    1291      3      502      493      494      504
    1292      3      493      494      495      505
    1293      3      493      494      495      506
    1294      3      493      494      495      507
    1295      3      503      494      495      505
    1296      3      503      494      495      506
    1297      3      503      494      495      507
    1298      3      504      494      495      505
    1299      3      504      494      495      506
    1300      3      504      494      495      507
    1301     15      490      491      496      497
    1302     15      490      491      496      508
    1303     15      492      491      496      497
    1304     15      492      491      496      508
    1305     15      491      496      497      489
    1306     15      508      496      497      489
    1307     15      496      497      489      490
    1308     15      496      497      489      482
    1309      5      481      482      489      490
    1310     19      481      482      489      497
    1311      5      487      482      489      490
    1312     20      487      482      489      497
    1313      5      488      482      489      490
    1314     20      488      482      489      497
    1315      5      514      508      509      510
    1316      6      514      508      509      511
    1317      5      515      508      509      510
    1318      6      515      508      509      511
    1319      5      496      508      509      510
    1320      8      496      508      509      511
    1321      9      508      509      511      512
    1322     10      510      509      511      512
    1323     11      509      511      512      513
    1324     12      509      511      512      516
    1325     12      509      511      512      517
    1326      3      511      512      513      518
    1327      3      511      512      513      519
    1328      4      511      512      513      520
    1329      3      516      512      513      518
    1330      3      516      512      513      519
    1331      3      516      512      513      520
    1332      3      517      512      513      518
    1333      3      517      512      513      519
    1334      3      517      512      513      520
    1335     21      491      496      508      509
    1336      5      491      496      508      514
    1337      5      491      496      508      515
    1338     19      497      496      508      509
    1339     20      497      496      508      514
    1340     20      497      496      508      515
    1341     15      528      520      521      522
    1342     16      528      520      521      529
    1343     15      513      520      521      522
    1344     15      513      520      521      529
    1345     15      520      521      522      523
    1346     15      520      521      522      527
    1347     15      529      521      522      523
    1348     15      529      521      522      527
    1349      5      521      522      523      524
    1350      5      521      522      523      530
    1351      5      521      522      523      531
    1352      5      527      522      523      524
    1353      5      527      522      523      530
    1354      5      527      522      523      531
    1355     17      522      523      524      525
    1356     18      522      523      524      532
    1357     18      522      523      524      533
    1358      3      530      523      524      525
    1359      3      530      523      524      532
    1360      3      530      523      524      533
    1361      3      531      523      524      525
    1362      3      531      523      524      532
    1363      3      531      523      524      533
    1364     17      523      524      525      526
    1365      3      523      524      525      534
    1366      3      523      524      525      535
    1367      3      532      524      525      526
    1368      3      532      524      525      534
    1369      3      532      524      525      535
    1370      3      533      524      525      526
    1371      3      533      524      525      534
    1372      3      533      524      525      535
    1373      3      524      525      526      536
    1374      3      524      525      526      537
    1375      3      524      525      526      538
    1376      3      534      525      526      536
    1377      3      534      525      526      537
    1378      3      534      525      526      538
    1379      3      535      525      526      536
    1380      3      535      525      526      537
    1381      3      535      525      526      538
    1382     15      521      522      527      528
    1383     15      521      522      527      539
    1384     15      523      522      527      528
    1385     15      523      522      527      539
    1386     15      522      527      528      520
    1387     15      539      527      528      520
    1388     15      527      528      520      521
    1389     15      527      528      520      513
    1390      5      512      513      520      521
    1391     19      512      513      520      528
    1392      5      518      513      520      521
    1393     20      518      513      520      528
    1394      5      519      513      520      521
    1395     20      519      513      520      528
    1396      5      545      539      540      541
    1397      6      545      539      540      542
    1398      5      546      539      540      541
    1399      6      546      539      540      542
    1400      5      527      539      540      541
    1401      8      527      539      540      542
    1402      9      539      540      542      543
    1403     10      541      540      542      543
    1404     11      540      542      543      544
    1405     12      540      542      543      547
    1406     12      540      542      543      548
    1407      3      542      543      544      549
    1408      3      542      543      544      550
    1409      4      542      543      544      551
    1410      3      547      543      544      549
    1411      3      547      543      544      550
    1412      3      547      543      544      551
    1413      3      548      543      544      549
    1414      3      548      543      544      550
    1415      3      548      543      544      551
    1416     21      522      527      539      540
    1417      5      522      527      539      545
    1418      5      522      527      539      546
    1419     19      528      527      539      540
    1420     20      528      527      539      545
    1421     20      528      527      539      546
    1422     15      559      551      552      553
    1423     16      559      551      552      560
    1424     15      544      551      552      553
    1425     15      544      551      552      560
    1426     15      551      552      553      554
    1427     15      551      552      553      558
    1428     15      560      552      553      554
    1429     15      560      552      553      558
    1430      5      552      553      554      555
    1431      5      552      553      554      561
    1432      5      552      553      554      562
    1433      5      558      553      554      555
    1434      5      558      553      554      561
    1435      5      558      553      554      562
    1436     17      553      554      555      556
    1437     18      553      554      555      563
    1438     18      553      554      555      564
    1439      3      561      554      555      556
    1440      3      561      554      555      563
    1441      3      561      554      555      564
    1442      3      562      554      555      556
    1443      3      562      554      555      563
    1444      3      562      554      555      564
    1445     17      554      555      556      557
    1446      3      554      555      556      565
    1447      3      554      555      556      566
    1448      3      563      555      556      557
    1449      3      563      555      556      565
    1450      3      563      555      556      566
    1451      3      564      555      556      557
    1452      3      564      555      556      565
    1453      3      564      555      556      566
    1454      3      555      556      557      567
    1455      3      555      556      557      568
    1456      3      555      556      557      569
    1457      3      565      556      557      567
    1458      3      565      556      557      568
    1459      3      565      556      557      569
    1460      3      566      556      557      567
    1461      3      566      556      557      568
    1462      3      566      556      557      569
    1463     15      552      553      558      559
    1464     15      552      553      558      570
    1465     15      554      553      558      559
    1466     15      554      553      558      570
    1467     15      553      558      559      551
    1468     15      570      558      559      551
    1469     15      558      559      551      552
    1470     15      558      559      551      544
    1471      5      543      544      551      552
    1472     19      543      544      551      559
    1473      5      549      544      551      552
    1474     20      549      544      551      559
    1475      5      550      544      551      552
    1476     20      550      544      551      559
    1477      5      576      570      571      572
    1478      6      576      570      571      573
    1479      5      577      570      571      572
    1480      6      577      570      571      573
    1481      5      558      570      571      572
    1482      8      558      570      571      573
    1483      9      570      571      573      574
    1484     10      572      571      573      574
    1485     11      571      573      574      575
    1486     12      571      573      574      578
    1487     12      571      573      574      579
    1488      3      573      574      575      580
    1489      3      573      574      575      581
    1490      4      573      574      575      582
    1491      3      578      574      575      580
    1492      3      578      574      575      581
    1493      3      578      574      575      582
    1494      3      579      574      575      580
    1495      3      579      574      575      581
    1496      3      579      574      575      582
    1497     21      553      558      570      571
    1498      5      553      558      570      576
    1499      5      553      558      570      577
    1500     19      559      558      570      571
    1501     20      559      558      570      576
    1502     20      559      558      570      577
    1503     15      590      582      583      584
    1504     16      590      582      583      591
    1505     15      575      582      583      584
    1506     15      575      582      583      591
    1507     15      582      583      584      585
    1508     15      582      583      584      589
    1509     15      591      583      584      585
    1510     15      591      583      584      589
    1511      5      583      584      585      586
    1512      5      583      584      585      592
    1513      5      583      584      585      593
    1514      5      589      584      585      586
    1515      5      589      584      585      592
    1516      5      589      584      585      593
    1517     17      584      585      586      587
    1518     18      584      585      586      594
    1519     18      584      585      586      595
    1520      3      592      585      586      587
    1521      3      592      585      586      594
    1522      3      592      585      586      595
    1523      3      593      585      586      587
    1524      3      593      585      586      594
    1525      3      593      585      586      595
    1526     17      585      586      587      588
    1527      3      585      586      587      596
    1528      3      585      586      587      597
    1529      3      594      586      587      588
    1530      3      594      586      587      596
    1531      3      594      586      587      597
    1532      3      595      586      587      588
    1533      3      595      586      587      596
    1534      3      595      586      587      597
    1535      3      586      587      588      598
    1536      3      586      587      588      599
    1537      3      586      587      588      600
    1538      3      596      587      588      598
    1539      3      596      587      588      599
    1540      3      596      587      588      600
    1541      3      597      587      588      598
    1542      3      597      587      588      599
    1543      3      597      587      588      600
    1544     15      583      584      589      590
    1545     15      583      584      589      601
    1546     15      585      584      589      590
    1547     15      585      584      589      601
    1548     15      584      589      590      582
    1549     15      601      589      590      582
    1550     15      589      590      582      583
    1551     15      589      590      582      575
    1552      5      574      575      582      583
    1553     19      574      575      582      590
    1554      5      580      575      582      583
    1555     20      580      575      582      590
    1556      5      581      575      582      583
    1557     20      581      575      582      590
    1558      5      607      601      602      603
    1559      6      607      601      602      604
    1560      5      608      601      602      603
    1561      6      608      601      602      604
    1562      5      589      601      602      603
    1563      8      589      601      602      604
    1564      9      601      602      604      605
    1565     10      603      602      604      605
    1566     11      602      604      605      606
    1567     12      602      604      605      609
    1568     12      602      604      605      610
    1569      3      604      605      606      611
    1570      3      604      605      606      612
    1571      4      604      605      606      613
    1572      3      609      605      606      611
    1573      3      609      605      606      612
    1574      3      609      605      606      613
    1575      3      610      605      606      611
    1576      3      610      605      606      612
    1577      3      610      605      606      613
    1578     21      584      589      601      602
    1579      5      584      589      601      607
    1580      5      584      589      601      608
    1581     19      590      589      601      602
    1582     20      590      589      601      607
    1583     20      590      589      601      608
    1584     15      621      613      614      615
    1585     16      621      613      614      622
    1586     15      606      613      614      615
    1587     15      606      613      614      622
    1588     15      613      614      615      616
    1589     15      613      614      615      620
    1590     15      622      614      615      616
    1591     15      622      614      615      620
    1592      5      614      615      616      617
    1593      5      614      615      616      623
    1594      5      614      615      616      624
    1595      5      620      615      616      617
    1596      5      620      615      616      623
    1597      5      620      615      616      624
    1598     17      615      616      617      618
    1599     18      615      616      617      625
    1600     18      615      616      617      626
    1601      3      623      616      617      618
    1602      3      623      616      617      625
    1603      3      623      616      617      626
    1604      3      624      616      617      618
    1605      3      624      616      617      625
    1606      3      624      616      617      626
    1607     17      616      617      618      619
    1608      3      616      617      618      627
    1609      3      616      617      618      628
    1610      3      625      617      618      619
    1611      3      625      617      618      627
    1612      3      625      617      618      628
    1613      3      626      617      618      619
    1614      3      626      617      618      627
    1615      3      626      617      618      628
    1616      3      617      618      619      629
    1617      3      617      618      619      630
    1618      3      617      618      619      631
    1619      3      627      618      619      629
    1620      3      627      618      619      630
    1621      3      627      618      619      631
    1622      3      628      618      619      629
    1623      3      628      618      619      630
    1624      3      628      618      619      631
    1625     15      614      615      620      621
    1626     15      614      615      620      632
    1627     15      616      615      620      621
    1628     15      616      615      620      632
    1629     15      615      620      621      613
    1630     15      632      620      621      613
    1631     15      620      621      613      614
    1632     15      620      621      613      606
    1633      5      605      606      613      614
    1634     19      605      606      613      621
    1635      5      611      606      613      614
    1636     20      611      606      613      621
    1637      5      612      606      613      614
    1638     20      612      606      613      621
    1639      5      638      632      633      634
    1640      6      638      632      633      635
    1641      5      639      632      633      634
    1642      6      639      632      633      635
    1643      5      620      632      633      634
    1644      8      620      632      633      635
    1645      9      632      633      635      636
    1646     10      634      633      635      636
    1647     11      633      635      636      637
    1648     12      633      635      636      640
    1649     12      633      635      636      641
    1650      3      635      636      637      642
    1651      3      635      636      637      643
    1652      4      635      636      637      644
    1653      3      640      636      637      642
    1654      3      640      636      637      643
    1655      3      640      636      637      644
    1656      3      641      636      637      642
    1657      3      641      636      637      643
    1658      3      641      636      637      644
    1659     21      615      620      632      633
    1660      5      615      620      632      638
    1661      5      615      620      632      639
    1662     19      621      620      632      633
    1663     20      621      620      632      638
    1664     20      621      620      632      639
    1665     15      652      644      645      646
    1666     16      652      644      645      653
    1667     15      637      644      645      646
    1668     15      637      644      645      653
    1669     15      644      645      646      647
    1670     15      644      645      646      651
    1671     15      653      645      646      647
    1672     15      653      645      646      651
    1673      5      645      646      647      648
    1674      5      645      646      647      654
    1675      5      645      646      647      655
    1676      5      651      646      647      648
    1677      5      651      646      647      654
    1678      5      651      646      647      655
    1679     17      646      647      648      649
    1680     18      646      647      648      656
    1681     18      646      647      648      657
    1682      3      654      647      648      649
    1683      3      654      647      648      656
    1684      3      654      647      648      657
    1685      3      655      647      648      649
    1686      3      655      647      648      656
    1687      3      655      647      648      657
    1688     17      647      648      649      650
    1689      3      647      648      649      658
    1690      3      647      648      649      659
    1691      3      656      648      649      650
    1692      3      656      648      649      658
    1693      3      656      648      649      659
    1694      3      657      648      649      650
    1695      3      657      648      649      658
    1696      3      657      648      649      659
    1697      3      648      649      650      660
    1698      3      648      649      650      661
    1699      3      648      649      650      662
    1700      3      658      649      650      660
    1701      3      658      649      650      661
    1702      3      658      649      650      662
    1703      3      659      649      650      660
    1704      3      659      649      650      661
    1705      3      659      649      650      662
    1706     15      645      646      651      652
    1707     15      645      646      651      663
    1708     15      647      646      651      652
    1709     15      647      646      651      663
    1710     15      646      651      652      644
    1711     15      663      651      652      644
    1712     15      651      652      644      645
    1713     15      651      652      644      637
    1714      5      636      637      644      645
    1715     19      636      637      644      652
    1716      5      642      637      644      645
    1717     20      642      637      644      652
    1718      5      643      637      644      645
    1719     20      643      637      644      652
    1720      5      669      663      664      665
    1721      6      669      663      664      666
    1722      5      670      663      664      665
    1723      6      670      663      664      666
    1724      5      651      663      664      665
    1725      8      651      663      664      666
    1726      9      663      664      666      667
    1727     10      665      664      666      667
    1728     11      664      666      667      668
    1729     12      664      666      667      671
    1730     12      664      666      667      672
    1731      3      666      667      668      673
    1732      3      666      667      668      674
    1733      4      666      667      668      675
    1734      3      671      667      668      673
    1735      3      671      667      668      674
    1736      3      671      667      668      675
    1737      3      672      667      668      673
    1738      3      672      667      668      674
    1739      3      672      667      668      675
    1740     21      646      651      663      664
    1741      5      646      651      663      669
    1742      5      646      651      663      670
    1743     19      652      651      663      664
    1744     20      652      651      663      669
    1745     20      652      651      663      670
    1746     15      683      675      676      677
    1747     16      683      675      676      684
    1748     15      668      675      676      677
    1749     15      668      675      676      684
    1750     15      675      676      677      678
    1751     15      675      676      677      682
    1752     15      684      676      677      678
    1753     15      684      676      677      682
    1754      5      676      677      678      679
    1755      5      676      677      678      685
    1756      5      676      677      678      686
    1757      5      682      677      678      679
    1758      5      682      677      678      685
    1759      5      682      677      678      686
    1760     17      677      678      679      680
    1761     18      677      678      679      687
    1762     18      677      678      679      688
    1763      3      685      678      679      680
    1764      3      685      678      679      687
    1765      3      685      678      679      688
    1766      3      686      678      679      680
    1767      3      686      678      679      687
    1768      3      686      678      679      688
    1769     17      678      679      680      681
    1770      3      678      679      680      689
    1771      3      678      679      680      690
    1772      3      687      679      680      681
    1773      3      687      679      680      689
    1774      3      687      679      680      690
    1775      3      688      679      680      681
    1776      3      688      679      680      689
    1777      3      688      679      680      690
    1778      3      679      680      681      691
    1779      3      679      680      681      692
    1780      3      679      680      681      693
    1781      3      689      680      681      691
    1782      3      689      680      681      692
    1783      3      689      680      681      693
    1784      3      690      680      681      691
    1785      3      690      680      681      692
    1786      3      690      680      681      693
    1787     15      676      677      682      683
    1788     15      676      677      682      694
    1789     15      678      677      682      683
    1790     15      678      677      682      694
    1791     15      677      682      683      675
    1792     15      694      682      683      675
    1793     15      682      683      675      676
    1794     15      682      683      675      668
    1795      5      667      668      675      676
    1796     19      667      668      675      683
    1797      5      673      668      675      676
    1798     20      673      668      675      683
    1799      5      674      668      675      676
    1800     20      674      668      675      683
    1801      5      700      694      695      696
    1802      6      700      694      695      697
    1803      5      701      694      695      696
    1804      6      701      694      695      697
    1805      5      682      694      695      696
    1806      8      682      694      695      697
    1807      9      694      695      697      698
    1808     10      696      695      697      698
    1809     11      695      697      698      699
    1810     12      695      697      698      702
    1811     12      695      697      698      703
    1812      3      697      698      699      704
    1813      3      697      698      699      705
    1814      4      697      698      699      706
    1815      3      702      698      699      704
    1816      3      702      698      699      705
    1817      3      702      698      699      706
    1818      3      703      698      699      704
    1819      3      703      698      699      705
    1820      3      703      698      699      706
    1821     21      677      682      694      695
    1822      5      677      682      694      700
    1823      5      677      682      694      701
    1824     19      683      682      694      695
    1825     20      683      682      694      700
    1826     20      683      682      694      701
    1827     15      714      706      707      708
    1828     16      714      706      707      715
    1829     15      699      706      707      708
    1830     15      699      706      707      715
    1831     15      706      707      708      709
    1832     15      706      707      708      713
    1833     15      715      707      708      709
    1834     15      715      707      708      713
    1835      5      707      708      709      710
    1836      5      707      708      709      716
    1837      5      707      708      709      717
    1838      5      713      708      709      710
    1839      5      713      708      709      716
    1840      5      713      708      709      717
    1841     17      708      709      710      711
    1842     18      708      709      710      718
    1843     18      708      709      710      719
    1844      3      716      709      710      711
    1845      3      716      709      710      718
    1846      3      716      709      710      719
    1847      3      717      709      710      711
    1848      3      717      709      710      718
    1849      3      717      709      710      719
    1850     17      709      710      711      712
    1851      3      709      710      711      720
    1852      3      709      710      711      721
    1853      3      718      710      711      712
    1854      3      718      710      711      720
    1855      3      718      710      711      721
    1856      3      719      710      711      712
    1857      3      719      710      711      720
    1858      3      719      710      711      721
    1859      3      710      711      712      722
    1860      3      710      711      712      723
    1861      3      710      711      712      724
    1862      3      720      711      712      722
    1863      3      720      711      712      723
    1864      3      720      711      712      724
    1865      3      721      711      712      722
    1866      3      721      711      712      723
    1867      3      721      711      712      724
    1868     15      707      708      713      714
    1869     15      707      708      713      725
    1870     15      709      708      713      714
    1871     15      709      708      713      725
    1872     15      708      713      714      706
    1873     15      725      713      714      706
    1874     15      713      714      706      707
    1875     15      713      714      706      699
    1876      5      698      699      706      707
    1877     19      698      699      706      714
    1878      5      704      699      706      707
    1879     20      704      699      706      714
    1880      5      705      699      706      707
    1881     20      705      699      706      714
    1882      5      731      725      726      727
    1883      6      731      725      726      728
    1884      5      732      725      726      727
    1885      6      732      725      726      728
    1886      5      713      725      726      727
    1887      8      713      725      726      728
    1888      9      725      726      728      729
    1889     10      727      726      728      729
    1890     11      726      728      729      730
    1891     12      726      728      729      733
    1892     12      726      728      729      734
    1893      3      728      729      730      735
    1894      3      728      729      730      736
    1895      4      728      729      730      737
    1896      3      733      729      730      735
    1897      3      733      729      730      736
    1898      3      733      729      730      737
    1899      3      734      729      730      735
    1900      3      734      729      730      736
    1901      3      734      729      730      737
    1902     21      708      713      725      726
    1903      5      708      713      725      731
    1904      5      708      713      725      732
    1905     19      714      713      725      726
    1906     20      714      713      725      731
    1907     20      714      713      725      732
    1908     15      745      737      738      739
    1909     16      745      737      738      746
    1910     15      730      737      738      739
    1911     15      730      737      738      746
    1912     15      737      738      739      740
    1913     15      737      738      739      744
    1914     15      746      738      739      740
    1915     15      746      738      739      744
    1916      5      738      739      740      741
    1917      5      738      739      740      747
    1918      5      738      739      740      748
    1919      5      744      739      740      741
    1920      5      744      739      740      747
    1921      5      744      739      740      748
    1922     17      739      740      741      742
    1923     18      739      740      741      749
    1924     18      739      740      741      750
    1925      3      747      740      741      742
    1926      3      747      740      741      749
    1927      3      747      740      741      750
    1928      3      748      740      741      742
    1929      3      748      740      741      749
    1930      3      748      740      741      750
    1931     17      740      741      742      743
    1932      3      740      741      742      751
    1933      3      740      741      742      752
    1934      3      749      741      742      743
    1935      3      749      741      742      751
    1936      3      749      741      742      752
    1937      3      750      741      742      743
    1938      3      750      741      742      751
    1939      3      750      741      742      752
    1940      3      741      742      743      753
    1941      3      741      742      743      754
    1942      3      741      742      743      755
    1943      3      751      742      743      753
    1944      3      751      742      743      754
    1945      3      751      742      743      755
    1946      3      752      742      743      753
    1947      3      752      742      743      754
    1948      3      752      742      743      755
    1949     15      738      739      744      745
    1950     15      738      739      744      756
    1951     15      740      739      744      745
    1952     15      740      739      744      756
    1953     15      739      744      745      737
    1954     15      756      744      745      737
    1955     15      744      745      737      738
    1956     15      744      745      737      730
    1957      5      729      730      737      738
    1958     19      729      730      737      745
    1959      5      735      730      737      738
    1960     20      735      730      737      745
    1961      5      736      730      737      738
    1962     20      736      730      737      745
    1963      5      762      756      757      758
    1964      6      762      756      757      759
    1965      5      763      756      757      758
    1966      6      763      756      757      759
    1967      5      744      756      757      758
    1968      8      744      756      757      759
    1969      9      756      757      759      760
    1970     10      758      757      759      760
    1971     11      757      759      760      761
    1972     12      757      759      760      764
    1973     12      757      759      760      765
    1974      3      759      760      761      766
    1975      3      759      760      761      767
    1976      4      759      760      761      768
    1977      3      764      760      761      766
    1978      3      764      760      761      767
    1979      3      764      760      761      768
    1980      3      765      760      761      766
    1981      3      765      760      761      767
    1982      3      765      760      761      768
    1983     21      739      744      756      757
    1984      5      739      744      756      762
    1985      5      739      744      756      763
    1986     19      745      744      756      757
    1987     20      745      744      756      762
    1988     20      745      744      756      763
    1989     15      776      768      769      770
    1990     16      776      768      769      777
    1991     15      761      768      769      770
    1992     15      761      768      769      777
    1993     15      768      769      770      771
    1994     15      768      769      770      775
    1995     15      777      769      770      771
    1996     15      777      769      770      775
    1997      5      769      770      771      772
    1998      5      769      770      771      778
    1999      5      769      770      771      779
    2000      5      775      770      771      772
    2001      5      775      770      771      778
    2002      5      775      770      771      779
    2003     17      770      771      772      773
    2004     18      770      771      772      780
    2005     18      770      771      772      781
    2006      3      778      771      772      773
    2007      3      778      771      772      780
    2008      3      778      771      772      781
    2009      3      779      771      772      773
    2010      3      779      771      772      780
    2011      3      779      771      772      781
    2012     17      771      772      773      774
    2013      3      771      772      773      782
    2014      3      771      772      773      783
    2015      3      780      772      773      774
    2016      3      780      772      773      782
    2017      3      780      772      773      783
    2018      3      781      772      773      774
    2019      3      781      772      773      782
    2020      3      781      772      773      783
    2021      3      772      773      774      784
    2022      3      772      773      774      785
    2023      3      772      773      774      786
    2024      3      782      773      774      784
    2025      3      782      773      774      785
    2026      3      782      773      774      786
    2027      3      783      773      774      784
    2028      3      783      773      774      785
    2029      3      783      773      774      786
    2030     15      769      770      775      776
    2031     15      769      770      775      787
    2032     15      771      770      775      776
    2033     15      771      770      775      787
    2034     15      770      775      776      768
    2035     15      787      775      776      768
    2036     15      775      776      768      769
    2037     15      775      776      768      761
    2038      5      760      761      768      769
    2039     19      760      761      768      776
    2040      5      766      761      768      769
    2041     20      766      761      768      776
    2042      5      767      761      768      769
    2043     20      767      761      768      776
    2044      5      793      787      788      789
    2045      6      793      787      788      790
    2046      5      794      787      788      789
    2047      6      794      787      788      790
    2048      5      775      787      788      789
    2049      8      775      787      788      790
    2050      9      787      788      790      791
    2051     10      789      788      790      791
    2052     11      788      790      791      792
    2053     12      788      790      791      795
    2054     12      788      790      791      796
    2055      3      790      791      792      797
    2056      3      790      791      792      798
    2057      4      790      791      792      799
    2058      3      795      791      792      797
    2059      3      795      791      792      798
    2060      3      795      791      792      799
    2061      3      796      791      792      797
    2062      3      796      791      792      798
    2063      3      796      791      792      799
    2064     21      770      775      787      788
    2065      5      770      775      787      793
    2066      5      770      775      787      794
    2067     19      776      775      787      788
    2068     20      776      775      787      793
    2069     20      776      775      787      794
    2070     15      807      799      800      801
    2071     16      807      799      800      808
    2072     15      792      799      800      801
    2073     15      792      799      800      808
    2074     15      799      800      801      802
    2075     15      799      800      801      806
    2076     15      808      800      801      802
    2077     15      808      800      801      806
    2078      5      800      801      802      803
    2079      5      800      801      802      809
    2080      5      800      801      802      810
    2081      5      806      801      802      803
    2082      5      806      801      802      809
    2083      5      806      801      802      810
    2084     17      801      802      803      804
    2085     18      801      802      803      811
    2086     18      801      802      803      812
    2087      3      809      802      803      804
    2088      3      809      802      803      811
    2089      3      809      802      803      812
    2090      3      810      802      803      804
    2091      3      810      802      803      811
    2092      3      810      802      803      812
    2093     17      802      803      804      805
    2094      3      802      803      804      813
    2095      3      802      803      804      814
    2096      3      811      803      804      805
    2097      3      811      803      804      813
    2098      3      811      803      804      814
    2099      3      812      803      804      805
    2100      3      812      803      804      813
    2101      3      812      803      804      814
    2102      3      803      804      805      815
    2103      3      803      804      805      816
    2104      3      803      804      805      817
    2105      3      813      804      805      815
    2106      3      813      804      805      816
    2107      3      813      804      805      817
    2108      3      814      804      805      815
    2109      3      814      804      805      816
    2110      3      814      804      805      817
    2111     15      800      801      806      807
    2112     15      800      801      806      818
    2113     15      802      801      806      807
    2114     15      802      801      806      818
    2115     15      801      806      807      799
    2116     15      818      806      807      799
    2117     15      806      807      799      800
    2118     15      806      807      799      792
    2119      5      791      792      799      800
    2120     19      791      792      799      807
    2121      5      797      792      799      800
    2122     20      797      792      799      807
    2123      5      798      792      799      800
    2124     20      798      792      799      807
    2125      5      824      818      819      820
    2126      6      824      818      819      821
    2127      5      825      818      819      820
    2128      6      825      818      819      821
    2129      5      806      818      819      820
    2130      8      806      818      819      821
    2131      9      818      819      821      822
    2132     10      820      819      821      822
    2133     11      819      821      822      823
    2134     12      819      821      822      826
    2135     12      819      821      822      827
    2136      3      821      822      823      828
    2137      3      821      822      823      829
    2138      4      821      822      823      830
    2139      3      826      822      823      828
    2140      3      826      822      823      829
    2141      3      826      822      823      830
    2142      3      827      822      823      828
    2143      3      827      822      823      829
    2144      3      827      822      823      830
    2145     21      801      806      818      819
    2146      5      801      806      818      824
    2147      5      801      806      818      825
    2148     19      807      806      818      819
    2149     20      807      806      818      824
    2150     20      807      806      818      825
    2151     15      838      830      831      832
    2152     16      838      830      831      839
    2153     15      823      830      831      832
    2154     15      823      830      831      839
    2155     15      830      831      832      833
    2156     15      830      831      832      837
    2157     15      839      831      832      833
    2158     15      839      831      832      837
    2159      5      831      832      833      834
    2160      5      831      832      833      840
    2161      5      831      832      833      841
    2162      5      837      832      833      834
    2163      5      837      832      833      840
    2164      5      837      832      833      841
    2165     17      832      833      834      835
    2166     18      832      833      834      842
    2167     18      832      833      834      843
    2168      3      840      833      834      835
    2169      3      840      833      834      842
    2170      3      840      833      834      843
    2171      3      841      833      834      835
    2172      3      841      833      834      842
    2173      3      841      833      834      843
    2174     17      833      834      835      836
    2175      3      833      834      835      844
    2176      3      833      834      835      845
    2177      3      842      834      835      836
    2178      3      842      834      835      844
    2179      3      842      834      835      845
    2180      3      843      834      835      836
    2181      3      843      834      835      844
    2182      3      843      834      835      845
    2183      3      834      835      836      846
    2184      3      834      835      836      847
    2185      3      834      835      836      848
    2186      3      844      835      836      846
    2187      3      844      835      836      847
    2188      3      844      835      836      848
    2189      3      845      835      836      846
    2190      3      845      835      836      847
    2191      3      845      835      836      848
    2192     15      831      832      837      838
    2193     15      831      832      837      849
    2194     15      833      832      837      838
    2195     15      833      832      837      849
    2196     15      832      837      838      830
    2197     15      849      837      838      830
    2198     15      837      838      830      831
    2199     15      837      838      830      823
    2200      5      822      823      830      831
    2201     19      822      823      830      838
    2202      5      828      823      830      831
    2203     20      828      823      830      838
    2204      5      829      823      830      831
    2205     20      829      823      830      838
    2206      5      855      849      850      851
    2207      6      855      849      850      852
    2208      5      856      849      850      851
    2209      6      856      849      850      852
    2210      5      837      849      850      851
    2211      8      837      849      850      852
    2212      9      849      850      852      853
    2213     10      851      850      852      853
    2214     11      850      852      853      854
    2215     12      850      852      853      857
    2216     12      850      852      853      858
    2217      3      852      853      854      859
    2218      3      852      853      854      860
    2219      4      852      853      854      861
    2220      3      857      853      854      859
    2221      3      857      853      854      860
    2222      3      857      853      854      861
    2223      3      858      853      854      859
    2224      3      858      853      854      860
    2225      3      858      853      854      861
    2226     21      832      837      849      850
    2227      5      832      837      849      855
    2228      5      832      837      849      856
    2229     19      838      837      849      850
    2230     20      838      837      849      855
    2231     20      838      837      849      856
    2232     15      869      861      862      863
    2233     16      869      861      862      870
    2234     15      854      861      862      863
    2235     15      854      861      862      870
    2236     15      861      862      863      864
    2237     15      861      862      863      868
    2238     15      870      862      863      864
    2239     15      870      862      863      868
    2240      5      862      863      864      865
    2241      5      862      863      864      871
    2242      5      862      863      864      872
    2243      5      868      863      864      865
    2244      5      868      863      864      871
    2245      5      868      863      864      872
    2246     17      863      864      865      866
    2247     18      863      864      865      873
    2248     18      863      864      865      874
    2249      3      871      864      865      866
    2250      3      871      864      865      873
    2251      3      871      864      865      874
    2252      3      872      864      865      866
    2253      3      872      864      865      873
    2254      3      872      864      865      874
    2255     17      864      865      866      867
    2256      3      864      865      866      875
    2257      3      864      865      866      876
    2258      3      873      865      866      867
    2259      3      873      865      866      875
    2260      3      873      865      866      876
    2261      3      874      865      866      867
    2262      3      874      865      866      875
    2263      3      874      865      866      876
    2264      3      865      866      867      877
    2265      3      865      866      867      878
    2266      3      865      866      867      879
    2267      3      875      866      867      877
    2268      3      875      866      867      878
    2269      3      875      866      867      879
    2270      3      876      866      867      877
    2271      3      876      866      867      878
    2272      3      876      866      867      879
    2273     15      862      863      868      869
    2274     15      862      863      868      880
    2275     15      864      863      868      869
    2276     15      864      863      868      880
    2277     15      863      868      869      861
    2278     15      880      868      869      861
    2279     15      868      869      861      862
    2280     15      868      869      861      854
    2281      5      853      854      861      862
    2282     19      853      854      861      869
    2283      5      859      854      861      862
    2284     20      859      854      861      869
    2285      5      860      854      861      862
    2286     20      860      854      861      869
    2287      5      886      880      881      882
    2288      6      886      880      881      883
    2289      5      887      880      881      882
    2290      6      887      880      881      883
    2291      5      868      880      881      882
    2292      8      868      880      881      883
    2293      9      880      881      883      884
    2294     10      882      881      883      884
    2295     11      881      883      884      885
    2296     12      881      883      884      888
    2297     12      881      883      884      889
    2298      3      883      884      885      890
    2299      3      883      884      885      891
    2300      4      883      884      885      892
    2301      3      888      884      885      890
    2302      3      888      884      885      891
    2303      3      888      884      885      892
    2304      3      889      884      885      890
    2305      3      889      884      885      891
    2306      3      889      884      885      892
    2307     21      863      868      880      881
    2308      5      863      868      880      886
    2309      5      863      868      880      887
    2310     19      869      868      880      881
    2311     20      869      868      880      886
    2312     20      869      868      880      887
    2313     15      900      892      893      894
    2314     16      900      892      893      901
    2315     15      885      892      893      894
    2316     15      885      892      893      901
    2317     15      892      893      894      895
    2318     15      892      893      894      899
    2319     15      901      893      894      895
    2320     15      901      893      894      899
    2321      5      893      894      895      896
    2322      5      893      894      895      902
    2323      5      893      894      895      903
    2324      5      899      894      895      896
    2325      5      899      894      895      902
    2326      5      899      894      895      903
    2327     17      894      895      896      897
    2328     18      894      895      896      904
    2329     18      894      895      896      905
    2330      3      902      895      896      897
    2331      3      902      895      896      904
    2332      3      902      895      896      905
    2333      3      903      895      896      897
    2334      3      903      895      896      904
    2335      3      903      895      896      905
    2336     17      895      896      897      898
    2337      3      895      896      897      906
    2338      3      895      896      897      907
    2339      3      904      896      897      898
    2340      3      904      896      897      906
    2341      3      904      896      897      907
    2342      3      905      896      897      898
    2343      3      905      896      897      906
    2344      3      905      896      897      907
    2345      3      896      897      898      908
    2346      3      896      897      898      909
    2347      3      896      897      898      910
    2348      3      906      897      898      908
    2349      3      906      897      898      909
    2350      3      906      897      898      910
    2351      3      907      897      898      908
    2352      3      907      897      898      909
    2353      3      907      897      898      910
    2354     15      893      894      899      900
    2355     15      893      894      899      911
    2356     15      895      894      899      900
    2357     15      895      894      899      911
    2358     15      894      899      900      892
    2359     15      911      899      900      892
    2360     15      899      900      892      893
    2361     15      899      900      892      885
    2362      5      884      885      892      893
    2363     19      884      885      892      900
    2364      5      890      885      892      893
    2365     20      890      885      892      900
    2366      5      891      885      892      893
    2367     20      891      885      892      900
    2368      5      917      911      912      913
    2369      6      917      911      912      914
    2370      5      918      911      912      913
    2371      6      918      911      912      914
    2372      5      899      911      912      913
    2373      8      899      911      912      914
    2374      9      911      912      914      915
    2375     10      913      912      914      915
    2376     11      912      914      915      916
    2377     12      912      914      915      919
    2378     12      912      914      915      920
    2379      3      914      915      916      921
    2380      3      914      915      916      922
    2381      4      914      915      916      923
    2382      3      919      915      916      921
    2383      3      919      915      916      922
    2384      3      919      915      916      923
    2385      3      920      915      916      921
    2386      3      920      915      916      922
    2387      3      920      915      916      923
    2388     21      894      899      911      912
    2389      5      894      899      911      917
    2390      5      894      899      911      918
    2391     19      900      899      911      912
    2392     20      900      899      911      917
    2393     20      900      899      911      918
    2394     15      931      923      924      925
    2395     16      931      923      924      932
    2396     15      916      923      924      925
    2397     15      916      923      924      932
    2398     15      923      924      925      926
    2399     15      923      924      925      930
    2400     15      932      924      925      926
    2401     15      932      924      925      930
    2402      5      924      925      926      927
    2403      5      924      925      926      933
    2404      5      924      925      926      934
    2405      5      930      925      926      927
    2406      5      930      925      926      933
    2407      5      930      925      926      934
    2408     17      925      926      927      928
    2409     18      925      926      927      935
    2410     18      925      926      927      936
    2411      3      933      926      927      928
    2412      3      933      926      927      935
    2413      3      933      926      927      936
    2414      3      934      926      927      928
    2415      3      934      926      927      935
    2416      3      934      926      927      936
    2417     17      926      927      928      929
    2418      3      926      927      928      937
    2419      3      926      927      928      938
    2420      3      935      927      928      929
    2421      3      935      927      928      937
    2422      3      935      927      928      938
    2423      3      936      927      928      929
    2424      3      936      927      928      937
    2425      3      936      927      928      938
    2426      3      927      928      929      939
    2427      3      927      928      929      940
    2428      3      927      928      929      941
    2429      3      937      928      929      939
    2430      3      937      928      929      940
    2431      3      937      928      929      941
    2432      3      938      928      929      939
    2433      3      938      928      929      940
    2434      3      938      928      929      941
    2435     15      924      925      930      931
    2436     15      924      925      930      942
    2437     15      926      925      930      931
    2438     15      926      925      930      942
    2439     15      925      930      931      923
    2440     15      942      930      931      923
    2441     15      930      931      923      924
    2442     15      930      931      923      916
    2443      5      915      916      923      924
    2444     19      915      916      923      931
    2445      5      921      916      923      924
    2446     20      921      916      923      931
    2447      5      922      916      923      924
    2448     20      922      916      923      931
    2449      5      948      942      943      944
    2450      6      948      942      943      945
    2451      5      949      942      943      944
    2452      6      949      942      943      945
    2453      5      930      942      943      944
    2454      8      930      942      943      945
    2455      9      942      943      945      946
    2456     10      944      943      945      946
    2457     11      943      945      946      947
    2458     12      943      945      946      950
    2459     12      943      945      946      951
    2460      3      945      946      947      952
    2461      3      945      946      947      953
    2462      4      945      946      947      954
    2463      3      950      946      947      952
    2464      3      950      946      947      953
    2465      3      950      946      947      954
    2466      3      951      946      947      952
    2467      3      951      946      947      953
    2468      3      951      946      947      954
    2469     21      925      930      942      943
    2470      5      925      930      942      948
    2471      5      925      930      942      949
    2472     19      931      930      942      943
    2473     20      931      930      942      948
    2474     20      931      930      942      949
    2475     15      962      954      955      956
    2476     16      962      954      955      963
    2477     15      947      954      955      956
    2478     15      947      954      955      963
    2479     15      954      955      956      957
    2480     15      954      955      956      961
    2481     15      963      955      956      957
    2482     15      963      955      956      961
    2483      5      955      956      957      958
    2484      5      955      956      957      964
    2485      5      955      956      957      965
    2486      5      961      956      957      958
    2487      5      961      956      957      964
    2488      5      961      956      957      965
    2489     17      956      957      958      959
    2490     18      956      957      958      966
    2491     18      956      957      958      967
    2492      3      964      957      958      959
    2493      3      964      957      958      966
    2494      3      964      957      958      967
    2495      3      965      957      958      959
    2496      3      965      957      958      966
    2497      3      965      957      958      967
    2498     17      957      958      959      960
    2499      3      957      958      959      968
    2500      3      957      958      959      969
    2501      3      966      958      959      960
    2502      3      966      958      959      968
    2503      3      966      958      959      969
    2504      3      967      958      959      960
    2505      3      967      958      959      968
    2506      3      967      958      959      969
    2507      3      958      959      960      970
    2508      3      958      959      960      971
    2509      3      958      959      960      972
    2510      3      968      959      960      970
    2511      3      968      959      960      971
    2512      3      968      959      960      972
    2513      3      969      959      960      970
    2514      3      969      959      960      971
    2515      3      969      959      960      972
    2516     15      955      956      961      962
    2517     15      955      956      961      973
    2518     15      957      956      961      962
    2519     15      957      956      961      973
    2520     15      956      961      962      954
    2521     15      973      961      962      954
    2522     15      961      962      954      955
    2523     15      961      962      954      947
    2524      5      946      947      954      955
    2525     19      946      947      954      962
    2526      5      952      947      954      955
    2527     20      952      947      954      962
    2528      5      953      947      954      955
    2529     20      953      947      954      962
    2530      5      979      973      974      975
    2531      6      979      973      974      976
    2532      5      980      973      974      975
    2533      6      980      973      974      976
    2534      5      961      973      974      975
    2535      8      961      973      974      976
    2536      9      973      974      976      977
    2537     10      975      974      976      977
    2538     11      974      976      977      978
    2539     12      974      976      977      981
    2540     12      974      976      977      982
    2541      3      976      977      978      983
    2542      3      976      977      978      984
    2543      4      976      977      978      985
    2544      3      981      977      978      983
    2545      3      981      977      978      984
    2546      3      981      977      978      985
    2547      3      982      977      978      983
    2548      3      982      977      978      984
    2549      3      982      977      978      985
    2550     21      956      961      973      974
    2551      5      956      961      973      979
    2552      5      956      961      973      980
    2553     19      962      961      973      974
    2554     20      962      961      973      979
    2555     20      962      961      973      980
    2556     15      993      985      986      987
    2557     16      993      985      986      994
    2558     15      978      985      986      987
    2559     15      978      985      986      994
    2560     15      985      986      987      988
    2561     15      985      986      987      992
    2562     15      994      986      987      988
    2563     15      994      986      987      992
    2564      5      986      987      988      989
    2565      5      986      987      988      995
    2566      5      986      987      988      996
    2567      5      992      987      988      989
    2568      5      992      987      988      995
    2569      5      992      987      988      996
    2570     17      987      988      989      990
    2571     18      987      988      989      997
    2572     18      987      988      989      998
    2573      3      995      988      989      990
    2574      3      995      988      989      997
    2575      3      995      988      989      998
    2576      3      996      988      989      990
    2577      3      996      988      989      997
    2578      3      996      988      989      998
    2579     17      988      989      990      991
    2580      3      988      989      990      999
    2581      3      988      989      990     1000
    2582      3      997      989      990      991
    2583      3      997      989      990      999
    2584      3      997      989      990     1000
    2585      3      998      989      990      991
    2586      3      998      989      990      999
    2587      3      998      989      990     1000
    2588      3      989      990      991     1001
    2589      3      989      990      991     1002
    2590      3      989      990      991     1003
    2591      3      999      990      991     1001
    2592      3      999      990      991     1002
    2593      3      999      990      991     1003
    2594      3     1000      990      991     1001
    2595      3     1000      990      991     1002
    2596      3     1000      990      991     1003
    2597     15      986      987      992      993
    2598     15      986      987      992     1004
    2599     15      988      987      992      993
    2600     15      988      987      992     1004
    2601     15      987      992      993      985
    2602     15     1004      992      993      985
    2603     15      992      993      985      986
    2604     15      992      993      985      978
    2605      5      977      978      985      986
    2606     19      977      978      985      993
    2607      5      983      978      985      986
    2608     20      983      978      985      993
    2609      5      984      978      985      986
    2610     20      984      978      985      993
    2611      5     1010     1004     1005     1006
    2612      6     1010     1004     1005     1007
    2613      5     1011     1004     1005     1006
    2614      6     1011     1004     1005     1007
    2615      5      992     1004     1005     1006
    2616      8      992     1004     1005     1007
    2617      9     1004     1005     1007     1008
    2618     10     1006     1005     1007     1008
    2619     11     1005     1007     1008     1009
    2620     12     1005     1007     1008     1012
    2621     12     1005     1007     1008     1013
    2622      3     1007     1008     1009     1014
    2623      3     1007     1008     1009     1015
    2624      4     1007     1008     1009     1016
    2625      3     1012     1008     1009     1014
    2626      3     1012     1008     1009     1015
    2627      3     1012     1008     1009     1016
    2628      3     1013     1008     1009     1014
    2629      3     1013     1008     1009     1015
    2630      3     1013     1008     1009     1016
    2631     21      987      992     1004     1005
    2632      5      987      992     1004     1010
    2633      5      987      992     1004     1011
    2634     19      993      992     1004     1005
    2635     20      993      992     1004     1010
    2636     20      993      992     1004     1011
    2637     15     1024     1016     1017     1018
    2638     16     1024     1016     1017     1025
    2639     15     1009     1016     1017     1018
    2640     15     1009     1016     1017     1025
    2641     15     1016     1017     1018     1019
    2642     15     1016     1017     1018     1023
    2643     15     1025     1017     1018     1019
    2644     15     1025     1017     1018     1023
    2645      5     1017     1018     1019     1020
    2646      5     1017     1018     1019     1026
    2647      5     1017     1018     1019     1027
    2648      5     1023     1018     1019     1020
    2649      5     1023     1018     1019     1026
    2650      5     1023     1018     1019     1027
    2651     17     1018     1019     1020     1021
    2652     18     1018     1019     1020     1028
    2653     18     1018     1019     1020     1029
    2654      3     1026     1019     1020     1021
    2655      3     1026     1019     1020     1028
    2656      3     1026     1019     1020     1029
    2657      3     1027     1019     1020     1021
    2658      3     1027     1019     1020     1028
    2659      3     1027     1019     1020     1029
    2660     17     1019     1020     1021     1022
    2661      3     1019     1020     1021     1030
    2662      3     1019     1020     1021     1031
    2663      3     1028     1020     1021     1022
    2664      3     1028     1020     1021     1030
    2665      3     1028     1020     1021     1031
    2666      3     1029     1020     1021     1022
    2667      3     1029     1020     1021     1030
    2668      3     1029     1020     1021     1031
    2669      3     1020     1021     1022     1032
    2670      3     1020     1021     1022     1033
    2671      3     1020     1021     1022     1034
    2672      3     1030     1021     1022     1032
    2673      3     1030     1021     1022     1033
    2674      3     1030     1021     1022     1034
    2675      3     1031     1021     1022     1032
    2676      3     1031     1021     1022     1033
    2677      3     1031     1021     1022     1034
    2678     15     1017     1018     1023     1024
    2679     15     1017     1018     1023     1035
    2680     15     1019     1018     1023     1024
    2681     15     1019     1018     1023     1035
    2682     15     1018     1023     1024     1016
    2683     15     1035     1023     1024     1016
    2684     15     1023     1024     1016     1017
    2685     15     1023     1024     1016     1009
    2686      5     1008     1009     1016     1017
    2687     19     1008     1009     1016     1024
    2688      5     1014     1009     1016     1017
    2689     20     1014     1009     1016     1024
    2690      5     1015     1009     1016     1017
    2691     20     1015     1009     1016     1024
    2692      5     1041     1035     1036     1037
    2693      6     1041     1035     1036     1038
    2694      5     1042     1035     1036     1037
    2695      6     1042     1035     1036     1038
    2696      5     1023     1035     1036     1037
    2697      8     1023     1035     1036     1038
    2698      9     1035     1036     1038     1039
    2699     10     1037     1036     1038     1039
    2700     11     1036     1038     1039     1040
    2701     12     1036     1038     1039     1043
    2702     12     1036     1038     1039     1044
    2703      3     1038     1039     1040     1045
    2704      3     1038     1039     1040     1046
    2705      4     1038     1039     1040     1047
    2706      3     1043     1039     1040     1045
    2707      3     1043     1039     1040     1046
    2708      3     1043     1039     1040     1047
    2709      3     1044     1039     1040     1045
    2710      3     1044     1039     1040     1046
    2711      3     1044     1039     1040     1047
    2712     21     1018     1023     1035     1036
    2713      5     1018     1023     1035     1041
    2714      5     1018     1023     1035     1042
    2715     19     1024     1023     1035     1036
    2716     20     1024     1023     1035     1041
    2717     20     1024     1023     1035     1042
    2718     15     1055     1047     1048     1049
    2719     16     1055     1047     1048     1056
    2720     15     1040     1047     1048     1049
    2721     15     1040     1047     1048     1056
    2722     15     1047     1048     1049     1050
    2723     15     1047     1048     1049     1054
    2724     15     1056     1048     1049     1050
    2725     15     1056     1048     1049     1054
    2726      5     1048     1049     1050     1051
    2727      5     1048     1049     1050     1057
    2728      5     1048     1049     1050     1058
    2729      5     1054     1049     1050     1051
    2730      5     1054     1049     1050     1057
    2731      5     1054     1049     1050     1058
    2732     17     1049     1050     1051     1052
    2733     18     1049     1050     1051     1059
    2734     18     1049     1050     1051     1060
    2735      3     1057     1050     1051     1052
    2736      3     1057     1050     1051     1059
    2737      3     1057     1050     1051     1060
    2738      3     1058     1050     1051     1052
    2739      3     1058     1050     1051     1059
    2740      3     1058     1050     1051     1060
    2741     17     1050     1051     1052     1053
    2742      3     1050     1051     1052     1061
    2743      3     1050     1051     1052     1062
    2744      3     1059     1051     1052     1053
    2745      3     1059     1051     1052     1061
    2746      3     1059     1051     1052     1062
    2747      3     1060     1051     1052     1053
    2748      3     1060     1051     1052     1061
    2749      3     1060     1051     1052     1062
    2750      3     1051     1052     1053     1063
    2751      3     1051     1052     1053     1064
    2752      3     1051     1052     1053     1065
    2753      3     1061     1052     1053     1063
    2754      3     1061     1052     1053     1064
    2755      3     1061     1052     1053     1065
    2756      3     1062     1052     1053     1063
    2757      3     1062     1052     1053     1064
    2758      3     1062     1052     1053     1065
    2759     15     1048     1049     1054     1055
    2760     15     1048     1049     1054     1069
    2761     15     1050     1049     1054     1055
    2762     15     1050     1049     1054     1069
    2763     15     1049     1054     1055     1047
    2764     15     1069     1054     1055     1047
    2765     15     1054     1055     1047     1048
    2766     15     1054     1055     1047     1040
    2767      5     1039     1040     1047     1048
    2768     19     1039     1040     1047     1055
    2769      5     1045     1040     1047     1048
    2770     20     1045     1040     1047     1055
    2771      5     1046     1040     1047     1048
    2772     20     1046     1040     1047     1055
    2773      1     1070     1066     1067     1068
    2774      1     1071     1066     1067     1068
    2775      1     1072     1066     1067     1068
    2776      2     1066     1067     1068     1069
    2777      1     1066     1067     1068     1073
    2778      1     1066     1067     1068     1074
    2779      3     1067     1068     1069     1075
    2780      3     1067     1068     1069     1076
    2781      4     1067     1068     1069     1054
    2782      3     1073     1068     1069     1075
    2783      3     1073     1068     1069     1076
    2784      3     1073     1068     1069     1054
    2785      3     1074     1068     1069     1075
    2786      3     1074     1068     1069     1076
    2787      3     1074     1068     1069     1054
    2788      5     1049     1054     1069     1068
    2789      5     1049     1054     1069     1075
    2790      5     1049     1054     1069     1076
    2791     19     1055     1054     1069     1068
    2792     20     1055     1054     1069     1075
    2793     20     1055     1054     1069     1076

Impropers

       1      1       13       12       14       15
       2      2       24       25       17       32
       3      2       25       24       26       33
       4      2       26       31       25       27
       5      2       31       26       43       32
       6      1       44       43       45       46
       7      2       55       56       48       63
       8      2       56       55       57       64
       9      2       57       62       56       58
      10      2       62       57       74       63
      11      1       75       74       76       77
      12      2       86       87       79       94
      13      2       87       86       88       95
      14      2       88       93       87       89
      15      2       93       88      105       94
      16      1      106      105      107      108
      17      2      117      118      110      125
      18      2      118      117      119      126
      19      2      119      124      118      120
      20      2      124      119      136      125
      21      1      137      136      138      139
      22      2      148      149      141      156
      23      2      149      148      150      157
      24      2      150      155      149      151
      25      2      155      150      167      156
      26      1      168      167      169      170
      27      2      179      180      172      187
      28      2      180      179      181      188
      29      2      181      186      180      182
      30      2      186      181      198      187
      31      1      199      198      200      201
      32      2      210      211      203      218
      33      2      211      210      212      219
      34      2      212      217      211      213
      35      2      217      212      229      218
      36      1      230      229      231      232
      37      2      241      242      234      249
      38      2      242      241      243      250
      39      2      243      248      242      244
      40      2      248      243      260      249
      41      1      261      260      262      263
      42      2      272      273      265      280
      43      2      273      272      274      281
      44      2      274      279      273      275
      45      2      279      274      291      280
      46      1      292      291      293      294
      47      2      303      304      296      311
      48      2      304      303      305      312
      49      2      305      310      304      306
      50      2      310      305      322      311
      51      1      323      322      324      325
      52      2      334      335      327      342
      53      2      335      334      336      343
      54      2      336      341      335      337
      55      2      341      336      353      342
      56      1      354      353      355      356
      57      2      365      366      358      373
      58      2      366      365      367      374
      59      2      367      372      366      368
      60      2      372      367      384      373
      61      1      385      384      386      387
      62      2      396      397      389      404
      63      2      397      396      398      405
      64      2      398      403      397      399
      65      2      403      398      415      404
      66      1      416      415      417      418
      67      2      427      428      420      435
      68      2      428      427      429      436
      69      2      429      434      428      430
      70      2      434      429      446      435
      71      1      447      446      448      449
      72      2      458      459      451      466
      73      2      459      458      460      467
      74      2      460      465      459      461
      75      2      465      460      477      466
      76      1      478      477      479      480
      77      2      489      490      482      497
      78      2      490      489      491      498
      79      2      491      496      490      492
      80      2      496      491      508      497
      81      1      509      508      510      511
      82      2      520      521      513      528
      83      2      521      520      522      529
      84      2      522      527      521      523
      85      2      527      522      539      528
      86      1      540      539      541      542
      87      2      551      552      544      559
      88      2      552      551      553      560
      89      2      553      558      552      554
      90      2      558      553      570      559
      91      1      571      570      572      573
      92      2      582      583      575      590
      93      2      583      582      584      591
      94      2      584      589      583      585
      95      2      589      584      601      590
      96      1      602      601      603      604
      97      2      613      614      606      621
      98      2      614      613      615      622
      99      2      615      620      614      616
     100      2      620      615      632      621
     101      1      633      632      634      635
     102      2      644      645      637      652
     103      2      645      644      646      653
     104      2      646      651      645      647
     105      2      651      646      663      652
     106      1      664      663      665      666
     107      2      675      676      668      683
     108      2      676      675      677      684
     109      2      677      682      676      678
     110      2      682      677      694      683
     111      1      695      694      696      697
     112      2      706      707      699      714
     113      2      707      706      708      715
     114      2      708      713      707      709
     115      2      713      708      725      714
     116      1      726      725      727      728
     117      2      737      738      730      745
     118      2      738      737      739      746
     119      2      739      744      738      740
     120      2      744      739      756      745
     121      1      757      756      758      759
     122      2      768      769      761      776
     123      2      769      768      770      777
     124      2      770      775      769      771
     125      2      775      770      787      776
     126      1      788      787      789      790
     127      2      799      800      792      807
     128      2      800      799      801      808
     129      2      801      806      800      802
     130      2      806      801      818      807
     131      1      819      818      820      821
     132      2      830      831      823      838
     133      2      831      830      832      839
     134      2      832      837      831      833
     135      2      837      832      849      838
     136      1      850      849      851      852
     137      2      861      862      854      869
     138      2      862      861      863      870
     139      2      863      868      862      864
     140      2      868      863      880      869
     141      1      881      880      882      883
     142      2      892      893      885      900
     143      2      893      892      894      901
     144      2      894      899      893      895
     145      2      899      894      911      900
     146      1      912      911      913      914
     147      2      923      924      916      931
     148      2      924      923      925      932
     149      2      925      930      924      926
     150      2      930      925      942      931
     151      1      943      942      944      945
     152      2      954      955      947      962
     153      2      955      954      956      963
     154      2      956      961      955      957
     155      2      961      956      973      962
     156      1      974      973      975      976
     157      2      985      986      978      993
     158      2      986      985      987      994
     159      2      987      992      986      988
     160      2      992      987     1004      993
     161      1     1005     1004     1006     1007
     162      2     1016     1017     1009     1024
     163      2     1017     1016     1018     1025
     164      2     1018     1023     1017     1019
     165      2     1023     1018     1035     1024
     166      1     1036     1035     1037     1038
     167      2     1047     1048     1040     1055
     168      2     1048     1047     1049     1056
     169      2     1049     1054     1048     1050
     170      2     1054     1049     1069     1055

