LAMMPS data file from Part3 phase8.resolved.q.json (OPLS-AA)
# chain_id=linear_orth800_uid000278_sk0_rg0_pl1_random__dd5ae71029ac topology=linear
# assumes: units real; atom_style full; bond_style harmonic; angle_style harmonic; dihedral_style opls; improper_style cvff
# special_bonds lj/coul 0.0 0.0 0.5
# cvff improper: K=v2/2, d=-1, n=2

    1100 atoms
    1211 bonds
    2040 angles
    3076 dihedrals
     532 impropers

       8 atom types
      16 bond types
      30 angle types
      22 dihedral types
       1 improper types

    -14.357655      42.552884 xlo xhi
     -6.133258      62.366194 ylo yhi
    -31.479249      52.649577 zlo zhi

Masses

       1     1.008000 # boss_type=HA count=294
       2     1.008000 # boss_type=HC count=140
       3    12.011000 # boss_type=CT count=62
       4    12.011000 # boss_type=CA count=476
       5    12.011000 # boss_type=CB count=56
       6    14.007000 # boss_type=NC count=56
       7    15.999000 # boss_type=OS count=2
       8    32.067000 # boss_type=SA count=14

Pair Coeffs

       1     0.030000     2.420000 # boss_type=HA count=294
       2     0.030000     2.500000 # boss_type=HC count=140
       3     0.066000     3.500000 # boss_type=CT count=62
       4     0.070000     3.550000 # boss_type=CA count=476
       5     0.080000     3.500000 # boss_type=CB count=56
       6     0.170000     3.250000 # boss_type=NC count=56
       7     0.140000     2.900000 # boss_type=OS count=2
       8     0.355000     3.600000 # boss_type=SA count=14

Bond Coeffs

       1   320.000000     1.410000 # pattern=CT-OS
       2   268.000000     1.529000 # pattern=CT-CT
       3   340.000000     1.090000 # pattern=CT-HC
       4   469.000000     1.400000 # pattern=CA-CA
       5   385.000000     1.460000 # pattern=C!-C!
       6   483.000000     1.339000 # pattern=C!-NC
       7   461.000000     1.354000 # pattern=CB-NC
       8   469.000000     1.404000 # pattern=CA-CB
       9   520.000000     1.370000 # pattern=CB-CB
      10   367.000000     1.080000 # pattern=CA-HA
      11   317.000000     1.510000 # pattern=CA-CT
      12   546.000000     1.380000 # pattern=CP-CS
      13   469.000000     1.424000 # pattern=CS-CS
      14   317.000000     1.495000 # pattern=CS-CT
      15   250.000000     1.760000 # pattern=CS-SA
      16   250.000000     1.740000 # pattern=CP-SA

Angle Coeffs

       1    35.000000   109.500000 # pattern=HC-CT-OS
       2    33.000000   107.800000 # pattern=HC-CT-HC
       3    60.000000   109.500000 # pattern=CT-OS-CT
       4    50.000000   109.500000 # pattern=CT-CT-OS
       5    37.500000   110.700000 # pattern=CT-CT-HC
       6    63.000000   114.000000 # pattern=CA-CT-CT
       7    63.000000   120.000000 # pattern=CA-CA-CA
       8    70.000000   120.000000 # pattern=CA-CA-CT
       9    35.000000   120.000000 # pattern=CA-CA-HA
      10    70.000000   117.000000 # pattern=C!-NC-CB
      11    70.000000   118.400000 # pattern=CA-CB-NC
      12    70.000000   127.700000 # pattern=CB-CB-NC
      13    85.000000   117.300000 # pattern=CA-CB-CB
      14    63.000000   116.800000 # pattern=CP-C!-NC
      15    63.000000   120.500000 # pattern=C!-C!-CP
      16    70.000000   111.000000 # pattern=CS-CP-SA
      17    63.000000   127.700000 # pattern=C!-CP-CS
      18    63.000000   121.700000 # pattern=C!-CP-SA
      19    70.000000   112.300000 # pattern=CP-CS-CS
      20    35.000000   123.100000 # pattern=CP-CS-HA
      21    35.000000   127.500000 # pattern=CS-CS-HA
      22    63.000000   115.600000 # pattern=CS-CT-CT
      23    58.350000   112.700000 # pattern=CT-CT-CT
      24    85.000000   119.400000 # pattern=CS-CS-SA
      25   126.000000   107.980000 # pattern=CP-SA-CS
      26    70.000000   125.000000 # pattern=CP-CS-CT
      27    70.000000    92.200000 # pattern=CP-SA-CP
      28    70.000000   112.200000 # pattern=CA-NC-CB
      29    70.000000   124.000000 # pattern=C!-CA-NC
      30    70.000000   116.000000 # pattern=CT-CA-NC

Dihedral Coeffs

       1     0.000000     0.000000     0.760000     0.000000 # pattern=CT-OS-CT-HC
       2     0.250000    -0.250000     0.500000     0.000000 # pattern=CT-CT-OS-CT
       3     0.000000     0.000000     0.300000     0.000000 # pattern=HC-CT-CT-OS
       4     1.300000    -0.500000     0.000000     0.000000 # pattern=CA-CT-CT-OS
       5     0.000000     0.000000     0.462000     0.000000 # pattern=CA-CT-CT-HC
       6     0.000000     7.250000     0.000000     0.000000 # pattern=CA-CA-CA-CA
       7     0.000000     2.010000     0.000000     0.000000 # pattern=CA-C!-C!-NC
       8     0.000000     1.650000     0.000000    -0.050000 # pattern=C!-C!-C!-CA
       9     0.000000     7.000000     0.000000     0.000000 # pattern=C!-CA-CB-NC
      10     0.000000     1.110000     0.000000    -0.130000 # pattern=NC-C!-C!-NC
      11     0.000000     0.150000     0.000000     0.000000 # pattern=CA-CA-CT-CT
      12     0.000000     0.000000     0.000000     0.000000 # pattern=CA-CA-CT-HC
      13     0.000000    10.750000     0.000000     0.000000 # pattern=HA-CS-CP-SA
      14     0.850000    -0.200000     0.200000     0.000000 # pattern=CS-CT-CT-CT
      15     0.000000     2.170000     0.000000     0.000000 # pattern=CT-CS-CS-SA
      16     0.000000     1.950000     0.000000     0.000000 # pattern=CS-CP-C!-NC
      17     0.000000     2.650000     0.000000     0.000000 # pattern=NC-C!-CP-SA
      18     0.000000     1.490000     0.000000     0.000000 # pattern=C!-C!-CP-CS
      19     0.000000     1.330000     0.000000     0.000000 # pattern=C!-C!-CP-SA
      20     0.000000     0.000000     0.418000     0.183000 # pattern=CT-CT-CA-NC
      21     0.000000     0.000000     0.100000     0.000000 # pattern=HC-CT-CA-NC
      22    -0.250000     0.000000     0.000000     0.000000 # pattern=C!-CA-CT-CT

Improper Coeffs

       1     2.500000  -1   2 # pattern=CA-CA-CA-CT

Atoms

       1      1      3 -0.06230000    -0.324051     0.791476     3.134549
       2      1      7 -0.38155600    -0.150704     0.867894     1.725932
       3      1      3  0.00616700    -1.132689     1.683158     1.082801
       4      1      3 -0.17700200    -0.790845     3.170395     1.192576
       5      1      2  0.07511700    -1.313496     0.393989     3.379796
       6      1      2  0.07511700    -0.183142     1.769762     3.601100
       7      1      2  0.07511700     0.431038     0.109340     3.534317
       8      1      2  0.09596200    -2.131618     1.463504     1.479833
       9      1      2  0.09596200    -1.140222     1.386407     0.027308
      10      1      2  0.09870800    -0.783842     3.488667     2.242121
      11      1      2  0.09870800     0.234742     3.342656     0.840960
      12      1      4 -0.06494100    -1.754840     4.028494     0.413957
      13      1      4 -0.13761900    -2.920358     4.514565     1.015290
      14      1      4 -0.10058900    -3.825923     5.290296     0.284056
      15      1      4 -0.04513100    -3.600761     5.587199    -1.070314
      16      1      4  0.07660000    -4.549990     6.390858    -1.861879
      17      1      6 -0.23146400    -3.974625     7.449021    -2.501848
      18      1      5  0.01599200    -4.775750     8.258563    -3.215285
      19      1      4 -0.08747100    -4.227418     9.348976    -3.882541
      20      1      4 -0.02676700    -5.003664    10.226369    -4.659483
      21      1      4 -0.02713900    -4.389276    11.354822    -5.383827
      22      1      4 -0.10915400    -4.966436    12.629972    -5.385659
      23      1      4 -0.10277300    -4.379230    13.680266    -6.099591
      24      1      5  0.01174400    -3.208130    13.497733    -6.818973
      25      1      6 -0.20411600    -2.683305    14.523958    -7.511671
      26      1      4  0.09759500    -1.536331    14.277990    -8.198066
      27      1      4  0.07929600    -0.899530    13.030466    -8.156908
      28      1      4 -0.04520000     0.376545    12.722909    -8.823826
      29      1      4 -0.10001900     1.528073    13.500427    -8.601785
      30      1      4 -0.14323800     2.719675    13.232325    -9.278640
      31      1      4 -0.11964200     2.786002    12.170382   -10.175043
      32      1      4 -0.14572000     1.670284    11.363391   -10.380650
      33      1      4 -0.09031100     0.476661    11.636132    -9.708562
      34      1      6 -0.22807500    -1.446476    11.992595    -7.466228
      35      1      5  0.01549200    -2.598709    12.223888    -6.812230
      36      1      4 -0.08773900    -3.198843    11.185457    -6.110412
      37      1      4 -0.10820100    -6.378392     9.973661    -4.732715
      38      1      4 -0.10374700    -6.941865     8.886218    -4.057790
      39      1      5  0.02111200    -6.162148     8.023039    -3.303390
      40      1      6 -0.23297500    -6.736658     6.978732    -2.682677
      41      1      4  0.07981400    -5.927790     6.143290    -1.970112
      42      1      4 -0.04467600    -6.634771     4.991177    -1.380647
      43      1      4 -0.09311400    -7.787084     5.189698    -0.598503
      44      1      4 -0.14561600    -8.469863     4.112050    -0.028116
      45      1      4 -0.12021600    -8.017133     2.812140    -0.237536
      46      1      4 -0.14300300    -6.888961     2.589027    -1.022830
      47      1      4 -0.10223600    -6.208083     3.668169    -1.593975
      48      1      4 -0.09209800    -2.418113     5.105432    -1.656991
      49      1      4 -0.14331000    -1.509724     4.331258    -0.929139
      50      1      1  0.14830500    -3.133810     4.297824     2.059895
      51      1      1  0.14818900    -4.714626     5.664358     0.789251
      52      1      1  0.16628800    -3.155695     9.512666    -3.780471
      53      1      1  0.15625200    -5.879143    12.827395    -4.826145
      54      1      1  0.16715800    -4.847513    14.662069    -6.094543
      55      1      1  0.14764200     1.506437    14.329635    -7.896381
      56      1      1  0.14475100     3.595866    13.851004    -9.103188
      57      1      1  0.14081700     3.712847    11.960866   -10.701657
      58      1      1  0.14455500     1.730786    10.513169   -11.055834
      59      1      1  0.15019300    -0.383885    10.990486    -9.876472
      60      1      1  0.16641600    -2.721369    10.207836    -6.151626
      61      1      1  0.15593000    -7.029247    10.607325    -5.332304
      62      1      1  0.16659900    -8.011118     8.701663    -4.132821
      63      1      1  0.15113000    -8.160669     6.199467    -0.433714
      64      1      1  0.14505000    -9.357655     4.290059     0.573476
      65      1      1  0.14160700    -8.549142     1.972713     0.202814
      66      1      1  0.14493300    -6.539387     1.574567    -1.197366
      67      1      1  0.14609900    -5.338752     3.463006    -2.216175
      68      1      1  0.15248400    -2.199164     5.335650    -2.698633
      69      1      1  0.14425700    -0.608498     3.970052    -1.420262
      70      1      4 -0.14524800    -1.095621    15.375635    -9.061930
      71      1      4 -0.11110700    -0.843256    15.340818   -10.419340
      72      1      4 -0.06806100    -0.348503    16.581188   -10.937887
      73      1      3 -0.10805900     0.026111    16.770721   -12.385197
      74      1      3 -0.16749600     1.419922    16.213321   -12.692824
      75      1      3 -0.17929600     1.895352    16.524040   -14.113154
      76      1      3 -0.23984200     1.059686    15.852637   -15.191822
      77      1      4 -0.09900900    -0.281590    17.540049    -9.936802
      78      1      8  0.12800800    -0.797510    16.932577    -8.420920
      79      1      1  0.18344700    -0.981020    14.450806   -11.023809
      80      1      2  0.09996400    -0.021971    17.831911   -12.656001
      81      1      2  0.09996400    -0.724277    16.263767   -13.004281
      82      1      2  0.09033900     2.147856    16.635130   -11.988785
      83      1      2  0.09033900     1.432163    15.127881   -12.530551
      84      1      2  0.09424800     1.899906    17.608183   -14.276291
      85      1      2  0.09424800     2.933173    16.184187   -14.214165
      86      1      2  0.07918700     0.038412    16.244542   -15.210129
      87      1      2  0.07918700     1.501790    16.034440   -16.176756
      88      1      2  0.07918700     1.013169    14.770050   -15.036073
      89      1      4 -0.10531400     0.173012    18.896205   -10.081025
      90      1      4 -0.13266200     1.454993    19.306070   -10.371612
      91      1      4 -0.06489300     1.554257    20.717351   -10.625629
      92      1      3 -0.10524600     2.843477    21.370014   -11.052310
      93      1      3 -0.16501800     3.798995    21.595209    -9.877747
      94      1      3 -0.17641200     5.076753    22.301885   -10.328732
      95      1      3 -0.23718400     6.022848    22.537529    -9.162349
      96      1      4 -0.14189700     0.315261    21.335845   -10.486676
      97      1      8  0.11434500    -0.896659    20.217438    -9.993909
      98      1      1  0.18319400     2.288790    18.618534   -10.454531
      99      1      2  0.10180200     3.330439    20.727383   -11.797708
     100      1      2  0.10180200     2.642608    22.318628   -11.562738
     101      1      2  0.09303700     4.054845    20.632702    -9.416936
     102      1      2  0.09303700     3.306933    22.191126    -9.100602
     103      1      2  0.09709100     5.586127    21.700253   -11.090426
     104      1      2  0.09709100     4.827240    23.265261   -10.788548
     105      1      2  0.08240900     5.553515    23.164748    -8.397626
     106      1      2  0.08240900     6.930379    23.043276    -9.506524
     107      1      2  0.08240900     6.316552    21.591020    -8.697634
     108      1      4  0.00325700    -0.068856    22.736365   -10.720921
     109      1      4 -0.12200700    -1.126332    23.048776   -11.585546
     110      1      4 -0.10837500    -1.444622    24.378221   -11.877445
     111      1      4 -0.04101900    -0.709824    25.436023   -11.320280
     112      1      4  0.07370300    -0.985266    26.827986   -11.703154
     113      1      6 -0.23122600     0.052315    27.430983   -12.349719
     114      1      5  0.01386200    -0.166334    28.654629   -12.860019
     115      1      4 -0.08864200     0.859019    29.301085   -13.543789
     116      1      4 -0.02888200     0.694290    30.571708   -14.117291
     117      1      4 -0.02758900     1.799659    31.249050   -14.820566
     118      1      4 -0.10969100     2.612324    30.586636   -15.747958
     119      1      4 -0.10480800     3.659851    31.258978   -16.392525
     120      1      5  0.01853700     3.924720    32.598543   -16.141362
     121      1      6 -0.23297500     4.951501    33.219297   -16.755414
     122      1      4  0.07356000     5.155793    34.537378   -16.467535
     123      1      4  0.07889100     4.312937    35.217903   -15.570890
     124      1      4 -0.04850400     4.444861    36.626616   -15.161376
     125      1      4 -0.09444600     3.357016    37.506641   -15.310696
     126      1      4 -0.14750200     3.455000    38.847814   -14.933280
     127      1      4 -0.12113800     4.642640    39.332042   -14.391188
     128      1      4 -0.14251300     5.726212    38.474658   -14.216328
     129      1      4 -0.10274300     5.625254    37.131597   -14.590130
     130      1      6 -0.23194400     3.276754    34.582521   -14.959412
     131      1      5  0.01609200     3.100123    33.281997   -15.226888
     132      1      4 -0.08904800     2.076997    32.602499   -14.579933
     133      1      4 -0.10926200    -0.558968    31.180559   -13.975172
     134      1      4 -0.10492700    -1.594496    30.543776   -13.286213
     135      1      5  0.02059500    -1.419788    29.288829   -12.728264
     136      1      6 -0.23499500    -2.439624    28.704266   -12.075178
     137      1      4  0.08012900    -2.216882    27.475572   -11.532428
     138      1      4 -0.04654300    -3.353453    26.930853   -10.769854
     139      1      4 -0.09408300    -3.203073    26.474108    -9.448579
     140      1      4 -0.14711600    -4.289645    25.966242    -8.732250
     141      1      4 -0.12122800    -5.548991    25.910366    -9.322947
     142      1      4 -0.14367800    -5.725111    26.371490   -10.624814
     143      1      4 -0.10292300    -4.637973    26.882392   -11.338404
     144      1      4 -0.09854900     0.339101    25.120133   -10.445344
     145      1      4 -0.12743900     0.647439    23.789178   -10.140669
     146      1      1  0.15152800    -1.697844    22.258870   -12.068345
     147      1      1  0.14787400    -2.254739    24.579531   -12.576064
     148      1      1  0.16493400     1.818204    28.791457   -13.613686
     149      1      1  0.15531900     2.439471    29.538806   -15.987858
     150      1      1  0.16527500     4.282311    30.725446   -17.107671
     151      1      1  0.14966900     2.418029    37.140161   -15.722439
     152      1      1  0.14358700     2.601988    39.509860   -15.057884
     153      1      1  0.14045400     4.721425    40.375349   -14.096731
     154      1      1  0.14610700     6.651745    38.848105   -13.785633
     155      1      1  0.14647900     6.482626    36.480563   -14.430144
     156      1      1  0.16550400     1.475849    33.161964   -13.864656
     157      1      1  0.15544400    -0.752084    32.165523   -14.396128
     158      1      1  0.16575000    -2.553740    31.044407   -13.177961
     159      1      1  0.14986200    -2.234867    26.526816    -8.954718
     160      1      1  0.14369100    -4.151760    25.626714    -7.708994
     161      1      1  0.14022000    -6.395283    25.519180    -8.764589
     162      1      1  0.14427700    -6.709588    26.343542   -11.084303
     163      1      1  0.14535800    -4.795011    27.253997   -12.349748
     164      1      1  0.15263400     0.939235    25.917482   -10.012049
     165      1      1  0.15120300     1.469236    23.586597    -9.460354
     166      1      4 -0.03029800     6.351567    35.126072   -17.102556
     167      1      4 -0.11209200     6.321966    36.362984   -17.760595
     168      1      4 -0.11217700     7.505521    36.985488   -18.179325
     169      1      4 -0.03030500     8.760034    36.380991   -17.993042
     170      1      4  0.06885200     9.998156    37.131090   -18.280399
     171      1      6 -0.22837300    10.001918    38.380216   -17.730970
     172      1      5  0.01185400    11.127067    39.106770   -17.824044
     173      1      4 -0.08720100    11.175444    40.363871   -17.233873
     174      1      4 -0.03035400    12.330895    41.160718   -17.263679
     175      1      4 -0.03063400    12.359686    42.465313   -16.587356
     176      1      4 -0.11237600    13.317469    42.749794   -15.608459
     177      1      4 -0.10525400    13.301971    43.974086   -14.934820
     178      1      5  0.00973000    12.345662    44.938197   -15.214847
     179      1      6 -0.20723500    12.352295    46.093698   -14.529841
     180      1      4  0.09584700    11.381137    46.995416   -14.833462
     181      1      4  0.07688600    10.423520    46.748981   -15.825564
     182      1      4 -0.04783600     9.343093    47.675529   -16.207351
     183      1      4 -0.10226500     9.182818    48.061864   -17.549824
     184      1      4 -0.14553000     8.177913    48.955053   -17.930516
     185      1      4 -0.12173000     7.307652    49.472443   -16.974825
     186      1      4 -0.14788800     7.434307    49.089263   -15.642361
     187      1      4 -0.09215000     8.437992    48.193147   -15.263815
     188      1      6 -0.22797700    10.437117    45.581779   -16.529130
     189      1      5  0.01291200    11.382373    44.677180   -16.214509
     190      1      4 -0.08745800    11.406550    43.454979   -16.877121
     191      1      4 -0.11075100    13.450548    40.657273   -17.932894
     192      1      4 -0.10683300    13.407583    39.396955   -18.537937
     193      1      5  0.02019400    12.265606    38.609633   -18.487097
     194      1      6 -0.23643100    12.263593    37.392568   -19.058153
     195      1      4  0.08055600    11.123411    36.647917   -18.961270
     196      1      4 -0.04918800    11.209715    35.347906   -19.641636
     197      1      4 -0.09530600    10.332017    35.006120   -20.682531
     198      1      4 -0.14846000    10.447962    33.785296   -21.350065
     199      1      4 -0.12217600    11.435520    32.877814   -20.975779
     200      1      4 -0.14373700    12.319760    33.197087   -19.948959
     201      1      4 -0.10345400    12.213081    34.426349   -19.294612
     202      1      4 -0.10619400     8.779448    35.102176   -17.417846
     203      1      4 -0.10630200     7.596683    34.485488   -16.986905
     204      1      1  0.14992500     5.380022    36.888141   -17.909009
     205      1      1  0.14974500     7.445340    37.981586   -18.616474
     206      1      1  0.16669500    10.286524    40.714505   -16.711322
     207      1      1  0.15148600    14.071266    42.011717   -15.339760
     208      1      1  0.16444600    14.043975    44.174784   -14.165229
     209      1      1  0.14543500     9.850249    47.660728   -18.311109
     210      1      1  0.14256200     8.074000    49.241158   -18.973946
     211      1      1  0.13865100     6.524517    50.165911   -17.270075
     212      1      1  0.14254600     6.749342    49.482506   -14.895562
     213      1      1  0.14859000     8.503123    47.898796   -14.218025
     214      1      1  0.16611500    10.649763    43.273994   -17.638991
     215      1      1  0.15206800    14.367651    41.240437   -17.993789
     216      1      1  0.16430500    14.286518    39.017096   -19.053700
     217      1      1  0.14845200     9.559638    35.701683   -20.998929
     218      1      1  0.14253300     9.773756    33.553251   -22.171208
     219      1      1  0.13931200    11.525171    31.927310   -21.493987
     220      1      1  0.14440700    13.100962    32.496945   -19.665042
     221      1      1  0.14554000    12.925528    34.672857   -18.509062
     222      1      1  0.15424100     9.721271    34.587528   -17.238599
     223      1      1  0.15408000     7.658769    33.511063   -16.503389
     224      1      4 -0.14472900    11.459174    48.239430   -14.066151
     225      1      4 -0.10780600    11.569518    49.538680   -14.518320
     226      1      4 -0.07160800    11.510113    50.516236   -13.465533
     227      1      3 -0.10580100    11.549527    52.000042   -13.724931
     228      1      3 -0.16578700    10.272105    52.537660   -14.382538
     229      1      3 -0.17690700     9.022788    52.500505   -13.497135
     230      1      3 -0.23809700     9.091390    53.462828   -12.321124
     231      1      4 -0.12914700    11.398809    49.898174   -12.227501
     232      1      8  0.12689300    11.368792    48.189282   -12.360314
     233      1      1  0.18615100    11.650530    49.792171   -15.569806
     234      1      2  0.10162200    11.769218    52.558481   -12.810025
     235      1      2  0.10162200    12.392679    52.198357   -14.400043
     236      1      2  0.09331000    10.063610    51.968283   -15.297038
     237      1      2  0.09331000    10.451350    53.572965   -14.699121
     238      1      2  0.09528600     8.157057    52.773510   -14.112866
     239      1      2  0.09528600     8.836168    51.484227   -13.133709
     240      1      2  0.08213400     8.152097    53.437887   -11.759385
     241      1      2  0.08213400     9.251792    54.489879   -12.664719
     242      1      2  0.08213400     9.897899    53.203313   -11.631393
     243      1      4  0.00243400    11.309756    50.491487   -10.891831
     244      1      4 -0.12282000    12.403056    51.170124   -10.344687
     245      1      4 -0.10921500    12.310508    51.762739    -9.080067
     246      1      4 -0.04163300    11.120424    51.702201    -8.334974
     247      1      4  0.07271300    10.996668    52.338370    -7.011047
     248      1      6 -0.23152600    10.563750    51.494529    -6.031457
     249      1      5  0.01317400    10.464979    51.985046    -4.783712
     250      1      4 -0.08912300    10.030069    51.156673    -3.754053
     251      1      4 -0.02897200     9.904015    51.608664    -2.430211
     252      1      4 -0.02898400     9.433982    50.713964    -1.360344
     253      1      4 -0.11110700    10.024201    49.463993    -1.144832
     254      1      4 -0.10478200     9.567420    48.628338    -0.121080
     255      1      5  0.00990100     8.521287    49.007194     0.706970
     256      1      6 -0.20616700     8.107322    48.175090     1.677764
     257      1      4  0.09573700     7.080065    48.601533     2.461072
     258      1      4  0.07726600     6.475951    49.850924     2.273619
     259      1      4 -0.04700200     5.376830    50.393526     3.090974
     260      1      4 -0.10193400     4.202098    50.863976     2.477525
     261      1      4 -0.14517200     3.145632    51.376295     3.234771
     262      1      4 -0.12166900     3.248434    51.435760     4.621966
     263      1      4 -0.14768800     4.409053    50.992477     5.250676
     264      1      4 -0.09228700     5.465796    50.481808     4.491439
     265      1      6 -0.22982900     6.891997    50.681088     1.275799
     266      1      5  0.01350400     7.911040    50.263869     0.503137
     267      1      4 -0.08967500     8.374262    51.087003    -0.517273
     268      1      4 -0.11000800    10.237975    52.941562    -2.166057
     269      1      4 -0.10591900    10.678126    53.781712    -3.192787
     270      1      5  0.01992400    10.795177    53.325678    -4.497076
     271      1      6 -0.23608000    11.212153    54.166717    -5.458981
     272      1      4  0.07927500    11.297584    53.680387    -6.729552
     273      1      4 -0.04707400    11.696349    54.687809    -7.729411
     274      1      4 -0.09494000    12.854570    55.461412    -7.535862
     275      1      4 -0.14793400    13.252534    56.416253    -8.475491
     276      1      4 -0.12207700    12.492492    56.622016    -9.623797
     277      1      4 -0.14440500    11.331416    55.881370    -9.828364
     278      1      4 -0.10362700    10.933992    54.927692    -8.886686
     279      1      4 -0.09919500    10.037804    50.995078    -8.885351
     280      1      4 -0.12814900    10.127595    50.401688   -10.148697
     281      1      1  0.15069100    13.337166    51.239419   -10.897677
     282      1      1  0.14709100    13.185321    52.273409    -8.681312
     283      1      1  0.16445300     9.771275    50.129059    -4.005030
     284      1      1  0.15426200    10.855260    49.129117    -1.763477
     285      1      1  0.16519800    10.039838    47.660961     0.034749
     286      1      1  0.14576900     4.109089    50.833656     1.392798
     287      1      1  0.14280100     2.246533    51.732934     2.739018
     288      1      1  0.13887000     2.428291    51.836505     5.212181
     289      1      1  0.14254900     4.497191    51.048574     6.332811
     290      1      1  0.14821200     6.367667    50.158635     5.008323
     291      1      1  0.16450000     7.878987    52.046386    -0.658657
     292      1      1  0.15391300    10.168537    53.340739    -1.155328
     293      1      1  0.16463000    10.933058    54.815234    -2.969982
     294      1      1  0.14906300    13.454860    55.319943    -6.638163
     295      1      1  0.14283900    14.152544    57.001332    -8.305365
     296      1      1  0.13939900    12.799721    57.366194   -10.353918
     297      1      1  0.14350900    10.729289    56.048275   -10.717808
     298      1      1  0.14472800    10.013481    54.374702    -9.064225
     299      1      1  0.15207800     9.108142    50.906440    -8.324877
     300      1      1  0.15051000     9.264930    49.873724   -10.549068
     301      1      4 -0.14472900     6.635432    47.616619     3.449947
     302      1      4 -0.10780600     5.378802    47.073143     3.634966
     303      1      4 -0.07160800     5.310019    46.165470     4.745339
     304      1      3 -0.10580100     4.051486    45.451990     5.159197
     305      1      3 -0.16578700     3.929348    44.071903     4.509391
     306      1      3 -0.17690700     2.649020    43.362785     4.949688
     307      1      3 -0.23809700     2.522691    41.991325     4.306074
     308      1      4 -0.12914700     6.546257    46.049136     5.361839
     309      1      8  0.12689300     7.745086    47.002494     4.598574
     310      1      1  0.18615100     4.529988    47.320306     3.006839
     311      1      2  0.10162200     3.184635    46.065571     4.882099
     312      1      2  0.10162200     4.018995    45.355784     6.250930
     313      1      2  0.09331000     4.797809    43.455716     4.772739
     314      1      2  0.09331000     3.936758    44.175067     3.416930
     315      1      2  0.09528600     1.776136    43.968392     4.680170
     316      1      2  0.09528600     2.642234    43.249870     6.040036
     317      1      2  0.08213400     2.492968    42.071496     3.214844
     318      1      2  0.08213400     1.601432    41.500933     4.636208
     319      1      2  0.08213400     3.366079    41.349838     4.580768
     320      1      4  0.00243400     6.922083    45.259312     6.532886
     321      1      4 -0.12282000     6.636025    45.731306     7.817377
     322      1      4 -0.10921500     6.979827    44.974689     8.942090
     323      1      4 -0.04163300     7.625860    43.733058     8.812272
     324      1      4  0.07271300     8.002025    42.930986     9.990429
     325      1      6 -0.23152600     7.512550    41.658071     9.970207
     326      1      5  0.01317400     7.742382    40.884231    11.045928
     327      1      4 -0.08912300     7.245311    39.585003    11.077947
     328      1      4 -0.02897200     7.434991    38.739529    12.182775
     329      1      4 -0.02898400     6.889325    37.375771    12.200423
     330      1      4 -0.11110700     7.246674    36.438002    11.226849
     331      1      4 -0.10478200     6.728456    35.140303    11.269504
     332      1      5  0.00990100     5.845901    34.747472    12.265464
     333      1      6 -0.20616700     5.375743    33.488443    12.278506
     334      1      4  0.09573700     4.499902    33.160115    13.267130
     335      1      4  0.07726600     4.097116    34.094403    14.230711
     336      1      4 -0.04700200     3.119006    33.842618    15.303502
     337      1      4 -0.10193400     3.447591    34.115581    16.643335
     338      1      4 -0.14517200     2.537023    33.873117    17.674898
     339      1      4 -0.12166900     1.275590    33.360883    17.383845
     340      1      4 -0.14768800     0.920732    33.100641    16.062635
     341      1      4 -0.09228700     1.831698    33.346008    15.031486
     342      1      6 -0.22982900     4.601842    35.360969    14.227550
     343      1      5  0.01350400     5.465248    35.685373    13.248818
     344      1      4 -0.08967500     5.992563    36.970902    13.201988
     345      1      4 -0.11000800     8.155739    39.240042    13.271789
     346      1      4 -0.10591900     8.666714    40.539910    13.246098
     347      1      5  0.01992400     8.470849    41.369338    12.152271
     348      1      6 -0.23608000     8.976535    42.613868    12.168818
     349      1      4  0.07927500     8.757457    43.400417    11.077115
     350      1      4 -0.04707400     9.388876    44.730985    11.163413
     351      1      4 -0.09494000     9.205859    45.531310    12.305915
     352      1      4 -0.14793400     9.789915    46.796813    12.405674
     353      1      4 -0.12207700    10.577183    47.283705    11.366178
     354      1      4 -0.14440500    10.787790    46.503250    10.232526
     355      1      4 -0.10362700    10.204846    45.236352    10.135527
     356      1      4 -0.09919500     7.886554    43.261329     7.513897
     357      1      4 -0.12814900     7.544585    44.016357     6.386553
     358      1      1  0.15069100     6.142855    46.691475     7.950820
     359      1      1  0.14709100     6.733847    45.367780     9.926937
     360      1      1  0.16445300     6.677435    39.234717    10.217446
     361      1      1  0.15426200     7.942610    36.702428    10.432610
     362      1      1  0.16519800     7.020976    34.419018    10.509895
     363      1      1  0.14576900     4.426494    34.525564    16.887141
     364      1      1  0.14280100     2.812607    34.090855    18.703561
     365      1      1  0.13887000     0.565253    33.174877    18.185101
     366      1      1  0.14254900    -0.067579    32.711994    15.831155
     367      1      1  0.14821200     1.523058    33.147841    14.006371
     368      1      1  0.16450000     5.679308    37.678450    13.967987
     369      1      1  0.15391300     8.335746    38.620024    14.148544
     370      1      1  0.16463000     9.230149    40.913543    14.098096
     371      1      1  0.14906300     8.600681    45.162169    13.132523
     372      1      1  0.14283900     9.633126    47.397181    13.297827
     373      1      1  0.13939900    11.033864    48.266982    11.442686
     374      1      1  0.14350900    11.410105    46.876064     9.422856
     375      1      1  0.14472800    10.401292    44.643249     9.244146
     376      1      1  0.15207800     8.362804    42.291668     7.375696
     377      1      1  0.15051000     7.761706    43.625200     5.394983
     378      1      4 -0.14472900     4.086534    31.750406    13.259895
     379      1      4 -0.10780600     4.034701    30.848402    14.305858
     380      1      4 -0.07160800     3.518064    29.561899    13.930735
     381      1      3 -0.10580100     3.316339    28.440451    14.915442
     382      1      3 -0.16578700     1.855623    28.311721    15.355260
     383      1      3 -0.17690700     1.673346    27.159370    16.342518
     384      1      3 -0.23809700     0.225273    27.031041    16.786344
     385      1      4 -0.12914700     3.227107    29.522580    12.573588
     386      1      8  0.12689300     3.559728    31.018648    11.805184
     387      1      1  0.18615100     4.332290    31.099846    15.317824
     388      1      2  0.10162200     3.664702    27.495276    14.485181
     389      1      2  0.10162200     3.945485    28.619083    15.797035
     390      1      2  0.09331000     1.212522    28.146927    14.482169
     391      1      2  0.09331000     1.524808    29.250911    15.816957
     392      1      2  0.09528600     1.991788    26.218688    15.878991
     393      1      2  0.09528600     2.306859    27.318292    17.222499
     394      1      2  0.08213400    -0.432670    26.847264    15.931366
     395      1      2  0.08213400     0.115708    26.195783    17.485081
     396      1      2  0.08213400    -0.112381    27.942244    17.290010
     397      1      4  0.00243400     2.704807    28.413796    11.767417
     398      1      4 -0.12282000     1.475436    28.519064    11.106258
     399      1      4 -0.10921500     0.972125    27.443985    10.365329
     400      1      4 -0.04163300     1.673603    26.230498    10.282447
     401      1      4  0.07271300     1.125262    25.099934     9.518296
     402      1      6 -0.23152600     0.937729    25.368497     8.197010
     403      1      5  0.01317400     0.514545    24.361911     7.413965
     404      1      4 -0.08912300     0.344962    24.585278     6.052975
     405      1      4 -0.02897200    -0.066813    23.573724     5.168626
     406      1      4 -0.02898400    -0.192487    23.837675     3.724885
     407      1      4 -0.11110700     0.831216    24.486469     3.023835
     408      1      4 -0.10478200     0.703726    24.752461     1.659692
     409      1      5  0.00990100    -0.433335    24.384062     0.961022
     410      1      6 -0.20616700    -0.516381    24.671784    -0.345919
     411      1      4  0.09573700    -1.657392    24.311245    -0.991966
     412      1      4  0.07726600    -2.698485    23.650252    -0.332034
     413      1      4 -0.04700200    -3.967484    23.238970    -0.954711
     414      1      4 -0.10193400    -4.405033    21.906354    -0.858979
     415      1      4 -0.14517200    -5.600732    21.493795    -1.452063
     416      1      4 -0.12166900    -6.386615    22.410592    -2.144825
     417      1      4 -0.14768800    -5.982626    23.739550    -2.237495
     418      1      4 -0.09228700    -4.786854    24.151050    -1.642690
     419      1      6 -0.22982900    -2.596119    23.340462     0.993960
     420      1      5  0.01350400    -1.475371    23.717525     1.639871
     421      1      4 -0.08967500    -1.335918    23.457842     3.001235
     422      1      4 -0.11000800    -0.329838    22.311275     5.710318
     423      1      4 -0.10591900    -0.168707    22.077191     7.080267
     424      1      5  0.01992400     0.256293    23.079772     7.940477
     425      1      6 -0.23608000     0.419221    22.814530     9.249329
     426      1      4  0.07927500     0.846962    23.831540    10.050786
     427      1      4 -0.04707400     0.974281    23.468236    11.474632
     428      1      4 -0.09494000     0.369411    24.226549    12.493386
     429      1      4 -0.14793400     0.509899    23.872632    13.838364
     430      1      4 -0.12207700     1.249287    22.746490    14.189801
     431      1      4 -0.14440500     1.841386    21.969373    13.197923
     432      1      4 -0.10362700     1.700491    22.325227    11.853812
     433      1      4 -0.09919500     2.915217    26.140343    10.931635
     434      1      4 -0.12814900     3.424669    27.218365    11.662814
     435      1      1  0.15069100     0.896534    29.438104    11.163427
     436      1      1  0.14709100     0.019391    27.554929     9.850133
     437      1      1  0.16445300     0.546614    25.587531     5.677668
     438      1      1  0.15426200     1.746329    24.789230     3.530200
     439      1      1  0.16519800     1.507483    25.260970     1.132139
     440      1      1  0.14576900    -3.806363    21.178402    -0.313423
     441      1      1  0.14280100    -5.918164    20.457989    -1.367594
     442      1      1  0.13887000    -7.317919    22.091432    -2.604963
     443      1      1  0.14254900    -6.599278    24.460225    -2.768279
     444      1      1  0.14821200    -4.503714    25.199375    -1.717703
     445      1      1  0.16450000    -2.161010    22.960825     3.508434
     446      1      1  0.15391300    -0.643707    21.487411     5.071500
     447      1      1  0.16463000    -0.369615    21.087246     7.483343
     448      1      1  0.14906300    -0.228719    25.102006    12.247976
     449      1      1  0.14283900     0.035402    24.474363    14.609115
     450      1      1  0.13939900     1.355401    22.468978    15.235249
     451      1      1  0.14350900     2.408877    21.082085    13.466537
     452      1      1  0.14472800     2.162214    21.700879    11.090212
     453      1      1  0.15207800     3.503625    25.226806    10.868232
     454      1      1  0.15051000     4.393609    27.117770    12.146943
     455      1      4 -0.14524800    -1.642920    24.641685    -2.419243
     456      1      4 -0.11110700    -1.850922    23.834070    -3.519670
     457      1      4 -0.06806100    -1.680163    24.520132    -4.776143
     458      1      3 -0.10805900    -1.802174    23.840151    -6.116126
     459      1      3 -0.16749600    -0.849203    22.653736    -6.301991
     460      1      3 -0.17929600     0.627524    23.052324    -6.261631
     461      1      3 -0.23984200     1.531809    21.849550    -6.480375
     462      1      4 -0.09900900    -1.401151    25.861896    -4.562703
     463      1      8  0.12800800    -1.322540    26.251002    -2.897512
     464      1      1  0.18344700    -2.079371    22.777102    -3.438756
     465      1      2  0.09996400    -1.646089    24.553518    -6.932832
     466      1      2  0.09996400    -2.833744    23.480401    -6.219540
     467      1      2  0.09033900    -1.068562    22.188079    -7.270151
     468      1      2  0.09033900    -1.043554    21.889944    -5.538842
     469      1      2  0.09424800     0.831243    23.803240    -7.032110
     470      1      2  0.09424800     0.876617    23.504392    -5.295401
     471      1      2  0.07918700     2.581914    22.156326    -6.460073
     472      1      2  0.07918700     1.334201    21.379007    -7.447124
     473      1      2  0.07918700     1.382040    21.099364    -5.697583
     474      1      4 -0.10576100    -1.134057    26.890596    -5.530576
     475      1      4 -0.13634600    -0.010619    27.009749    -6.317181
     476      1      4 -0.06179700     0.010951    28.218842    -7.099545
     477      1      3 -0.10835200     1.195794    28.583467    -7.958790
     478      1      3 -0.16643200     2.334552    29.260609    -7.187985
     479      1      3 -0.17866800     1.999030    30.680735    -6.727866
     480      1      3 -0.23917600     3.201275    31.355103    -6.084902
     481      1      4 -0.11016800    -1.151464    28.958556    -6.895420
     482      1      8  0.11546300    -2.218060    28.176576    -5.796526
     483      1      1  0.18032900     0.801708    26.292262    -6.293527
     484      1      2  0.10078100     0.907094    29.199182    -8.813406
     485      1      2  0.10078100     1.591099    27.656083    -8.394968
     486      1      2  0.09002200     3.212020    29.300772    -7.846032
     487      1      2  0.09002200     2.618783    28.650962    -6.321062
     488      1      2  0.09512200     1.666285    31.282159    -7.581650
     489      1      2  0.09512200     1.181892    30.660358    -5.999085
     490      1      2  0.07968600     2.938355    32.366367    -5.759228
     491      1      2  0.07968600     3.543908    30.794598    -5.208952
     492      1      2  0.07968600     4.033330    31.431291    -6.792695
     493      1      4 -0.10531400    -1.516916    30.248487    -7.431017
     494      1      4 -0.13266200    -1.916417    31.363077    -6.716730
     495      1      4 -0.06489300    -2.124171    32.524080    -7.538335
     496      1      3 -0.10524600    -2.505319    33.873582    -6.996354
     497      1      3 -0.16501800    -1.283349    34.750612    -6.714158
     498      1      3 -0.17641200    -1.695888    36.126807    -6.189662
     499      1      3 -0.23718400    -0.484874    37.004143    -5.914406
     500      1      4 -0.14189700    -1.880352    32.226983    -8.869056
     501      1      8  0.11434500    -1.515961    30.572512    -9.104696
     502      1      1  0.18319400    -2.013573    31.366588    -5.636891
     503      1      2  0.10180200    -3.081355    33.738939    -6.072001
     504      1      2  0.10180200    -3.175320    34.380263    -7.701619
     505      1      2  0.09303700    -0.633025    34.254648    -5.981507
     506      1      2  0.09303700    -0.689955    34.872655    -7.628807
     507      1      2  0.09709100    -2.276952    36.015095    -5.266453
     508      1      2  0.09709100    -2.341262    36.626467    -6.922527
     509      1      2  0.08240900     0.163427    36.551656    -5.157866
     510      1      2  0.08240900    -0.802691    37.985004    -5.547963
     511      1      2  0.08240900     0.103723    37.157542    -6.824862
     512      1      4  0.00325700    -1.862307    33.109143   -10.033030
     513      1      4 -0.12200700    -3.046146    33.514846   -10.657364
     514      1      4 -0.10837500    -3.002483    34.328808   -11.797073
     515      1      4 -0.04101900    -1.774780    34.752536   -12.329458
     516      1      4  0.07370300    -1.678337    35.502637   -13.588846
     517      1      6 -0.23122600    -0.971775    34.827320   -14.532559
     518      1      5  0.01386200    -0.799430    35.416620   -15.719775
     519      1      4 -0.08864200    -0.061740    34.744067   -16.675211
     520      1      4 -0.02888200     0.213918    35.280158   -17.939641
     521      1      4 -0.02758900     1.060329    34.519745   -18.875625
     522      1      4 -0.10969100     0.878506    33.139704   -19.043955
     523      1      4 -0.10480800     1.763758    32.389831   -19.817147
     524      1      5  0.01853700     2.837957    32.987670   -20.449870
     525      1      6 -0.23297500     3.696626    32.220530   -21.135580
     526      1      4  0.07356000     4.759278    32.837295   -21.723479
     527      1      4  0.07889100     4.899003    34.234251   -21.691594
     528      1      4 -0.04850400     5.925847    35.018836   -22.413863
     529      1      4 -0.09444600     6.502742    36.154232   -21.814848
     530      1      4 -0.14750200     7.444504    36.940262   -22.484815
     531      1      4 -0.12113800     7.833956    36.605493   -23.776748
     532      1      4 -0.14251300     7.268260    35.498503   -24.401554
     533      1      4 -0.10274300     6.320060    34.718990   -23.730079
     534      1      6 -0.23194400     4.020555    35.003286   -20.980635
     535      1      5  0.01609200     3.010858    34.382428   -20.345587
     536      1      4 -0.08904800     2.126569    35.120252   -19.562732
     537      1      4 -0.10926200    -0.314833    36.541856   -18.224310
     538      1      4 -0.10492700    -1.084775    37.224031   -17.267597
     539      1      5  0.02059500    -1.334575    36.682662   -16.009343
     540      1      6 -0.23499500    -2.059853    37.349194   -15.086614
     541      1      4  0.08012900    -2.222049    36.764724   -13.858788
     542      1      4 -0.04654300    -2.981255    37.578036   -12.892402
     543      1      4 -0.09408300    -4.221624    38.133515   -13.253901
     544      1      4 -0.14711600    -4.962801    38.900902   -12.351427
     545      1      4 -0.12122800    -4.471622    39.135689   -11.070099
     546      1      4 -0.14367800    -3.238472    38.611277   -10.694340
     547      1      4 -0.10292300    -2.498014    37.845105   -11.599234
     548      1      4 -0.09854900    -0.594569    34.358432   -11.673944
     549      1      4 -0.12743900    -0.635884    33.549079   -10.539916
     550      1      1  0.15152800    -4.007312    33.177062   -10.276037
     551      1      1  0.14787400    -3.936830    34.599648   -12.284757
     552      1      1  0.16493400     0.332885    33.768668   -16.405703
     553      1      1  0.15531900     0.056145    32.622469   -18.552369
     554      1      1  0.16527500     1.624611    31.315711   -19.908996
     555      1      1  0.14966900     6.200755    36.440569   -20.809605
     556      1      1  0.14358700     7.867755    37.813536   -21.995177
     557      1      1  0.14045400     8.565770    37.214413   -24.300903
     558      1      1  0.14610700     7.551660    35.247081   -25.419704
     559      1      1  0.14647900     5.875818    33.882830   -24.265561
     560      1      1  0.16550400     2.311612    36.187624   -19.460402
     561      1      1  0.15544400    -0.144315    37.009132   -19.192485
     562      1      1  0.16575000    -1.491992    38.204204   -17.506226
     563      1      1  0.14986200    -4.616886    37.967171   -14.254640
     564      1      1  0.14369100    -5.920175    39.317079   -12.652971
     565      1      1  0.14022000    -5.045745    39.734248   -10.367750
     566      1      1  0.14427700    -2.846505    38.801718    -9.698179
     567      1      1  0.14535800    -1.528788    37.464894   -11.282058
     568      1      1  0.15263400     0.373642    34.662495   -12.069856
     569      1      1  0.15120300     0.295455    33.245778   -10.066566
     570      1      4 -0.03029800     5.724894    31.886940   -22.299474
     571      1      4 -0.11209200     5.309940    30.914682   -23.223377
     572      1      4 -0.11217700     6.209650    29.973492   -23.737884
     573      1      4 -0.03030500     7.557079    29.969499   -23.346640
     574      1      4  0.06885200     8.491646    28.964948   -23.883550
     575      1      6 -0.22837300     8.084209    27.677115   -23.693414
     576      1      5  0.01185400     8.915365    26.694530   -24.083067
     577      1      4 -0.08720100     8.552148    25.365127   -23.884584
     578      1      4 -0.03035400     9.382291    24.295345   -24.259048
     579      1      4 -0.03063400     8.982372    22.895498   -24.032703
     580      1      4 -0.11237600     7.724927    22.422761   -24.422830
     581      1      4 -0.10525400     7.371383    21.084672   -24.219117
     582      1      5  0.00973000     8.249062    20.187112   -23.628897
     583      1      6 -0.20723500     7.878757    18.905331   -23.460572
     584      1      4  0.09584700     8.780837    18.072392   -22.871568
     585      1      4  0.07688600    10.053633    18.513552   -22.488491
     586      1      4 -0.04783600    11.123236    17.664199   -21.937351
     587      1      4 -0.10226500    11.567246    16.506784   -22.601622
     588      1      4 -0.14553000    12.581938    15.710975   -22.062711
     589      1      4 -0.12173000    13.179666    16.065049   -20.855951
     590      1      4 -0.14788800    12.769212    17.216972   -20.190395
     591      1      4 -0.09215000    11.753856    18.010919   -20.729577
     592      1      6 -0.22797700    10.413404    19.818783   -22.652264
     593      1      5  0.01291200     9.519431    20.646673   -23.221298
     594      1      4 -0.08745800     9.858608    21.979811   -23.425933
     595      1      4 -0.11075100    10.608708    24.608862   -24.856595
     596      1      4 -0.10683300    10.983290    25.939589   -25.061170
     597      1      5  0.02019400    10.158113    26.986380   -24.681354
     598      1      6 -0.23643100    10.556856    28.252337   -24.891586
     599      1      4  0.08055600     9.717567    29.253744   -24.503395
     600      1      4 -0.04918800    10.221520    30.606579   -24.807910
     601      1      4 -0.09530600    11.532742    30.971732   -24.451762
     602      1      4 -0.14846000    12.029389    32.249607   -24.722012
     603      1      4 -0.12217600    11.226375    33.185254   -25.367351
     604      1      4 -0.14373700     9.934352    32.839561   -25.752913
     605      1      4 -0.10345400     9.438080    31.561666   -25.479505
     606      1      4 -0.10619400     7.964650    30.924433   -22.402249
     607      1      4 -0.10630200     7.065802    31.867879   -21.888815
     608      1      1  0.14992500     4.266725    30.873100   -23.532597
     609      1      1  0.14974500     5.846740    29.224331   -24.439660
     610      1      1  0.16669500     7.594846    25.168940   -23.404231
     611      1      1  0.15148600     7.008712    23.085478   -24.905668
     612      1      1  0.16444600     6.390909    20.734367   -24.533616
     613      1      1  0.14543500    11.126964    16.214063   -23.552716
     614      1      1  0.14256200    12.906568    14.816862   -22.588393
     615      1      1  0.13865100    13.969398    15.446910   -20.437120
     616      1      1  0.14254600    13.238538    17.501408   -19.252582
     617      1      1  0.14859000    11.448826    18.911959   -20.199836
     618      1      1  0.16611500    10.842807    22.306820   -23.094056
     619      1      1  0.15206800    11.286012    23.820113   -25.180490
     620      1      1  0.16430500    11.939380    26.163531   -25.528507
     621      1      1  0.14845200    12.178984    30.249183   -23.955052
     622      1      1  0.14253300    13.042482    32.511596   -24.428216
     623      1      1  0.13931200    11.611409    34.179861   -25.576958
     624      1      1  0.14440700     9.312620    33.561994   -26.274432
     625      1      1  0.14554000     8.430473    31.316264   -25.808641
     626      1      1  0.15424100     8.989644    30.930912   -22.035984
     627      1      1  0.15408000     7.419833    32.572903   -21.137534
     628      1      4 -0.14472900     8.277359    16.705024   -22.720359
     629      1      4 -0.10780600     7.746556    15.880213   -23.692601
     630      1      4 -0.07160800     7.379789    14.581699   -23.200850
     631      1      3 -0.10580100     6.817414    13.493683   -24.076846
     632      1      3 -0.16578700     7.913133    12.770967   -24.866651
     633      1      3 -0.17690700     7.371961    11.687334   -25.800899
     634      1      3 -0.23809700     6.771351    10.501884   -25.062158
     635      1      4 -0.12914700     7.606254    14.490916   -21.834979
     636      1      8  0.12689300     8.228988    15.949598   -21.186874
     637      1      1  0.18615100     7.646125    16.189134   -24.727346
     638      1      2  0.10162200     6.096057    13.938879   -24.773953
     639      1      2  0.10162200     6.252570    12.782326   -23.464844
     640      1      2  0.09331000     8.462883    13.502195   -25.473382
     641      1      2  0.09331000     8.646563    12.330654   -24.180206
     642      1      2  0.09528600     6.624702    12.114836   -26.479249
     643      1      2  0.09528600     8.196869    11.324610   -26.425628
     644      1      2  0.08213400     7.488620    10.079575   -24.351335
     645      1      2  0.08213400     5.867317    10.785220   -24.515821
     646      1      2  0.08213400     6.495842     9.715752   -25.772627
     647      1      4  0.00325700     7.393842    13.357881   -20.932407
     648      1      4 -0.12200700     8.231721    12.240171   -20.995808
     649      1      4 -0.10837500     8.028630    11.149290   -20.142389
     650      1      4 -0.04101900     6.977457    11.141798   -19.209713
     651      1      4  0.07370300     6.757814    10.007951   -18.291807
     652      1      6 -0.23122600     6.676341    10.370530   -16.980000
     653      1      5  0.01386200     6.535334     9.392541   -16.068451
     654      1      4 -0.08864200     6.449249     9.722187   -14.720585
     655      1      4 -0.02888200     6.302805     8.750668   -13.715628
     656      1      4 -0.02758900     6.199300     9.138894   -12.299549
     657      1      4 -0.10969100     7.122244    10.016899   -11.720285
     658      1      4 -0.10480800     6.984060    10.418030   -10.389335
     659      1      5  0.01853700     5.932733     9.966123    -9.607619
     660      1      6 -0.23297500     5.809631    10.414087    -8.348337
     661      1      4  0.07356000     4.741676     9.972965    -7.624489
     662      1      4  0.07889100     3.807398     9.082929    -8.179559
     663      1      4 -0.04850400     2.584327     8.610031    -7.504491
     664      1      4 -0.09444600     2.292962     7.236477    -7.434488
     665      1      4 -0.14750200     1.142845     6.772425    -6.789117
     666      1      4 -0.12113800     0.255783     7.675775    -6.209239
     667      1      4 -0.14251300     0.513586     9.041172    -6.283274
     668      1      4 -0.10274300     1.663028     9.502573    -6.929362
     669      1      6 -0.23194400     3.959544     8.607337    -9.450170
     670      1      5  0.01609200     5.003906     9.062258   -10.163855
     671      1      4 -0.08904800     5.154961     8.664511   -11.488343
     672      1      4 -0.10926200     6.247272     7.411281   -14.114240
     673      1      4 -0.10492700     6.333127     7.068766   -15.467392
     674      1      5  0.02059500     6.473409     8.037672   -16.450794
     675      1      6 -0.23499500     6.538957     7.672147   -17.742595
     676      1      4  0.08012900     6.662135     8.660937   -18.674009
     677      1      4 -0.04654300     6.646234     8.173308   -20.064145
     678      1      4 -0.09408300     5.727378     8.663705   -21.008688
     679      1      4 -0.14711600     5.716911     8.182702   -22.320680
     680      1      4 -0.12122800     6.622923     7.200163   -22.711463
     681      1      4 -0.14367800     7.532748     6.690221   -21.789348
     682      1      4 -0.10292300     7.539179     7.168449   -20.476546
     683      1      4 -0.09854900     6.151058    12.277662   -19.148416
     684      1      4 -0.12743900     6.350810    13.369378   -20.001226
     685      1      1  0.15152800     9.059682    12.215759   -21.700561
     686      1      1  0.14787400     8.714724    10.306732   -20.207264
     687      1      1  0.16493400     6.484516    10.777905   -14.455970
     688      1      1  0.15531900     7.960708    10.401598   -12.298735
     689      1      1  0.16527500     7.705268    11.108061    -9.957194
     690      1      1  0.14966900     2.971173     6.517021    -7.890133
     691      1      1  0.14358700     0.939453     5.705812    -6.745405
     692      1      1  0.14045400    -0.640018     7.316925    -5.709308
     693      1      1  0.14610700    -0.179658     9.756059    -5.849221
     694      1      1  0.14647900     1.825563    10.577400    -6.988076
     695      1      1  0.16550400     4.408047     7.988706   -11.901844
     696      1      1  0.15544400     6.143892     6.616951   -13.377102
     697      1      1  0.16575000     6.285910     6.022752   -15.761027
     698      1      1  0.14986200     4.998254     9.420795   -20.726002
     699      1      1  0.14369100     4.996516     8.573160   -23.035013
     700      1      1  0.14022000     6.612645     6.825022   -23.731528
     701      1      1  0.14427700     8.232397     5.913565   -22.086392
     702      1      1  0.14535800     8.246389     6.748097   -19.763096
     703      1      1  0.15263400     5.341231    12.318495   -18.421408
     704      1      1  0.15120300     5.688935    14.229607   -19.928547
     705      1      4 -0.03029800     4.676549    10.527948    -6.261212
     706      1      4 -0.11209200     4.734126    11.916319    -6.063008
     707      1      4 -0.11217700     4.617282    12.473249    -4.785217
     708      1      4 -0.03030500     4.435592    11.660356    -3.656091
     709      1      4  0.06885200     4.251290    12.233043    -2.311100
     710      1      6 -0.22837300     5.109013    11.739662    -1.373113
     711      1      5  0.01185400     5.031934    12.248413    -0.130782
     712      1      4 -0.08720100     5.883669    11.771165     0.860484
     713      1      4 -0.03035400     5.851456    12.260538     2.176756
     714      1      4 -0.03063400     6.747274    11.724292     3.213888
     715      1      4 -0.11237600     6.834981    10.348915     3.454981
     716      1      4 -0.10525400     7.671677     9.854375     4.459410
     717      1      5  0.00973000     8.437292    10.704534     5.242604
     718      1      6 -0.20723500     9.214966    10.191952     6.210728
     719      1      4  0.09584700     9.948489    11.070479     6.946281
     720      1      4  0.07688600     9.907262    12.449827     6.706803
     721      1      4 -0.04783600    10.693408    13.462305     7.434310
     722      1      4 -0.10226500    10.059606    14.585488     7.995402
     723      1      4 -0.14553000    10.785961    15.552558     8.695145
     724      1      4 -0.12173000    12.164170    15.418195     8.839675
     725      1      4 -0.14788800    12.816610    14.324291     8.277533
     726      1      4 -0.09215000    12.088779    13.359240     7.575611
     727      1      6 -0.22797700     9.097567    12.962145     5.736710
     728      1      5  0.01291200     8.371138    12.094978     5.008192
     729      1      4 -0.08745800     7.534316    12.575551     4.006782
     730      1      4 -0.11075100     4.927736    13.269383     2.470793
     731      1      4 -0.10683300     4.067289    13.756012     1.483023
     732      1      5  0.02019400     4.101282    13.258756     0.189454
     733      1      6 -0.23643100     3.243706    13.740315    -0.725978
     734      1      4  0.08055600     3.299187    13.211793    -1.980907
     735      1      4 -0.04918800     2.266020    13.733395    -2.895771
     736      1      4 -0.09530600     2.089922    15.119016    -3.059439
     737      1      4 -0.14846000     1.113347    15.628438    -3.920199
     738      1      4 -0.12217600     0.286146    14.760021    -4.626845
     739      1      4 -0.14373700     0.433649    13.384814    -4.470642
     740      1      4 -0.10345400     1.408956    12.876738    -3.609088
     741      1      4 -0.10619400     4.437046    10.269658    -3.846641
     742      1      4 -0.10630200     4.556067     9.712360    -5.126013
     743      1      1  0.14992500     4.859517    12.579111    -6.917399
     744      1      1  0.14974500     4.661859    13.556098    -4.685160
     745      1      1  0.16669500     6.598522    10.997217     0.585286
     746      1      1  0.15148600     6.239795     9.645353     2.875029
     747      1      1  0.16444600     7.721583     8.782687     4.639054
     748      1      1  0.14543500     8.983688    14.711359     7.883301
     749      1      1  0.14256200    10.274592    16.411952     9.120888
     750      1      1  0.13865100    12.731290    16.170808     9.381168
     751      1      1  0.14254600    13.894329    14.221924     8.378613
     752      1      1  0.14859000    12.628844    12.524412     7.132163
     753      1      1  0.16611500     7.507344    13.651570     3.841005
     754      1      1  0.15206800     4.853909    13.677462     3.477304
     755      1      1  0.16430500     3.347890    14.533006     1.730959
     756      1      1  0.14845200     2.719298    15.812651    -2.503934
     757      1      1  0.14253300     0.994002    16.703119    -4.030239
     758      1      1  0.13931200    -0.481109    15.156590    -5.286957
     759      1      1  0.14440700    -0.213135    12.700217    -5.010855
     760      1      1  0.14554000     1.486228    11.797136    -3.494548
     761      1      1  0.15424100     4.331977     9.605774    -2.989486
     762      1      1  0.15408000     4.543353     8.628521    -5.223984
     763      1      4 -0.14524800    10.697935    10.446301     8.040389
     764      1      4 -0.11110700    10.683829    10.745852     9.389424
     765      1      4 -0.06806100    11.576021     9.928915    10.164121
     766      1      3 -0.10805900    11.749010    10.074714    11.653096
     767      1      3 -0.16749600    10.697427     9.282811    12.435152
     768      1      3 -0.17929600    10.934953     9.289760    13.946575
     769      1      3 -0.23984200    10.820405    10.670342    14.573450
     770      1      4 -0.09900900    12.238042     9.021553     9.351733
     771      1      8  0.12800800    11.778854     9.160677     7.710388
     772      1      1  0.18344700    10.062373    11.525881     9.815322
     773      1      2  0.09996400    12.754837     9.753533    11.948435
     774      1      2  0.09996400    11.681385    11.139662    11.906124
     775      1      2  0.09033900     9.696193     9.677388    12.218485
     776      1      2  0.09033900    10.695641     8.239431    12.095115
     777      1      2  0.09424800    11.921376     8.867550    14.170718
     778      1      2  0.09424800    10.194651     8.631557    14.416671
     779      1      2  0.07918700    10.904641    10.596533    15.662486
     780      1      2  0.07918700    11.614648    11.336838    14.225254
     781      1      2  0.07918700     9.855193    11.129586    14.338841
     782      1      4 -0.10576100    13.195637     8.029288     9.751599
     783      1      4 -0.13634600    12.927130     6.803036    10.319175
     784      1      4 -0.06179700    14.114161     6.051338    10.626871
     785      1      3 -0.10835200    14.076079     4.674785    11.239037
     786      1      3 -0.16643200    14.482667     3.548888    10.283011
     787      1      3 -0.17866800    13.513726     3.375065     9.111450
     788      1      3 -0.23917600    13.914293     2.198775     8.234357
     789      1      4 -0.11016800    15.251063     6.771344    10.281841
     790      1      8  0.11546300    14.870747     8.287664     9.578131
     791      1      1  0.18032900    11.919300     6.448897    10.504203
     792      1      2  0.10078100    14.732896     4.653413    12.116320
     793      1      2  0.10078100    13.066888     4.473071    11.621179
     794      1      2  0.09002200    14.521077     2.613109    10.854820
     795      1      2  0.09002200    15.494094     3.719560     9.897229
     796      1      2  0.09512200    13.493505     4.281169     8.495803
     797      1      2  0.09512200    12.497304     3.213535     9.488646
     798      1      2  0.07968600    13.210747     2.089138     7.403240
     799      1      2  0.07968600    14.915242     2.345123     7.815846
     800      1      2  0.07968600    13.913692     1.264676     8.805303
     801      1      4 -0.10531400    16.627520     6.382637    10.428212
     802      1      4 -0.13266200    17.513389     6.077157     9.416563
     803      1      4 -0.06489300    18.808601     5.684750     9.899941
     804      1      3 -0.10524600    19.938517     5.272498     8.998001
     805      1      3 -0.16501800    19.718334     3.947343     8.259400
     806      1      3 -0.17641200    19.802570     2.697198     9.142303
     807      1      3 -0.23718400    18.472185     2.290005     9.757688
     808      1      4 -0.14189700    18.855236     5.753207    11.285756
     809      1      8  0.11434500    17.363976     6.257337    11.961201
     810      1      1  0.18319400    17.241217     6.106626     8.367437
     811      1      2  0.10180200    20.069382     6.065059     8.249144
     812      1      2  0.10180200    20.885104     5.226605     9.548175
     813      1      2  0.09303700    18.773888     3.960681     7.702824
     814      1      2  0.09303700    20.515165     3.869087     7.508278
     815      1      2  0.09709100    20.142541     1.862299     8.516923
     816      1      2  0.09709100    20.556808     2.825569     9.926928
     817      1      2  0.08240900    18.102726     3.031533    10.467808
     818      1      2  0.08240900    18.585175     1.344876    10.298594
     819      1      2  0.08240900    17.710114     2.145115     8.985039
     820      1      4  0.00243400    19.967112     5.461185    12.189410
     821      1      4 -0.12282000    19.987018     4.277701    12.933909
     822      1      4 -0.10921500    21.069785     3.984661    13.769604
     823      1      4 -0.04163300    22.165365     4.859236    13.871663
     824      1      4  0.07271300    23.327394     4.554787    14.726080
     825      1      6 -0.23152600    23.641904     5.550858    15.601886
     826      1      5  0.01317400    24.659699     5.335299    16.452525
     827      1      4 -0.08912300    25.006340     6.324090    17.367072
     828      1      4 -0.02897200    26.058604     6.165238    18.284349
     829      1      4 -0.02898400    26.404834     7.233909    19.237166
     830      1      4 -0.11110700    26.571850     8.557346    18.813355
     831      1      4 -0.10478200    26.888196     9.564986    19.728550
     832      1      5  0.00990100    27.046885     9.288559    21.077392
     833      1      6 -0.20616700    27.346554    10.286267    21.925415
     834      1      4  0.09573700    27.500284     9.958291    23.237323
     835      1      4  0.07726600    27.320039     8.648511    23.697838
     836      1      4 -0.04700200    27.376571     8.224482    25.106839
     837      1      4 -0.10193400    26.579425     8.830018    26.094539
     838      1      4 -0.14517200    26.645212     8.415955    27.427750
     839      1      4 -0.12166900    27.501961     7.381672    27.795296
     840      1      4 -0.14768800    28.287884     6.756158    26.831062
     841      1      4 -0.09228700    28.221020     7.171028    25.498683
     842      1      6 -0.22982900    27.027845     7.640708    22.825819
     843      1      5  0.01350400    26.889110     7.959704    21.526143
     844      1      4 -0.08967500    26.573575     6.965234    20.605764
     845      1      4 -0.11000800    26.762121     4.956111    18.255870
     846      1      4 -0.10591900    26.420919     3.954581    17.341266
     847      1      5  0.01992400    25.382111     4.125113    16.438292
     848      1      6 -0.23608000    25.087896     3.143554    15.567803
     849      1      4  0.07927500    24.065116     3.360407    14.692410
     850      1      4 -0.04707400    23.849641     2.256493    13.738078
     851      1      4 -0.09494000    23.704387     0.936269    14.200591
     852      1      4 -0.14793400    23.485183    -0.121506    13.314484
     853      1      4 -0.12207700    23.415988     0.120273    11.945249
     854      1      4 -0.14440500    23.576296     1.415971    11.461485
     855      1      4 -0.10362700    23.798358     2.472449    12.349109
     856      1      4 -0.09919500    22.118410     6.057786    13.138251
     857      1      4 -0.12814900    21.036666     6.354318    12.302916
     858      1      1  0.15069100    19.162217     3.571964    12.865235
     859      1      1  0.14709100    21.047775     3.058525    14.341091
     860      1      1  0.16445300    24.420470     7.241903    17.364525
     861      1      1  0.15426200    26.466314     8.820654    17.762438
     862      1      1  0.16519800    27.014794    10.587457    19.380153
     863      1      1  0.14576900    25.890907     9.630827    25.832318
     864      1      1  0.14280100    26.023058     8.898987    28.176667
     865      1      1  0.13887000    27.552282     7.058603    28.831750
     866      1      1  0.14254900    28.951354     5.942607    27.112190
     867      1      1  0.14821200    28.836363     6.666603    24.755190
     868      1      1  0.16450000    26.439002     5.952490    20.982469
     869      1      1  0.15391300    27.594015     4.782017    18.936245
     870      1      1  0.16463000    26.982311     3.023129    17.329678
     871      1      1  0.14906300    23.763474     0.728317    15.267961
     872      1      1  0.14283900    23.373125    -1.133258    13.695709
     873      1      1  0.13939900    23.247008    -0.701842    11.255222
     874      1      1  0.14350900    23.533350     1.606384    10.392126
     875      1      1  0.14472800    23.935198     3.472354    11.941541
     876      1      1  0.15207800    22.937334     6.771623    13.215437
     877      1      1  0.15051000    21.033862     7.287281    11.743670
     878      1      4 -0.14472900    27.854970    11.111262    24.067146
     879      1      4 -0.10780600    27.199313    12.323082    24.166406
     880      1      4 -0.07160800    27.833284    13.241378    25.069019
     881      1      3 -0.10580100    27.305263    14.621834    25.357106
     882      1      3 -0.16578700    27.930503    15.679893    24.443457
     883      1      3 -0.17690700    27.495842    17.106614    24.785271
     884      1      3 -0.23809700    26.013716    17.360405    24.556986
     885      1      4 -0.12914700    28.984940    12.685392    25.605375
     886      1      8  0.12689300    29.280582    11.107352    25.012222
     887      1      1  0.18615100    26.293893    12.542865    23.611443
     888      1      2  0.10162200    26.216263    14.611974    25.228549
     889      1      2  0.10162200    27.487431    14.878966    26.407441
     890      1      2  0.09331000    29.023971    15.629993    24.520142
     891      1      2  0.09331000    27.685761    15.460278    23.396340
     892      1      2  0.09528600    28.068312    17.802475    24.160571
     893      1      2  0.09528600    27.749020    17.334661    25.827178
     894      1      2  0.08213400    25.784114    18.418132    24.722101
     895      1      2  0.08213400    25.395894    16.777333    25.245992
     896      1      2  0.08213400    25.724844    17.106940    23.531972
     897      1      4  0.00325700    29.930112    13.264232    26.558709
     898      1      4 -0.12200700    29.608582    13.332502    27.917334
     899      1      4 -0.10837500    30.499623    13.914499    28.824957
     900      1      4 -0.04101900    31.735694    14.434425    28.401914
     901      1      4  0.07370300    32.655140    15.052359    29.374740
     902      1      6 -0.23122600    32.070898    16.017914    30.140738
     903      1      5  0.01386200    32.851556    16.683118    31.009174
     904      1      4 -0.08864200    32.297528    17.687417    31.795516
     905      1      4 -0.02888200    33.060472    18.428086    32.712911
     906      1      4 -0.02758900    32.448620    19.489664    33.526786
     907      1      4 -0.10969100    31.307759    19.245201    34.298374
     908      1      4 -0.10480800    30.735656    20.265141    35.063639
     909      1      5  0.01853700    31.274438    21.542664    35.079901
     910      1      6 -0.23297500    30.697151    22.496115    35.830329
     911      1      4  0.07356000    31.258723    23.739315    35.817976
     912      1      4  0.07889100    32.383360    24.015052    35.023768
     913      1      4 -0.04850400    33.020355    25.337189    34.876463
     914      1      4 -0.09444600    32.281397    26.486490    34.544207
     915      1      4 -0.14750200    32.902557    27.732330    34.416322
     916      1      4 -0.12113800    34.277236    27.849804    34.604289
     917      1      4 -0.14251300    35.032920    26.722488    34.913561
     918      1      4 -0.10274300    34.409990    25.478390    35.043563
     919      1      6 -0.23194400    32.975296    23.035074    34.281340
     920      1      5  0.01609200    32.422360    21.809997    34.306910
     921      1      4 -0.08904800    32.986414    20.786923    33.551886
     922      1      4 -0.10926200    34.421217    18.122693    32.820639
     923      1      4 -0.10492700    34.987361    17.112436    32.037309
     924      1      5  0.02059500    34.224585    16.388551    31.132865
     925      1      6 -0.23499500    34.803732    15.424809    30.396213
     926      1      4  0.08012900    34.015984    14.738608    29.519133
     927      1      4 -0.04654300    34.725234    13.671294    28.789068
     928      1      4 -0.09408300    35.936655    13.947250    28.129158
     929      1      4 -0.14711600    36.620333    12.953627    27.424047
     930      1      4 -0.12122800    36.108613    11.660040    27.372601
     931      1      4 -0.14367800    34.920498    11.357898    28.032558
     932      1      4 -0.10292300    34.239207    12.352549    28.740044
     933      1      4 -0.09854900    32.038652    14.371486    27.030691
     934      1      4 -0.12743900    31.150039    13.788623    26.120473
     935      1      1  0.15152800    28.660974    12.938537    28.276973
     936      1      1  0.14787400    30.222678    13.966674    29.876975
     937      1      1  0.16493400    31.237933    17.904415    31.669074
     938      1      1  0.15531900    30.856463    18.254611    34.322470
     939      1      1  0.16527500    29.851664    20.057647    35.662135
     940      1      1  0.14966900    31.207481    26.423232    34.376797
     941      1      1  0.14358700    32.310664    28.609236    34.165936
     942      1      1  0.14045400    34.759968    28.818261    34.501572
     943      1      1  0.14610700    36.108103    26.807355    35.049118
     944      1      1  0.14647900    35.017284    24.605120    35.276518
     945      1      1  0.16550400    33.864860    21.023162    32.953371
     946      1      1  0.15544400    35.056380    18.660265    33.522935
     947      1      1  0.16575000    36.045855    16.883988    32.136376
     948      1      1  0.14986200    36.354953    14.952171    28.165745
     949      1      1  0.14369100    37.552884    13.191704    26.919213
     950      1      1  0.14022000    36.639077    10.885825    26.824331
     951      1      1  0.14427700    34.522360    10.346667    28.000950
     952      1      1  0.14535800    33.320849    12.082844    29.257851
     953      1      1  0.15263400    32.971491    14.785040    26.651655
     954      1      1  0.15120300    31.412576    13.756954    25.065053
     955      1      4 -0.03029800    30.586478    24.699513    36.713592
     956      1      4 -0.11209200    29.191706    24.856317    36.665561
     957      1      4 -0.11217700    28.529507    25.757821    37.507874
     958      1      4 -0.03030500    29.237356    26.523860    38.446061
     959      1      4  0.06885200    28.561045    27.472441    39.347938
     960      1      6 -0.22837300    29.062064    28.739374    39.287548
     961      1      5  0.01185400    28.469902    29.681141    40.042406
     962      1      4 -0.08720100    28.940118    30.989225    40.000003
     963      1      4 -0.03035400    28.362255    32.018114    40.761415
     964      1      4 -0.03063400    28.871795    33.395729    40.690888
     965      1      4 -0.11237600    28.996132    34.059581    39.465923
     966      1      4 -0.10525400    29.467339    35.374452    39.414796
     967      1      5  0.00973000    29.825827    36.056561    40.567587
     968      1      6 -0.20723500    30.271862    37.319995    40.477070
     969      1      4  0.09584700    30.599363    37.944648    41.640353
     970      1      4  0.07688600    30.486545    37.306839    42.881243
     971      1      4 -0.04783600    30.805380    37.919314    44.182992
     972      1      4 -0.10226500    30.239207    39.140435    44.589031
     973      1      4 -0.14553000    30.558569    39.708232    45.825932
     974      1      4 -0.12173000    31.440483    39.058734    46.685498
     975      1      4 -0.14788800    31.998838    37.839017    46.313350
     976      1      4 -0.09215000    31.680132    37.273783    45.075776
     977      1      6 -0.22797700    30.050975    36.017321    42.961245
     978      1      5  0.01291200    29.714305    35.400907    41.813368
     979      1      4 -0.08745800    29.242610    34.093372    41.852039
     980      1      4 -0.11075100    27.280747    31.688323    41.584741
     981      1      4 -0.10683300    26.798462    30.377567    41.632706
     982      1      5  0.02019400    27.374112    29.369963    40.873488
     983      1      6 -0.23643100    26.881052    28.122129    40.945802
     984      1      4  0.08055600    27.482947    27.159017    40.191192
     985      1      4 -0.04918800    26.903979    25.814539    40.368857
     986      1      4 -0.09530600    27.697257    24.696342    40.680469
     987      1      4 -0.14846000    27.129178    23.428388    40.833297
     988      1      4 -0.12217600    25.754902    23.257078    40.690585
     989      1      4 -0.14373700    24.946313    24.352979    40.402876
     990      1      4 -0.10345400    25.516314    25.619158    40.248266
     991      1      4 -0.10619400    30.631965    26.370384    38.493467
     992      1      4 -0.10630200    31.293427    25.466932    37.652282
     993      1      1  0.14992500    28.605590    24.267185    35.961467
     994      1      1  0.14974500    27.448427    25.851281    37.420199
     995      1      1  0.16669500    29.790788    31.202471    39.354714
     996      1      1  0.15148600    28.713072    33.566854    38.537152
     997      1      1  0.16444600    29.551661    35.879157    38.454971
     998      1      1  0.14543500    29.532201    39.661638    43.946370
     999      1      1  0.14256200    30.111055    40.654345    46.118862
    1000      1      1  0.13865100    31.684041    39.497684    47.649577
    1001      1      1  0.14254600    32.676775    37.321592    46.986940
    1002      1      1  0.14859000    32.116966    36.313623    44.805112
    1003      1      1  0.16611500    29.170267    33.607710    42.824230
    1004      1      1  0.15206800    26.791527    32.450369    42.189314
    1005      1      1  0.16430500    25.954379    30.137844    42.275539
    1006      1      1  0.14845200    28.772657    24.801409    40.812144
    1007      1      1  0.14253300    27.762614    22.576209    41.066400
    1008      1      1  0.13931200    25.313568    22.271270    40.811178
    1009      1      1  0.14440700    23.871344    24.226341    40.301841
    1010      1      1  0.14554000    24.868321    26.467091    40.031965
    1011      1      1  0.15424100    31.217351    26.959900    39.198130
    1012      1      1  0.15408000    32.373853    25.371859    37.744557
    1013      1      4 -0.14472900    31.127047    39.297708    41.456532
    1014      1      4 -0.10780600    32.350516    39.817366    41.831164
    1015      1      4 -0.07160800    32.499722    41.208658    41.506961
    1016      1      3 -0.10580100    33.744069    42.002027    41.808882
    1017      1      3 -0.16578700    34.618388    42.206103    40.567500
    1018      1      3 -0.17690700    35.923142    42.948899    40.861242
    1019      1      3 -0.23809700    35.712678    44.386290    41.311676
    1020      1      4 -0.12914700    31.358705    41.694981    40.883829
    1021      1      8  0.12689300    30.161893    40.484725    40.693475
    1022      1      1  0.18615100    33.115808    39.227568    42.323240
    1023      1      2  0.10162200    34.325898    41.480722    42.580046
    1024      1      2  0.10162200    33.458003    42.965792    42.243406
    1025      1      2  0.09331000    34.867074    41.227399    40.137297
    1026      1      2  0.09331000    34.060508    42.748257    39.793787
    1027      1      2  0.09528600    36.499303    42.408616    41.620923
    1028      1      2  0.09528600    36.530631    42.955672    39.948407
    1029      1      2  0.08213400    36.676286    44.898042    41.395992
    1030      1      2  0.08213400    35.227505    44.433325    42.290857
    1031      1      2  0.08213400    35.097451    44.937419    40.594317
    1032      1      4  0.00388500    31.072292    43.047041    40.400058
    1033      1      4 -0.12092800    30.919207    44.102432    41.304114
    1034      1      4 -0.10748300    30.674064    45.399986    40.842515
    1035      1      4 -0.03928100    30.585399    45.680697    39.467698
    1036      1      4  0.07441700    30.339524    47.058998    39.004205
    1037      1      6 -0.23012100    29.274591    47.659515    39.608483
    1038      1      5  0.01536200    28.945855    48.899957    39.208514
    1039      1      4 -0.08825600    27.859782    49.542507    39.793374
    1040      1      4 -0.02531200    27.463349    50.837107    39.419138
    1041      1      4 -0.03234700    26.311052    51.493134    40.056655
    1042      1      4 -0.10636400    26.417330    52.775805    40.604972
    1043      1      4 -0.10803500    25.315230    53.382612    41.213547
    1044      1      5  0.03448900    24.089574    52.738207    41.292007
    1045      1      6 -0.34028500    23.049769    53.353898    41.883664
    1046      1      4  0.12391600    21.865721    52.682797    41.932038
    1047      1      4  0.07057500    21.744956    51.390807    41.405028
    1048      1      4 -0.03514700    20.515883    50.586751    41.440228
    1049      1      4 -0.08322300    19.886093    50.199661    40.245524
    1050      1      4 -0.14503800    18.715427    49.437628    40.262948
    1051      1      4 -0.12663800    18.159875    49.042686    41.476932
    1052      1      4 -0.14481800    18.778456    49.399976    42.672261
    1053      1      4 -0.11667700    19.949823    50.161539    42.653611
    1054      1      6 -0.21641700    22.794850    50.779539    40.794755
    1055      1      5  0.00866300    23.961449    51.445917    40.743344
    1056      1      4 -0.08336400    25.064427    50.851109    40.140326
    1057      1      4 -0.10815500    28.203425    51.477949    38.420009
    1058      1      4 -0.10426000    29.296106    50.840539    37.825065
    1059      1      5  0.02138000    29.679767    49.562664    38.203971
    1060      1      6 -0.23405700    30.740574    48.984705    37.614178
    1061      1      4  0.08055300    31.087479    47.730934    38.024090
    1062      1      4 -0.04482100    32.296760    47.202022    37.365638
    1063      1      4 -0.09312600    32.398544    47.202235    35.962642
    1064      1      4 -0.14608400    33.531562    46.698492    35.318724
    1065      1      4 -0.12038500    34.590431    46.192408    36.068025
    1066      1      4 -0.14254300    34.520803    46.198466    37.458584
    1067      1      4 -0.10183600    33.387164    46.704521    38.101142
    1068      1      4 -0.09737700    30.715674    44.606358    38.571414
    1069      1      4 -0.12620500    30.963781    43.307820    39.030080
    1070      1      1  0.15245900    30.981205    43.922086    42.374795
    1071      1      1  0.14895200    30.548746    46.203175    41.567253
    1072      1      1  0.16623500    27.316185    49.010576    40.572878
    1073      1      1  0.15520100    27.363301    53.313371    40.577651
    1074      1      1  0.16446300    25.417016    54.378066    41.638932
    1075      1      1  0.15500000    20.316039    50.491473    39.288778
    1076      1      1  0.14463000    18.242738    49.149278    39.327952
    1077      1      1  0.14018800    17.250704    48.447412    41.490981
    1078      1      1  0.14281700    18.353939    49.080488    43.620197
    1079      1      1  0.14133800    20.427397    50.410767    43.598486
    1080      1      1  0.16634300    24.934757    49.855445    39.718147
    1081      1      1  0.15622400    27.931631    52.476360    38.082648
    1082      1      1  0.16642400    29.859473    51.351784    37.048408
    1083      1      1  0.15094600    31.583404    47.602212    35.362124
    1084      1      1  0.14460500    33.586301    46.706616    34.233087
    1085      1      1  0.14116000    35.472859    45.801659    35.568501
    1086      1      1  0.14530800    35.350698    45.813870    38.045594
    1087      1      1  0.14660500    33.366414    46.710435    39.189272
    1088      1      1  0.15410300    30.624612    44.767095    37.498565
    1089      1      1  0.15234200    31.074909    42.501838    38.307448
    1090      1      3 -0.06753000    19.847330    56.833394    43.583748
    1091      1      7 -0.38790000    19.722444    55.433858    43.367501
    1092      1      3  0.00296800    20.911178    54.885569    42.787812
    1093      1      3 -0.17658400    20.701993    53.386001    42.585297
    1094      1      2  0.07130400    20.008387    57.354306    42.635017
    1095      1      2  0.07130400    20.670366    57.042916    44.274299
    1096      1      2  0.07130400    18.917669    57.197114    44.028477
    1097      1      2  0.09451400    21.756068    55.070449    43.461503
    1098      1      2  0.09451400    21.106088    55.379155    41.828047
    1099      1      2  0.11305300    20.501833    52.924042    43.559641
    1100      1      2  0.11305300    19.797975    53.249383    41.978163

Bonds

       1      1        1        2
       2      1        2        3
       3      2        3        4
       4      3        1        5
       5      3        1        6
       6      3        1        7
       7      3        3        8
       8      3        3        9
       9      3        4       10
      10      3        4       11
      11      4       12       13
      12      4       13       14
      13      4       14       15
      14      5       15       16
      15      6       16       17
      16      7       17       18
      17      8       18       19
      18      4       19       20
      19      5       20       21
      20      4       21       22
      21      4       22       23
      22      8       23       24
      23      7       24       25
      24      6       25       26
      25      5       26       27
      26      5       27       28
      27      4       28       29
      28      4       29       30
      29      4       30       31
      30      4       31       32
      31      4       32       33
      32      6       27       34
      33      7       34       35
      34      8       35       36
      35      4       20       37
      36      4       37       38
      37      8       38       39
      38      7       39       40
      39      6       40       41
      40      5       41       42
      41      4       42       43
      42      4       43       44
      43      4       44       45
      44      4       45       46
      45      4       46       47
      46      4       15       48
      47      4       48       49
      48      4       49       12
      49      5       41       16
      50      4       47       42
      51      9       39       18
      52      4       36       21
      53      9       35       24
      54      4       33       28
      55     10       13       50
      56     10       14       51
      57     10       19       52
      58     10       22       53
      59     10       23       54
      60     10       29       55
      61     10       30       56
      62     10       31       57
      63     10       32       58
      64     10       33       59
      65     10       36       60
      66     10       37       61
      67     10       38       62
      68     10       43       63
      69     10       44       64
      70     10       45       65
      71     10       46       66
      72     10       47       67
      73     10       48       68
      74     10       49       69
      75     11        4       12
      76     12       70       71
      77     13       71       72
      78     14       72       73
      79      2       73       74
      80      2       74       75
      81      2       75       76
      82     13       72       77
      83     15       77       78
      84     16       78       70
      85     10       71       79
      86      3       73       80
      87      3       73       81
      88      3       74       82
      89      3       74       83
      90      3       75       84
      91      3       75       85
      92      3       76       86
      93      3       76       87
      94      3       76       88
      95      5       26       70
      96     13       89       90
      97     13       90       91
      98     14       91       92
      99      2       92       93
     100      2       93       94
     101      2       94       95
     102     12       91       96
     103     16       96       97
     104     15       97       89
     105     10       90       98
     106      3       92       99
     107      3       92      100
     108      3       93      101
     109      3       93      102
     110      3       94      103
     111      3       94      104
     112      3       95      105
     113      3       95      106
     114      3       95      107
     115     13       77       89
     116      4      108      109
     117      4      109      110
     118      4      110      111
     119      5      111      112
     120      6      112      113
     121      7      113      114
     122      8      114      115
     123      4      115      116
     124      5      116      117
     125      4      117      118
     126      4      118      119
     127      8      119      120
     128      7      120      121
     129      6      121      122
     130      5      122      123
     131      5      123      124
     132      4      124      125
     133      4      125      126
     134      4      126      127
     135      4      127      128
     136      4      128      129
     137      6      123      130
     138      7      130      131
     139      8      131      132
     140      4      116      133
     141      4      133      134
     142      8      134      135
     143      7      135      136
     144      6      136      137
     145      5      137      138
     146      4      138      139
     147      4      139      140
     148      4      140      141
     149      4      141      142
     150      4      142      143
     151      4      111      144
     152      4      144      145
     153      4      145      108
     154      5      137      112
     155      4      143      138
     156      9      135      114
     157      4      132      117
     158      9      131      120
     159      4      129      124
     160     10      109      146
     161     10      110      147
     162     10      115      148
     163     10      118      149
     164     10      119      150
     165     10      125      151
     166     10      126      152
     167     10      127      153
     168     10      128      154
     169     10      129      155
     170     10      132      156
     171     10      133      157
     172     10      134      158
     173     10      139      159
     174     10      140      160
     175     10      141      161
     176     10      142      162
     177     10      143      163
     178     10      144      164
     179     10      145      165
     180      5       96      108
     181      4      166      167
     182      4      167      168
     183      4      168      169
     184      5      169      170
     185      6      170      171
     186      7      171      172
     187      8      172      173
     188      4      173      174
     189      5      174      175
     190      4      175      176
     191      4      176      177
     192      8      177      178
     193      7      178      179
     194      6      179      180
     195      5      180      181
     196      5      181      182
     197      4      182      183
     198      4      183      184
     199      4      184      185
     200      4      185      186
     201      4      186      187
     202      6      181      188
     203      7      188      189
     204      8      189      190
     205      4      174      191
     206      4      191      192
     207      8      192      193
     208      7      193      194
     209      6      194      195
     210      5      195      196
     211      4      196      197
     212      4      197      198
     213      4      198      199
     214      4      199      200
     215      4      200      201
     216      4      169      202
     217      4      202      203
     218      4      203      166
     219      5      195      170
     220      4      201      196
     221      9      193      172
     222      4      190      175
     223      9      189      178
     224      4      187      182
     225     10      167      204
     226     10      168      205
     227     10      173      206
     228     10      176      207
     229     10      177      208
     230     10      183      209
     231     10      184      210
     232     10      185      211
     233     10      186      212
     234     10      187      213
     235     10      190      214
     236     10      191      215
     237     10      192      216
     238     10      197      217
     239     10      198      218
     240     10      199      219
     241     10      200      220
     242     10      201      221
     243     10      202      222
     244     10      203      223
     245      5      122      166
     246     12      224      225
     247     13      225      226
     248     14      226      227
     249      2      227      228
     250      2      228      229
     251      2      229      230
     252     12      226      231
     253     16      231      232
     254     16      232      224
     255     10      225      233
     256      3      227      234
     257      3      227      235
     258      3      228      236
     259      3      228      237
     260      3      229      238
     261      3      229      239
     262      3      230      240
     263      3      230      241
     264      3      230      242
     265      5      180      224
     266      4      243      244
     267      4      244      245
     268      4      245      246
     269      5      246      247
     270      6      247      248
     271      7      248      249
     272      8      249      250
     273      4      250      251
     274      5      251      252
     275      4      252      253
     276      4      253      254
     277      8      254      255
     278      7      255      256
     279      6      256      257
     280      5      257      258
     281      5      258      259
     282      4      259      260
     283      4      260      261
     284      4      261      262
     285      4      262      263
     286      4      263      264
     287      6      258      265
     288      7      265      266
     289      8      266      267
     290      4      251      268
     291      4      268      269
     292      8      269      270
     293      7      270      271
     294      6      271      272
     295      5      272      273
     296      4      273      274
     297      4      274      275
     298      4      275      276
     299      4      276      277
     300      4      277      278
     301      4      246      279
     302      4      279      280
     303      4      280      243
     304      5      272      247
     305      4      278      273
     306      9      270      249
     307      4      267      252
     308      9      266      255
     309      4      264      259
     310     10      244      281
     311     10      245      282
     312     10      250      283
     313     10      253      284
     314     10      254      285
     315     10      260      286
     316     10      261      287
     317     10      262      288
     318     10      263      289
     319     10      264      290
     320     10      267      291
     321     10      268      292
     322     10      269      293
     323     10      274      294
     324     10      275      295
     325     10      276      296
     326     10      277      297
     327     10      278      298
     328     10      279      299
     329     10      280      300
     330      5      231      243
     331     12      301      302
     332     13      302      303
     333     14      303      304
     334      2      304      305
     335      2      305      306
     336      2      306      307
     337     12      303      308
     338     16      308      309
     339     16      309      301
     340     10      302      310
     341      3      304      311
     342      3      304      312
     343      3      305      313
     344      3      305      314
     345      3      306      315
     346      3      306      316
     347      3      307      317
     348      3      307      318
     349      3      307      319
     350      5      257      301
     351      4      320      321
     352      4      321      322
     353      4      322      323
     354      5      323      324
     355      6      324      325
     356      7      325      326
     357      8      326      327
     358      4      327      328
     359      5      328      329
     360      4      329      330
     361      4      330      331
     362      8      331      332
     363      7      332      333
     364      6      333      334
     365      5      334      335
     366      5      335      336
     367      4      336      337
     368      4      337      338
     369      4      338      339
     370      4      339      340
     371      4      340      341
     372      6      335      342
     373      7      342      343
     374      8      343      344
     375      4      328      345
     376      4      345      346
     377      8      346      347
     378      7      347      348
     379      6      348      349
     380      5      349      350
     381      4      350      351
     382      4      351      352
     383      4      352      353
     384      4      353      354
     385      4      354      355
     386      4      323      356
     387      4      356      357
     388      4      357      320
     389      5      349      324
     390      4      355      350
     391      9      347      326
     392      4      344      329
     393      9      343      332
     394      4      341      336
     395     10      321      358
     396     10      322      359
     397     10      327      360
     398     10      330      361
     399     10      331      362
     400     10      337      363
     401     10      338      364
     402     10      339      365
     403     10      340      366
     404     10      341      367
     405     10      344      368
     406     10      345      369
     407     10      346      370
     408     10      351      371
     409     10      352      372
     410     10      353      373
     411     10      354      374
     412     10      355      375
     413     10      356      376
     414     10      357      377
     415      5      308      320
     416     12      378      379
     417     13      379      380
     418     14      380      381
     419      2      381      382
     420      2      382      383
     421      2      383      384
     422     12      380      385
     423     16      385      386
     424     16      386      378
     425     10      379      387
     426      3      381      388
     427      3      381      389
     428      3      382      390
     429      3      382      391
     430      3      383      392
     431      3      383      393
     432      3      384      394
     433      3      384      395
     434      3      384      396
     435      5      334      378
     436      4      397      398
     437      4      398      399
     438      4      399      400
     439      5      400      401
     440      6      401      402
     441      7      402      403
     442      8      403      404
     443      4      404      405
     444      5      405      406
     445      4      406      407
     446      4      407      408
     447      8      408      409
     448      7      409      410
     449      6      410      411
     450      5      411      412
     451      5      412      413
     452      4      413      414
     453      4      414      415
     454      4      415      416
     455      4      416      417
     456      4      417      418
     457      6      412      419
     458      7      419      420
     459      8      420      421
     460      4      405      422
     461      4      422      423
     462      8      423      424
     463      7      424      425
     464      6      425      426
     465      5      426      427
     466      4      427      428
     467      4      428      429
     468      4      429      430
     469      4      430      431
     470      4      431      432
     471      4      400      433
     472      4      433      434
     473      4      434      397
     474      5      426      401
     475      4      432      427
     476      9      424      403
     477      4      421      406
     478      9      420      409
     479      4      418      413
     480     10      398      435
     481     10      399      436
     482     10      404      437
     483     10      407      438
     484     10      408      439
     485     10      414      440
     486     10      415      441
     487     10      416      442
     488     10      417      443
     489     10      418      444
     490     10      421      445
     491     10      422      446
     492     10      423      447
     493     10      428      448
     494     10      429      449
     495     10      430      450
     496     10      431      451
     497     10      432      452
     498     10      433      453
     499     10      434      454
     500      5      385      397
     501     12      455      456
     502     13      456      457
     503     14      457      458
     504      2      458      459
     505      2      459      460
     506      2      460      461
     507     13      457      462
     508     15      462      463
     509     16      463      455
     510     10      456      464
     511      3      458      465
     512      3      458      466
     513      3      459      467
     514      3      459      468
     515      3      460      469
     516      3      460      470
     517      3      461      471
     518      3      461      472
     519      3      461      473
     520      5      411      455
     521     13      474      475
     522     13      475      476
     523     14      476      477
     524      2      477      478
     525      2      478      479
     526      2      479      480
     527     13      476      481
     528     15      481      482
     529     15      482      474
     530     10      475      483
     531      3      477      484
     532      3      477      485
     533      3      478      486
     534      3      478      487
     535      3      479      488
     536      3      479      489
     537      3      480      490
     538      3      480      491
     539      3      480      492
     540     13      462      474
     541     13      493      494
     542     13      494      495
     543     14      495      496
     544      2      496      497
     545      2      497      498
     546      2      498      499
     547     12      495      500
     548     16      500      501
     549     15      501      493
     550     10      494      502
     551      3      496      503
     552      3      496      504
     553      3      497      505
     554      3      497      506
     555      3      498      507
     556      3      498      508
     557      3      499      509
     558      3      499      510
     559      3      499      511
     560     13      481      493
     561      4      512      513
     562      4      513      514
     563      4      514      515
     564      5      515      516
     565      6      516      517
     566      7      517      518
     567      8      518      519
     568      4      519      520
     569      5      520      521
     570      4      521      522
     571      4      522      523
     572      8      523      524
     573      7      524      525
     574      6      525      526
     575      5      526      527
     576      5      527      528
     577      4      528      529
     578      4      529      530
     579      4      530      531
     580      4      531      532
     581      4      532      533
     582      6      527      534
     583      7      534      535
     584      8      535      536
     585      4      520      537
     586      4      537      538
     587      8      538      539
     588      7      539      540
     589      6      540      541
     590      5      541      542
     591      4      542      543
     592      4      543      544
     593      4      544      545
     594      4      545      546
     595      4      546      547
     596      4      515      548
     597      4      548      549
     598      4      549      512
     599      5      541      516
     600      4      547      542
     601      9      539      518
     602      4      536      521
     603      9      535      524
     604      4      533      528
     605     10      513      550
     606     10      514      551
     607     10      519      552
     608     10      522      553
     609     10      523      554
     610     10      529      555
     611     10      530      556
     612     10      531      557
     613     10      532      558
     614     10      533      559
     615     10      536      560
     616     10      537      561
     617     10      538      562
     618     10      543      563
     619     10      544      564
     620     10      545      565
     621     10      546      566
     622     10      547      567
     623     10      548      568
     624     10      549      569
     625      5      500      512
     626      4      570      571
     627      4      571      572
     628      4      572      573
     629      5      573      574
     630      6      574      575
     631      7      575      576
     632      8      576      577
     633      4      577      578
     634      5      578      579
     635      4      579      580
     636      4      580      581
     637      8      581      582
     638      7      582      583
     639      6      583      584
     640      5      584      585
     641      5      585      586
     642      4      586      587
     643      4      587      588
     644      4      588      589
     645      4      589      590
     646      4      590      591
     647      6      585      592
     648      7      592      593
     649      8      593      594
     650      4      578      595
     651      4      595      596
     652      8      596      597
     653      7      597      598
     654      6      598      599
     655      5      599      600
     656      4      600      601
     657      4      601      602
     658      4      602      603
     659      4      603      604
     660      4      604      605
     661      4      573      606
     662      4      606      607
     663      4      607      570
     664      5      599      574
     665      4      605      600
     666      9      597      576
     667      4      594      579
     668      9      593      582
     669      4      591      586
     670     10      571      608
     671     10      572      609
     672     10      577      610
     673     10      580      611
     674     10      581      612
     675     10      587      613
     676     10      588      614
     677     10      589      615
     678     10      590      616
     679     10      591      617
     680     10      594      618
     681     10      595      619
     682     10      596      620
     683     10      601      621
     684     10      602      622
     685     10      603      623
     686     10      604      624
     687     10      605      625
     688     10      606      626
     689     10      607      627
     690      5      526      570
     691     12      628      629
     692     13      629      630
     693     14      630      631
     694      2      631      632
     695      2      632      633
     696      2      633      634
     697     12      630      635
     698     16      635      636
     699     16      636      628
     700     10      629      637
     701      3      631      638
     702      3      631      639
     703      3      632      640
     704      3      632      641
     705      3      633      642
     706      3      633      643
     707      3      634      644
     708      3      634      645
     709      3      634      646
     710      5      584      628
     711      4      647      648
     712      4      648      649
     713      4      649      650
     714      5      650      651
     715      6      651      652
     716      7      652      653
     717      8      653      654
     718      4      654      655
     719      5      655      656
     720      4      656      657
     721      4      657      658
     722      8      658      659
     723      7      659      660
     724      6      660      661
     725      5      661      662
     726      5      662      663
     727      4      663      664
     728      4      664      665
     729      4      665      666
     730      4      666      667
     731      4      667      668
     732      6      662      669
     733      7      669      670
     734      8      670      671
     735      4      655      672
     736      4      672      673
     737      8      673      674
     738      7      674      675
     739      6      675      676
     740      5      676      677
     741      4      677      678
     742      4      678      679
     743      4      679      680
     744      4      680      681
     745      4      681      682
     746      4      650      683
     747      4      683      684
     748      4      684      647
     749      5      676      651
     750      4      682      677
     751      9      674      653
     752      4      671      656
     753      9      670      659
     754      4      668      663
     755     10      648      685
     756     10      649      686
     757     10      654      687
     758     10      657      688
     759     10      658      689
     760     10      664      690
     761     10      665      691
     762     10      666      692
     763     10      667      693
     764     10      668      694
     765     10      671      695
     766     10      672      696
     767     10      673      697
     768     10      678      698
     769     10      679      699
     770     10      680      700
     771     10      681      701
     772     10      682      702
     773     10      683      703
     774     10      684      704
     775      5      635      647
     776      4      705      706
     777      4      706      707
     778      4      707      708
     779      5      708      709
     780      6      709      710
     781      7      710      711
     782      8      711      712
     783      4      712      713
     784      5      713      714
     785      4      714      715
     786      4      715      716
     787      8      716      717
     788      7      717      718
     789      6      718      719
     790      5      719      720
     791      5      720      721
     792      4      721      722
     793      4      722      723
     794      4      723      724
     795      4      724      725
     796      4      725      726
     797      6      720      727
     798      7      727      728
     799      8      728      729
     800      4      713      730
     801      4      730      731
     802      8      731      732
     803      7      732      733
     804      6      733      734
     805      5      734      735
     806      4      735      736
     807      4      736      737
     808      4      737      738
     809      4      738      739
     810      4      739      740
     811      4      708      741
     812      4      741      742
     813      4      742      705
     814      5      734      709
     815      4      740      735
     816      9      732      711
     817      4      729      714
     818      9      728      717
     819      4      726      721
     820     10      706      743
     821     10      707      744
     822     10      712      745
     823     10      715      746
     824     10      716      747
     825     10      722      748
     826     10      723      749
     827     10      724      750
     828     10      725      751
     829     10      726      752
     830     10      729      753
     831     10      730      754
     832     10      731      755
     833     10      736      756
     834     10      737      757
     835     10      738      758
     836     10      739      759
     837     10      740      760
     838     10      741      761
     839     10      742      762
     840      5      661      705
     841     12      763      764
     842     13      764      765
     843     14      765      766
     844      2      766      767
     845      2      767      768
     846      2      768      769
     847     13      765      770
     848     15      770      771
     849     16      771      763
     850     10      764      772
     851      3      766      773
     852      3      766      774
     853      3      767      775
     854      3      767      776
     855      3      768      777
     856      3      768      778
     857      3      769      779
     858      3      769      780
     859      3      769      781
     860      5      719      763
     861     13      782      783
     862     13      783      784
     863     14      784      785
     864      2      785      786
     865      2      786      787
     866      2      787      788
     867     13      784      789
     868     15      789      790
     869     15      790      782
     870     10      783      791
     871      3      785      792
     872      3      785      793
     873      3      786      794
     874      3      786      795
     875      3      787      796
     876      3      787      797
     877      3      788      798
     878      3      788      799
     879      3      788      800
     880     13      770      782
     881     13      801      802
     882     13      802      803
     883     14      803      804
     884      2      804      805
     885      2      805      806
     886      2      806      807
     887     12      803      808
     888     16      808      809
     889     15      809      801
     890     10      802      810
     891      3      804      811
     892      3      804      812
     893      3      805      813
     894      3      805      814
     895      3      806      815
     896      3      806      816
     897      3      807      817
     898      3      807      818
     899      3      807      819
     900     13      789      801
     901      4      820      821
     902      4      821      822
     903      4      822      823
     904      5      823      824
     905      6      824      825
     906      7      825      826
     907      8      826      827
     908      4      827      828
     909      5      828      829
     910      4      829      830
     911      4      830      831
     912      8      831      832
     913      7      832      833
     914      6      833      834
     915      5      834      835
     916      5      835      836
     917      4      836      837
     918      4      837      838
     919      4      838      839
     920      4      839      840
     921      4      840      841
     922      6      835      842
     923      7      842      843
     924      8      843      844
     925      4      828      845
     926      4      845      846
     927      8      846      847
     928      7      847      848
     929      6      848      849
     930      5      849      850
     931      4      850      851
     932      4      851      852
     933      4      852      853
     934      4      853      854
     935      4      854      855
     936      4      823      856
     937      4      856      857
     938      4      857      820
     939      5      849      824
     940      4      855      850
     941      9      847      826
     942      4      844      829
     943      9      843      832
     944      4      841      836
     945     10      821      858
     946     10      822      859
     947     10      827      860
     948     10      830      861
     949     10      831      862
     950     10      837      863
     951     10      838      864
     952     10      839      865
     953     10      840      866
     954     10      841      867
     955     10      844      868
     956     10      845      869
     957     10      846      870
     958     10      851      871
     959     10      852      872
     960     10      853      873
     961     10      854      874
     962     10      855      875
     963     10      856      876
     964     10      857      877
     965      5      808      820
     966     12      878      879
     967     13      879      880
     968     14      880      881
     969      2      881      882
     970      2      882      883
     971      2      883      884
     972     12      880      885
     973     16      885      886
     974     16      886      878
     975     10      879      887
     976      3      881      888
     977      3      881      889
     978      3      882      890
     979      3      882      891
     980      3      883      892
     981      3      883      893
     982      3      884      894
     983      3      884      895
     984      3      884      896
     985      5      834      878
     986      4      897      898
     987      4      898      899
     988      4      899      900
     989      5      900      901
     990      6      901      902
     991      7      902      903
     992      8      903      904
     993      4      904      905
     994      5      905      906
     995      4      906      907
     996      4      907      908
     997      8      908      909
     998      7      909      910
     999      6      910      911
    1000      5      911      912
    1001      5      912      913
    1002      4      913      914
    1003      4      914      915
    1004      4      915      916
    1005      4      916      917
    1006      4      917      918
    1007      6      912      919
    1008      7      919      920
    1009      8      920      921
    1010      4      905      922
    1011      4      922      923
    1012      8      923      924
    1013      7      924      925
    1014      6      925      926
    1015      5      926      927
    1016      4      927      928
    1017      4      928      929
    1018      4      929      930
    1019      4      930      931
    1020      4      931      932
    1021      4      900      933
    1022      4      933      934
    1023      4      934      897
    1024      5      926      901
    1025      4      932      927
    1026      9      924      903
    1027      4      921      906
    1028      9      920      909
    1029      4      918      913
    1030     10      898      935
    1031     10      899      936
    1032     10      904      937
    1033     10      907      938
    1034     10      908      939
    1035     10      914      940
    1036     10      915      941
    1037     10      916      942
    1038     10      917      943
    1039     10      918      944
    1040     10      921      945
    1041     10      922      946
    1042     10      923      947
    1043     10      928      948
    1044     10      929      949
    1045     10      930      950
    1046     10      931      951
    1047     10      932      952
    1048     10      933      953
    1049     10      934      954
    1050      5      885      897
    1051      4      955      956
    1052      4      956      957
    1053      4      957      958
    1054      5      958      959
    1055      6      959      960
    1056      7      960      961
    1057      8      961      962
    1058      4      962      963
    1059      5      963      964
    1060      4      964      965
    1061      4      965      966
    1062      8      966      967
    1063      7      967      968
    1064      6      968      969
    1065      5      969      970
    1066      5      970      971
    1067      4      971      972
    1068      4      972      973
    1069      4      973      974
    1070      4      974      975
    1071      4      975      976
    1072      6      970      977
    1073      7      977      978
    1074      8      978      979
    1075      4      963      980
    1076      4      980      981
    1077      8      981      982
    1078      7      982      983
    1079      6      983      984
    1080      5      984      985
    1081      4      985      986
    1082      4      986      987
    1083      4      987      988
    1084      4      988      989
    1085      4      989      990
    1086      4      958      991
    1087      4      991      992
    1088      4      992      955
    1089      5      984      959
    1090      4      990      985
    1091      9      982      961
    1092      4      979      964
    1093      9      978      967
    1094      4      976      971
    1095     10      956      993
    1096     10      957      994
    1097     10      962      995
    1098     10      965      996
    1099     10      966      997
    1100     10      972      998
    1101     10      973      999
    1102     10      974     1000
    1103     10      975     1001
    1104     10      976     1002
    1105     10      979     1003
    1106     10      980     1004
    1107     10      981     1005
    1108     10      986     1006
    1109     10      987     1007
    1110     10      988     1008
    1111     10      989     1009
    1112     10      990     1010
    1113     10      991     1011
    1114     10      992     1012
    1115      5      911      955
    1116     12     1013     1014
    1117     13     1014     1015
    1118     14     1015     1016
    1119      2     1016     1017
    1120      2     1017     1018
    1121      2     1018     1019
    1122     12     1015     1020
    1123     16     1020     1021
    1124     16     1021     1013
    1125     10     1014     1022
    1126      3     1016     1023
    1127      3     1016     1024
    1128      3     1017     1025
    1129      3     1017     1026
    1130      3     1018     1027
    1131      3     1018     1028
    1132      3     1019     1029
    1133      3     1019     1030
    1134      3     1019     1031
    1135      5      969     1013
    1136      4     1032     1033
    1137      4     1033     1034
    1138      4     1034     1035
    1139      5     1035     1036
    1140      6     1036     1037
    1141      7     1037     1038
    1142      8     1038     1039
    1143      4     1039     1040
    1144      5     1040     1041
    1145      4     1041     1042
    1146      4     1042     1043
    1147      8     1043     1044
    1148      7     1044     1045
    1149      6     1045     1046
    1150      4     1046     1047
    1151      5     1047     1048
    1152      4     1048     1049
    1153      4     1049     1050
    1154      4     1050     1051
    1155      4     1051     1052
    1156      4     1052     1053
    1157      6     1047     1054
    1158      7     1054     1055
    1159      8     1055     1056
    1160      4     1040     1057
    1161      4     1057     1058
    1162      8     1058     1059
    1163      7     1059     1060
    1164      6     1060     1061
    1165      5     1061     1062
    1166      4     1062     1063
    1167      4     1063     1064
    1168      4     1064     1065
    1169      4     1065     1066
    1170      4     1066     1067
    1171      4     1035     1068
    1172      4     1068     1069
    1173      4     1069     1032
    1174      5     1061     1036
    1175      4     1067     1062
    1176      9     1059     1038
    1177      4     1056     1041
    1178      9     1055     1044
    1179      4     1053     1048
    1180     10     1033     1070
    1181     10     1034     1071
    1182     10     1039     1072
    1183     10     1042     1073
    1184     10     1043     1074
    1185     10     1049     1075
    1186     10     1050     1076
    1187     10     1051     1077
    1188     10     1052     1078
    1189     10     1053     1079
    1190     10     1056     1080
    1191     10     1057     1081
    1192     10     1058     1082
    1193     10     1063     1083
    1194     10     1064     1084
    1195     10     1065     1085
    1196     10     1066     1086
    1197     10     1067     1087
    1198     10     1068     1088
    1199     10     1069     1089
    1200      5     1020     1032
    1201      1     1090     1091
    1202      1     1091     1092
    1203      2     1092     1093
    1204      3     1090     1094
    1205      3     1090     1095
    1206      3     1090     1096
    1207      3     1092     1097
    1208      3     1092     1098
    1209      3     1093     1099
    1210      3     1093     1100
    1211     11     1046     1093

Angles

       1      1        2        1        5
       2      1        2        1        6
       3      1        2        1        7
       4      2        5        1        6
       5      2        5        1        7
       6      2        6        1        7
       7      3        1        2        3
       8      4        2        3        4
       9      1        2        3        8
      10      1        2        3        9
      11      5        4        3        8
      12      5        4        3        9
      13      2        8        3        9
      14      5        3        4       10
      15      5        3        4       11
      16      6        3        4       12
      17      2       10        4       11
      18      1       10        4       12
      19      1       11        4       12
      20      7       13       12       49
      21      8       13       12        4
      22      8       49       12        4
      23      7       12       13       14
      24      9       12       13       50
      25      9       14       13       50
      26      7       13       14       15
      27      9       13       14       51
      28      9       15       14       51
      29      7       14       15       16
      30      7       14       15       48
      31      7       16       15       48
      32      8       15       16       17
      33      7       15       16       41
      34      8       17       16       41
      35     10       16       17       18
      36     11       17       18       19
      37     12       17       18       39
      38     13       19       18       39
      39      7       18       19       20
      40      9       18       19       52
      41      9       20       19       52
      42      7       19       20       21
      43      7       19       20       37
      44      7       21       20       37
      45      7       20       21       22
      46      7       20       21       36
      47      7       22       21       36
      48      7       21       22       23
      49      9       21       22       53
      50      9       23       22       53
      51      7       22       23       24
      52      9       22       23       54
      53      9       24       23       54
      54     11       23       24       25
      55     13       23       24       35
      56     12       25       24       35
      57     10       24       25       26
      58      8       25       26       27
      59     14       25       26       70
      60     15       27       26       70
      61      7       26       27       28
      62      8       26       27       34
      63      8       28       27       34
      64      7       27       28       29
      65      7       27       28       33
      66      7       29       28       33
      67      7       28       29       30
      68      9       28       29       55
      69      9       30       29       55
      70      7       29       30       31
      71      9       29       30       56
      72      9       31       30       56
      73      7       30       31       32
      74      9       30       31       57
      75      9       32       31       57
      76      7       31       32       33
      77      9       31       32       58
      78      9       33       32       58
      79      7       32       33       28
      80      9       32       33       59
      81      9       28       33       59
      82     10       27       34       35
      83     11       34       35       36
      84     12       34       35       24
      85     13       36       35       24
      86      7       35       36       21
      87      9       35       36       60
      88      9       21       36       60
      89      7       20       37       38
      90      9       20       37       61
      91      9       38       37       61
      92      7       37       38       39
      93      9       37       38       62
      94      9       39       38       62
      95     11       38       39       40
      96     13       38       39       18
      97     12       40       39       18
      98     10       39       40       41
      99      8       40       41       42
     100      8       40       41       16
     101      7       42       41       16
     102      7       41       42       43
     103      7       41       42       47
     104      7       43       42       47
     105      7       42       43       44
     106      9       42       43       63
     107      9       44       43       63
     108      7       43       44       45
     109      9       43       44       64
     110      9       45       44       64
     111      7       44       45       46
     112      9       44       45       65
     113      9       46       45       65
     114      7       45       46       47
     115      9       45       46       66
     116      9       47       46       66
     117      7       46       47       42
     118      9       46       47       67
     119      9       42       47       67
     120      7       15       48       49
     121      9       15       48       68
     122      9       49       48       68
     123      7       48       49       12
     124      9       48       49       69
     125      9       12       49       69
     126     16       71       70       78
     127     17       71       70       26
     128     18       78       70       26
     129     19       70       71       72
     130     20       70       71       79
     131     21       72       71       79
     132      8       71       72       73
     133      7       71       72       77
     134      8       73       72       77
     135     22       72       73       74
     136      1       72       73       80
     137      1       72       73       81
     138      5       74       73       80
     139      5       74       73       81
     140      2       80       73       81
     141     23       73       74       75
     142      5       73       74       82
     143      5       73       74       83
     144      5       75       74       82
     145      5       75       74       83
     146      2       82       74       83
     147     23       74       75       76
     148      5       74       75       84
     149      5       74       75       85
     150      5       76       75       84
     151      5       76       75       85
     152      2       84       75       85
     153      5       75       76       86
     154      5       75       76       87
     155      5       75       76       88
     156      2       86       76       87
     157      2       86       76       88
     158      2       87       76       88
     159     24       72       77       78
     160      7       72       77       89
     161     24       78       77       89
     162     25       77       78       70
     163     24       90       89       97
     164      7       90       89       77
     165     24       97       89       77
     166      7       89       90       91
     167     21       89       90       98
     168     21       91       90       98
     169      8       90       91       92
     170     19       90       91       96
     171     26       92       91       96
     172     22       91       92       93
     173      1       91       92       99
     174      1       91       92      100
     175      5       93       92       99
     176      5       93       92      100
     177      2       99       92      100
     178     23       92       93       94
     179      5       92       93      101
     180      5       92       93      102
     181      5       94       93      101
     182      5       94       93      102
     183      2      101       93      102
     184     23       93       94       95
     185      5       93       94      103
     186      5       93       94      104
     187      5       95       94      103
     188      5       95       94      104
     189      2      103       94      104
     190      5       94       95      105
     191      5       94       95      106
     192      5       94       95      107
     193      2      105       95      106
     194      2      105       95      107
     195      2      106       95      107
     196     16       91       96       97
     197     17       91       96      108
     198     18       97       96      108
     199     25       96       97       89
     200      7      109      108      145
     201     15      109      108       96
     202     15      145      108       96
     203      7      108      109      110
     204      9      108      109      146
     205      9      110      109      146
     206      7      109      110      111
     207      9      109      110      147
     208      9      111      110      147
     209      7      110      111      112
     210      7      110      111      144
     211      7      112      111      144
     212      8      111      112      113
     213      7      111      112      137
     214      8      113      112      137
     215     10      112      113      114
     216     11      113      114      115
     217     12      113      114      135
     218     13      115      114      135
     219      7      114      115      116
     220      9      114      115      148
     221      9      116      115      148
     222      7      115      116      117
     223      7      115      116      133
     224      7      117      116      133
     225      7      116      117      118
     226      7      116      117      132
     227      7      118      117      132
     228      7      117      118      119
     229      9      117      118      149
     230      9      119      118      149
     231      7      118      119      120
     232      9      118      119      150
     233      9      120      119      150
     234     11      119      120      121
     235     13      119      120      131
     236     12      121      120      131
     237     10      120      121      122
     238      8      121      122      123
     239      8      121      122      166
     240      7      123      122      166
     241      7      122      123      124
     242      8      122      123      130
     243      8      124      123      130
     244      7      123      124      125
     245      7      123      124      129
     246      7      125      124      129
     247      7      124      125      126
     248      9      124      125      151
     249      9      126      125      151
     250      7      125      126      127
     251      9      125      126      152
     252      9      127      126      152
     253      7      126      127      128
     254      9      126      127      153
     255      9      128      127      153
     256      7      127      128      129
     257      9      127      128      154
     258      9      129      128      154
     259      7      128      129      124
     260      9      128      129      155
     261      9      124      129      155
     262     10      123      130      131
     263     11      130      131      132
     264     12      130      131      120
     265     13      132      131      120
     266      7      131      132      117
     267      9      131      132      156
     268      9      117      132      156
     269      7      116      133      134
     270      9      116      133      157
     271      9      134      133      157
     272      7      133      134      135
     273      9      133      134      158
     274      9      135      134      158
     275     11      134      135      136
     276     13      134      135      114
     277     12      136      135      114
     278     10      135      136      137
     279      8      136      137      138
     280      8      136      137      112
     281      7      138      137      112
     282      7      137      138      139
     283      7      137      138      143
     284      7      139      138      143
     285      7      138      139      140
     286      9      138      139      159
     287      9      140      139      159
     288      7      139      140      141
     289      9      139      140      160
     290      9      141      140      160
     291      7      140      141      142
     292      9      140      141      161
     293      9      142      141      161
     294      7      141      142      143
     295      9      141      142      162
     296      9      143      142      162
     297      7      142      143      138
     298      9      142      143      163
     299      9      138      143      163
     300      7      111      144      145
     301      9      111      144      164
     302      9      145      144      164
     303      7      144      145      108
     304      9      144      145      165
     305      9      108      145      165
     306      7      167      166      203
     307      7      167      166      122
     308      7      203      166      122
     309      7      166      167      168
     310      9      166      167      204
     311      9      168      167      204
     312      7      167      168      169
     313      9      167      168      205
     314      9      169      168      205
     315      7      168      169      170
     316      7      168      169      202
     317      7      170      169      202
     318      8      169      170      171
     319      7      169      170      195
     320      8      171      170      195
     321     10      170      171      172
     322     11      171      172      173
     323     12      171      172      193
     324     13      173      172      193
     325      7      172      173      174
     326      9      172      173      206
     327      9      174      173      206
     328      7      173      174      175
     329      7      173      174      191
     330      7      175      174      191
     331      7      174      175      176
     332      7      174      175      190
     333      7      176      175      190
     334      7      175      176      177
     335      9      175      176      207
     336      9      177      176      207
     337      7      176      177      178
     338      9      176      177      208
     339      9      178      177      208
     340     11      177      178      179
     341     13      177      178      189
     342     12      179      178      189
     343     10      178      179      180
     344      8      179      180      181
     345     14      179      180      224
     346     15      181      180      224
     347      7      180      181      182
     348      8      180      181      188
     349      8      182      181      188
     350      7      181      182      183
     351      7      181      182      187
     352      7      183      182      187
     353      7      182      183      184
     354      9      182      183      209
     355      9      184      183      209
     356      7      183      184      185
     357      9      183      184      210
     358      9      185      184      210
     359      7      184      185      186
     360      9      184      185      211
     361      9      186      185      211
     362      7      185      186      187
     363      9      185      186      212
     364      9      187      186      212
     365      7      186      187      182
     366      9      186      187      213
     367      9      182      187      213
     368     10      181      188      189
     369     11      188      189      190
     370     12      188      189      178
     371     13      190      189      178
     372      7      189      190      175
     373      9      189      190      214
     374      9      175      190      214
     375      7      174      191      192
     376      9      174      191      215
     377      9      192      191      215
     378      7      191      192      193
     379      9      191      192      216
     380      9      193      192      216
     381     11      192      193      194
     382     13      192      193      172
     383     12      194      193      172
     384     10      193      194      195
     385      8      194      195      196
     386      8      194      195      170
     387      7      196      195      170
     388      7      195      196      197
     389      7      195      196      201
     390      7      197      196      201
     391      7      196      197      198
     392      9      196      197      217
     393      9      198      197      217
     394      7      197      198      199
     395      9      197      198      218
     396      9      199      198      218
     397      7      198      199      200
     398      9      198      199      219
     399      9      200      199      219
     400      7      199      200      201
     401      9      199      200      220
     402      9      201      200      220
     403      7      200      201      196
     404      9      200      201      221
     405      9      196      201      221
     406      7      169      202      203
     407      9      169      202      222
     408      9      203      202      222
     409      7      202      203      166
     410      9      202      203      223
     411      9      166      203      223
     412     16      225      224      232
     413     17      225      224      180
     414     18      232      224      180
     415     19      224      225      226
     416     20      224      225      233
     417     21      226      225      233
     418      8      225      226      227
     419     19      225      226      231
     420     26      227      226      231
     421     22      226      227      228
     422      1      226      227      234
     423      1      226      227      235
     424      5      228      227      234
     425      5      228      227      235
     426      2      234      227      235
     427     23      227      228      229
     428      5      227      228      236
     429      5      227      228      237
     430      5      229      228      236
     431      5      229      228      237
     432      2      236      228      237
     433     23      228      229      230
     434      5      228      229      238
     435      5      228      229      239
     436      5      230      229      238
     437      5      230      229      239
     438      2      238      229      239
     439      5      229      230      240
     440      5      229      230      241
     441      5      229      230      242
     442      2      240      230      241
     443      2      240      230      242
     444      2      241      230      242
     445     16      226      231      232
     446     17      226      231      243
     447     18      232      231      243
     448     27      231      232      224
     449      7      244      243      280
     450     15      244      243      231
     451     15      280      243      231
     452      7      243      244      245
     453      9      243      244      281
     454      9      245      244      281
     455      7      244      245      246
     456      9      244      245      282
     457      9      246      245      282
     458      7      245      246      247
     459      7      245      246      279
     460      7      247      246      279
     461      8      246      247      248
     462      7      246      247      272
     463      8      248      247      272
     464     10      247      248      249
     465     11      248      249      250
     466     12      248      249      270
     467     13      250      249      270
     468      7      249      250      251
     469      9      249      250      283
     470      9      251      250      283
     471      7      250      251      252
     472      7      250      251      268
     473      7      252      251      268
     474      7      251      252      253
     475      7      251      252      267
     476      7      253      252      267
     477      7      252      253      254
     478      9      252      253      284
     479      9      254      253      284
     480      7      253      254      255
     481      9      253      254      285
     482      9      255      254      285
     483     11      254      255      256
     484     13      254      255      266
     485     12      256      255      266
     486     10      255      256      257
     487      8      256      257      258
     488     14      256      257      301
     489     15      258      257      301
     490      7      257      258      259
     491      8      257      258      265
     492      8      259      258      265
     493      7      258      259      260
     494      7      258      259      264
     495      7      260      259      264
     496      7      259      260      261
     497      9      259      260      286
     498      9      261      260      286
     499      7      260      261      262
     500      9      260      261      287
     501      9      262      261      287
     502      7      261      262      263
     503      9      261      262      288
     504      9      263      262      288
     505      7      262      263      264
     506      9      262      263      289
     507      9      264      263      289
     508      7      263      264      259
     509      9      263      264      290
     510      9      259      264      290
     511     10      258      265      266
     512     11      265      266      267
     513     12      265      266      255
     514     13      267      266      255
     515      7      266      267      252
     516      9      266      267      291
     517      9      252      267      291
     518      7      251      268      269
     519      9      251      268      292
     520      9      269      268      292
     521      7      268      269      270
     522      9      268      269      293
     523      9      270      269      293
     524     11      269      270      271
     525     13      269      270      249
     526     12      271      270      249
     527     10      270      271      272
     528      8      271      272      273
     529      8      271      272      247
     530      7      273      272      247
     531      7      272      273      274
     532      7      272      273      278
     533      7      274      273      278
     534      7      273      274      275
     535      9      273      274      294
     536      9      275      274      294
     537      7      274      275      276
     538      9      274      275      295
     539      9      276      275      295
     540      7      275      276      277
     541      9      275      276      296
     542      9      277      276      296
     543      7      276      277      278
     544      9      276      277      297
     545      9      278      277      297
     546      7      277      278      273
     547      9      277      278      298
     548      9      273      278      298
     549      7      246      279      280
     550      9      246      279      299
     551      9      280      279      299
     552      7      279      280      243
     553      9      279      280      300
     554      9      243      280      300
     555     16      302      301      309
     556     17      302      301      257
     557     18      309      301      257
     558     19      301      302      303
     559     20      301      302      310
     560     21      303      302      310
     561      8      302      303      304
     562     19      302      303      308
     563     26      304      303      308
     564     22      303      304      305
     565      1      303      304      311
     566      1      303      304      312
     567      5      305      304      311
     568      5      305      304      312
     569      2      311      304      312
     570     23      304      305      306
     571      5      304      305      313
     572      5      304      305      314
     573      5      306      305      313
     574      5      306      305      314
     575      2      313      305      314
     576     23      305      306      307
     577      5      305      306      315
     578      5      305      306      316
     579      5      307      306      315
     580      5      307      306      316
     581      2      315      306      316
     582      5      306      307      317
     583      5      306      307      318
     584      5      306      307      319
     585      2      317      307      318
     586      2      317      307      319
     587      2      318      307      319
     588     16      303      308      309
     589     17      303      308      320
     590     18      309      308      320
     591     27      308      309      301
     592      7      321      320      357
     593     15      321      320      308
     594     15      357      320      308
     595      7      320      321      322
     596      9      320      321      358
     597      9      322      321      358
     598      7      321      322      323
     599      9      321      322      359
     600      9      323      322      359
     601      7      322      323      324
     602      7      322      323      356
     603      7      324      323      356
     604      8      323      324      325
     605      7      323      324      349
     606      8      325      324      349
     607     10      324      325      326
     608     11      325      326      327
     609     12      325      326      347
     610     13      327      326      347
     611      7      326      327      328
     612      9      326      327      360
     613      9      328      327      360
     614      7      327      328      329
     615      7      327      328      345
     616      7      329      328      345
     617      7      328      329      330
     618      7      328      329      344
     619      7      330      329      344
     620      7      329      330      331
     621      9      329      330      361
     622      9      331      330      361
     623      7      330      331      332
     624      9      330      331      362
     625      9      332      331      362
     626     11      331      332      333
     627     13      331      332      343
     628     12      333      332      343
     629     10      332      333      334
     630      8      333      334      335
     631     14      333      334      378
     632     15      335      334      378
     633      7      334      335      336
     634      8      334      335      342
     635      8      336      335      342
     636      7      335      336      337
     637      7      335      336      341
     638      7      337      336      341
     639      7      336      337      338
     640      9      336      337      363
     641      9      338      337      363
     642      7      337      338      339
     643      9      337      338      364
     644      9      339      338      364
     645      7      338      339      340
     646      9      338      339      365
     647      9      340      339      365
     648      7      339      340      341
     649      9      339      340      366
     650      9      341      340      366
     651      7      340      341      336
     652      9      340      341      367
     653      9      336      341      367
     654     10      335      342      343
     655     11      342      343      344
     656     12      342      343      332
     657     13      344      343      332
     658      7      343      344      329
     659      9      343      344      368
     660      9      329      344      368
     661      7      328      345      346
     662      9      328      345      369
     663      9      346      345      369
     664      7      345      346      347
     665      9      345      346      370
     666      9      347      346      370
     667     11      346      347      348
     668     13      346      347      326
     669     12      348      347      326
     670     10      347      348      349
     671      8      348      349      350
     672      8      348      349      324
     673      7      350      349      324
     674      7      349      350      351
     675      7      349      350      355
     676      7      351      350      355
     677      7      350      351      352
     678      9      350      351      371
     679      9      352      351      371
     680      7      351      352      353
     681      9      351      352      372
     682      9      353      352      372
     683      7      352      353      354
     684      9      352      353      373
     685      9      354      353      373
     686      7      353      354      355
     687      9      353      354      374
     688      9      355      354      374
     689      7      354      355      350
     690      9      354      355      375
     691      9      350      355      375
     692      7      323      356      357
     693      9      323      356      376
     694      9      357      356      376
     695      7      356      357      320
     696      9      356      357      377
     697      9      320      357      377
     698     16      379      378      386
     699     17      379      378      334
     700     18      386      378      334
     701     19      378      379      380
     702     20      378      379      387
     703     21      380      379      387
     704      8      379      380      381
     705     19      379      380      385
     706     26      381      380      385
     707     22      380      381      382
     708      1      380      381      388
     709      1      380      381      389
     710      5      382      381      388
     711      5      382      381      389
     712      2      388      381      389
     713     23      381      382      383
     714      5      381      382      390
     715      5      381      382      391
     716      5      383      382      390
     717      5      383      382      391
     718      2      390      382      391
     719     23      382      383      384
     720      5      382      383      392
     721      5      382      383      393
     722      5      384      383      392
     723      5      384      383      393
     724      2      392      383      393
     725      5      383      384      394
     726      5      383      384      395
     727      5      383      384      396
     728      2      394      384      395
     729      2      394      384      396
     730      2      395      384      396
     731     16      380      385      386
     732     17      380      385      397
     733     18      386      385      397
     734     27      385      386      378
     735      7      398      397      434
     736     15      398      397      385
     737     15      434      397      385
     738      7      397      398      399
     739      9      397      398      435
     740      9      399      398      435
     741      7      398      399      400
     742      9      398      399      436
     743      9      400      399      436
     744      7      399      400      401
     745      7      399      400      433
     746      7      401      400      433
     747      8      400      401      402
     748      7      400      401      426
     749      8      402      401      426
     750     10      401      402      403
     751     11      402      403      404
     752     12      402      403      424
     753     13      404      403      424
     754      7      403      404      405
     755      9      403      404      437
     756      9      405      404      437
     757      7      404      405      406
     758      7      404      405      422
     759      7      406      405      422
     760      7      405      406      407
     761      7      405      406      421
     762      7      407      406      421
     763      7      406      407      408
     764      9      406      407      438
     765      9      408      407      438
     766      7      407      408      409
     767      9      407      408      439
     768      9      409      408      439
     769     11      408      409      410
     770     13      408      409      420
     771     12      410      409      420
     772     10      409      410      411
     773      8      410      411      412
     774     14      410      411      455
     775     15      412      411      455
     776      7      411      412      413
     777      8      411      412      419
     778      8      413      412      419
     779      7      412      413      414
     780      7      412      413      418
     781      7      414      413      418
     782      7      413      414      415
     783      9      413      414      440
     784      9      415      414      440
     785      7      414      415      416
     786      9      414      415      441
     787      9      416      415      441
     788      7      415      416      417
     789      9      415      416      442
     790      9      417      416      442
     791      7      416      417      418
     792      9      416      417      443
     793      9      418      417      443
     794      7      417      418      413
     795      9      417      418      444
     796      9      413      418      444
     797     10      412      419      420
     798     11      419      420      421
     799     12      419      420      409
     800     13      421      420      409
     801      7      420      421      406
     802      9      420      421      445
     803      9      406      421      445
     804      7      405      422      423
     805      9      405      422      446
     806      9      423      422      446
     807      7      422      423      424
     808      9      422      423      447
     809      9      424      423      447
     810     11      423      424      425
     811     13      423      424      403
     812     12      425      424      403
     813     10      424      425      426
     814      8      425      426      427
     815      8      425      426      401
     816      7      427      426      401
     817      7      426      427      428
     818      7      426      427      432
     819      7      428      427      432
     820      7      427      428      429
     821      9      427      428      448
     822      9      429      428      448
     823      7      428      429      430
     824      9      428      429      449
     825      9      430      429      449
     826      7      429      430      431
     827      9      429      430      450
     828      9      431      430      450
     829      7      430      431      432
     830      9      430      431      451
     831      9      432      431      451
     832      7      431      432      427
     833      9      431      432      452
     834      9      427      432      452
     835      7      400      433      434
     836      9      400      433      453
     837      9      434      433      453
     838      7      433      434      397
     839      9      433      434      454
     840      9      397      434      454
     841     16      456      455      463
     842     17      456      455      411
     843     18      463      455      411
     844     19      455      456      457
     845     20      455      456      464
     846     21      457      456      464
     847      8      456      457      458
     848      7      456      457      462
     849      8      458      457      462
     850     22      457      458      459
     851      1      457      458      465
     852      1      457      458      466
     853      5      459      458      465
     854      5      459      458      466
     855      2      465      458      466
     856     23      458      459      460
     857      5      458      459      467
     858      5      458      459      468
     859      5      460      459      467
     860      5      460      459      468
     861      2      467      459      468
     862     23      459      460      461
     863      5      459      460      469
     864      5      459      460      470
     865      5      461      460      469
     866      5      461      460      470
     867      2      469      460      470
     868      5      460      461      471
     869      5      460      461      472
     870      5      460      461      473
     871      2      471      461      472
     872      2      471      461      473
     873      2      472      461      473
     874     24      457      462      463
     875      7      457      462      474
     876     24      463      462      474
     877     25      462      463      455
     878     24      475      474      482
     879      7      475      474      462
     880     24      482      474      462
     881      7      474      475      476
     882     21      474      475      483
     883     21      476      475      483
     884      8      475      476      477
     885      7      475      476      481
     886      8      477      476      481
     887     22      476      477      478
     888      1      476      477      484
     889      1      476      477      485
     890      5      478      477      484
     891      5      478      477      485
     892      2      484      477      485
     893     23      477      478      479
     894      5      477      478      486
     895      5      477      478      487
     896      5      479      478      486
     897      5      479      478      487
     898      2      486      478      487
     899     23      478      479      480
     900      5      478      479      488
     901      5      478      479      489
     902      5      480      479      488
     903      5      480      479      489
     904      2      488      479      489
     905      5      479      480      490
     906      5      479      480      491
     907      5      479      480      492
     908      2      490      480      491
     909      2      490      480      492
     910      2      491      480      492
     911     24      476      481      482
     912      7      476      481      493
     913     24      482      481      493
     914     25      481      482      474
     915     24      494      493      501
     916      7      494      493      481
     917     24      501      493      481
     918      7      493      494      495
     919     21      493      494      502
     920     21      495      494      502
     921      8      494      495      496
     922     19      494      495      500
     923     26      496      495      500
     924     22      495      496      497
     925      1      495      496      503
     926      1      495      496      504
     927      5      497      496      503
     928      5      497      496      504
     929      2      503      496      504
     930     23      496      497      498
     931      5      496      497      505
     932      5      496      497      506
     933      5      498      497      505
     934      5      498      497      506
     935      2      505      497      506
     936     23      497      498      499
     937      5      497      498      507
     938      5      497      498      508
     939      5      499      498      507
     940      5      499      498      508
     941      2      507      498      508
     942      5      498      499      509
     943      5      498      499      510
     944      5      498      499      511
     945      2      509      499      510
     946      2      509      499      511
     947      2      510      499      511
     948     16      495      500      501
     949     17      495      500      512
     950     18      501      500      512
     951     25      500      501      493
     952      7      513      512      549
     953     15      513      512      500
     954     15      549      512      500
     955      7      512      513      514
     956      9      512      513      550
     957      9      514      513      550
     958      7      513      514      515
     959      9      513      514      551
     960      9      515      514      551
     961      7      514      515      516
     962      7      514      515      548
     963      7      516      515      548
     964      8      515      516      517
     965      7      515      516      541
     966      8      517      516      541
     967     10      516      517      518
     968     11      517      518      519
     969     12      517      518      539
     970     13      519      518      539
     971      7      518      519      520
     972      9      518      519      552
     973      9      520      519      552
     974      7      519      520      521
     975      7      519      520      537
     976      7      521      520      537
     977      7      520      521      522
     978      7      520      521      536
     979      7      522      521      536
     980      7      521      522      523
     981      9      521      522      553
     982      9      523      522      553
     983      7      522      523      524
     984      9      522      523      554
     985      9      524      523      554
     986     11      523      524      525
     987     13      523      524      535
     988     12      525      524      535
     989     10      524      525      526
     990      8      525      526      527
     991      8      525      526      570
     992      7      527      526      570
     993      7      526      527      528
     994      8      526      527      534
     995      8      528      527      534
     996      7      527      528      529
     997      7      527      528      533
     998      7      529      528      533
     999      7      528      529      530
    1000      9      528      529      555
    1001      9      530      529      555
    1002      7      529      530      531
    1003      9      529      530      556
    1004      9      531      530      556
    1005      7      530      531      532
    1006      9      530      531      557
    1007      9      532      531      557
    1008      7      531      532      533
    1009      9      531      532      558
    1010      9      533      532      558
    1011      7      532      533      528
    1012      9      532      533      559
    1013      9      528      533      559
    1014     10      527      534      535
    1015     11      534      535      536
    1016     12      534      535      524
    1017     13      536      535      524
    1018      7      535      536      521
    1019      9      535      536      560
    1020      9      521      536      560
    1021      7      520      537      538
    1022      9      520      537      561
    1023      9      538      537      561
    1024      7      537      538      539
    1025      9      537      538      562
    1026      9      539      538      562
    1027     11      538      539      540
    1028     13      538      539      518
    1029     12      540      539      518
    1030     10      539      540      541
    1031      8      540      541      542
    1032      8      540      541      516
    1033      7      542      541      516
    1034      7      541      542      543
    1035      7      541      542      547
    1036      7      543      542      547
    1037      7      542      543      544
    1038      9      542      543      563
    1039      9      544      543      563
    1040      7      543      544      545
    1041      9      543      544      564
    1042      9      545      544      564
    1043      7      544      545      546
    1044      9      544      545      565
    1045      9      546      545      565
    1046      7      545      546      547
    1047      9      545      546      566
    1048      9      547      546      566
    1049      7      546      547      542
    1050      9      546      547      567
    1051      9      542      547      567
    1052      7      515      548      549
    1053      9      515      548      568
    1054      9      549      548      568
    1055      7      548      549      512
    1056      9      548      549      569
    1057      9      512      549      569
    1058      7      571      570      607
    1059      7      571      570      526
    1060      7      607      570      526
    1061      7      570      571      572
    1062      9      570      571      608
    1063      9      572      571      608
    1064      7      571      572      573
    1065      9      571      572      609
    1066      9      573      572      609
    1067      7      572      573      574
    1068      7      572      573      606
    1069      7      574      573      606
    1070      8      573      574      575
    1071      7      573      574      599
    1072      8      575      574      599
    1073     10      574      575      576
    1074     11      575      576      577
    1075     12      575      576      597
    1076     13      577      576      597
    1077      7      576      577      578
    1078      9      576      577      610
    1079      9      578      577      610
    1080      7      577      578      579
    1081      7      577      578      595
    1082      7      579      578      595
    1083      7      578      579      580
    1084      7      578      579      594
    1085      7      580      579      594
    1086      7      579      580      581
    1087      9      579      580      611
    1088      9      581      580      611
    1089      7      580      581      582
    1090      9      580      581      612
    1091      9      582      581      612
    1092     11      581      582      583
    1093     13      581      582      593
    1094     12      583      582      593
    1095     10      582      583      584
    1096      8      583      584      585
    1097     14      583      584      628
    1098     15      585      584      628
    1099      7      584      585      586
    1100      8      584      585      592
    1101      8      586      585      592
    1102      7      585      586      587
    1103      7      585      586      591
    1104      7      587      586      591
    1105      7      586      587      588
    1106      9      586      587      613
    1107      9      588      587      613
    1108      7      587      588      589
    1109      9      587      588      614
    1110      9      589      588      614
    1111      7      588      589      590
    1112      9      588      589      615
    1113      9      590      589      615
    1114      7      589      590      591
    1115      9      589      590      616
    1116      9      591      590      616
    1117      7      590      591      586
    1118      9      590      591      617
    1119      9      586      591      617
    1120     10      585      592      593
    1121     11      592      593      594
    1122     12      592      593      582
    1123     13      594      593      582
    1124      7      593      594      579
    1125      9      593      594      618
    1126      9      579      594      618
    1127      7      578      595      596
    1128      9      578      595      619
    1129      9      596      595      619
    1130      7      595      596      597
    1131      9      595      596      620
    1132      9      597      596      620
    1133     11      596      597      598
    1134     13      596      597      576
    1135     12      598      597      576
    1136     10      597      598      599
    1137      8      598      599      600
    1138      8      598      599      574
    1139      7      600      599      574
    1140      7      599      600      601
    1141      7      599      600      605
    1142      7      601      600      605
    1143      7      600      601      602
    1144      9      600      601      621
    1145      9      602      601      621
    1146      7      601      602      603
    1147      9      601      602      622
    1148      9      603      602      622
    1149      7      602      603      604
    1150      9      602      603      623
    1151      9      604      603      623
    1152      7      603      604      605
    1153      9      603      604      624
    1154      9      605      604      624
    1155      7      604      605      600
    1156      9      604      605      625
    1157      9      600      605      625
    1158      7      573      606      607
    1159      9      573      606      626
    1160      9      607      606      626
    1161      7      606      607      570
    1162      9      606      607      627
    1163      9      570      607      627
    1164     16      629      628      636
    1165     17      629      628      584
    1166     18      636      628      584
    1167     19      628      629      630
    1168     20      628      629      637
    1169     21      630      629      637
    1170      8      629      630      631
    1171     19      629      630      635
    1172     26      631      630      635
    1173     22      630      631      632
    1174      1      630      631      638
    1175      1      630      631      639
    1176      5      632      631      638
    1177      5      632      631      639
    1178      2      638      631      639
    1179     23      631      632      633
    1180      5      631      632      640
    1181      5      631      632      641
    1182      5      633      632      640
    1183      5      633      632      641
    1184      2      640      632      641
    1185     23      632      633      634
    1186      5      632      633      642
    1187      5      632      633      643
    1188      5      634      633      642
    1189      5      634      633      643
    1190      2      642      633      643
    1191      5      633      634      644
    1192      5      633      634      645
    1193      5      633      634      646
    1194      2      644      634      645
    1195      2      644      634      646
    1196      2      645      634      646
    1197     16      630      635      636
    1198     17      630      635      647
    1199     18      636      635      647
    1200     27      635      636      628
    1201      7      648      647      684
    1202     15      648      647      635
    1203     15      684      647      635
    1204      7      647      648      649
    1205      9      647      648      685
    1206      9      649      648      685
    1207      7      648      649      650
    1208      9      648      649      686
    1209      9      650      649      686
    1210      7      649      650      651
    1211      7      649      650      683
    1212      7      651      650      683
    1213      8      650      651      652
    1214      7      650      651      676
    1215      8      652      651      676
    1216     10      651      652      653
    1217     11      652      653      654
    1218     12      652      653      674
    1219     13      654      653      674
    1220      7      653      654      655
    1221      9      653      654      687
    1222      9      655      654      687
    1223      7      654      655      656
    1224      7      654      655      672
    1225      7      656      655      672
    1226      7      655      656      657
    1227      7      655      656      671
    1228      7      657      656      671
    1229      7      656      657      658
    1230      9      656      657      688
    1231      9      658      657      688
    1232      7      657      658      659
    1233      9      657      658      689
    1234      9      659      658      689
    1235     11      658      659      660
    1236     13      658      659      670
    1237     12      660      659      670
    1238     10      659      660      661
    1239      8      660      661      662
    1240      8      660      661      705
    1241      7      662      661      705
    1242      7      661      662      663
    1243      8      661      662      669
    1244      8      663      662      669
    1245      7      662      663      664
    1246      7      662      663      668
    1247      7      664      663      668
    1248      7      663      664      665
    1249      9      663      664      690
    1250      9      665      664      690
    1251      7      664      665      666
    1252      9      664      665      691
    1253      9      666      665      691
    1254      7      665      666      667
    1255      9      665      666      692
    1256      9      667      666      692
    1257      7      666      667      668
    1258      9      666      667      693
    1259      9      668      667      693
    1260      7      667      668      663
    1261      9      667      668      694
    1262      9      663      668      694
    1263     10      662      669      670
    1264     11      669      670      671
    1265     12      669      670      659
    1266     13      671      670      659
    1267      7      670      671      656
    1268      9      670      671      695
    1269      9      656      671      695
    1270      7      655      672      673
    1271      9      655      672      696
    1272      9      673      672      696
    1273      7      672      673      674
    1274      9      672      673      697
    1275      9      674      673      697
    1276     11      673      674      675
    1277     13      673      674      653
    1278     12      675      674      653
    1279     10      674      675      676
    1280      8      675      676      677
    1281      8      675      676      651
    1282      7      677      676      651
    1283      7      676      677      678
    1284      7      676      677      682
    1285      7      678      677      682
    1286      7      677      678      679
    1287      9      677      678      698
    1288      9      679      678      698
    1289      7      678      679      680
    1290      9      678      679      699
    1291      9      680      679      699
    1292      7      679      680      681
    1293      9      679      680      700
    1294      9      681      680      700
    1295      7      680      681      682
    1296      9      680      681      701
    1297      9      682      681      701
    1298      7      681      682      677
    1299      9      681      682      702
    1300      9      677      682      702
    1301      7      650      683      684
    1302      9      650      683      703
    1303      9      684      683      703
    1304      7      683      684      647
    1305      9      683      684      704
    1306      9      647      684      704
    1307      7      706      705      742
    1308      7      706      705      661
    1309      7      742      705      661
    1310      7      705      706      707
    1311      9      705      706      743
    1312      9      707      706      743
    1313      7      706      707      708
    1314      9      706      707      744
    1315      9      708      707      744
    1316      7      707      708      709
    1317      7      707      708      741
    1318      7      709      708      741
    1319      8      708      709      710
    1320      7      708      709      734
    1321      8      710      709      734
    1322     10      709      710      711
    1323     11      710      711      712
    1324     12      710      711      732
    1325     13      712      711      732
    1326      7      711      712      713
    1327      9      711      712      745
    1328      9      713      712      745
    1329      7      712      713      714
    1330      7      712      713      730
    1331      7      714      713      730
    1332      7      713      714      715
    1333      7      713      714      729
    1334      7      715      714      729
    1335      7      714      715      716
    1336      9      714      715      746
    1337      9      716      715      746
    1338      7      715      716      717
    1339      9      715      716      747
    1340      9      717      716      747
    1341     11      716      717      718
    1342     13      716      717      728
    1343     12      718      717      728
    1344     10      717      718      719
    1345      8      718      719      720
    1346     14      718      719      763
    1347     15      720      719      763
    1348      7      719      720      721
    1349      8      719      720      727
    1350      8      721      720      727
    1351      7      720      721      722
    1352      7      720      721      726
    1353      7      722      721      726
    1354      7      721      722      723
    1355      9      721      722      748
    1356      9      723      722      748
    1357      7      722      723      724
    1358      9      722      723      749
    1359      9      724      723      749
    1360      7      723      724      725
    1361      9      723      724      750
    1362      9      725      724      750
    1363      7      724      725      726
    1364      9      724      725      751
    1365      9      726      725      751
    1366      7      725      726      721
    1367      9      725      726      752
    1368      9      721      726      752
    1369     10      720      727      728
    1370     11      727      728      729
    1371     12      727      728      717
    1372     13      729      728      717
    1373      7      728      729      714
    1374      9      728      729      753
    1375      9      714      729      753
    1376      7      713      730      731
    1377      9      713      730      754
    1378      9      731      730      754
    1379      7      730      731      732
    1380      9      730      731      755
    1381      9      732      731      755
    1382     11      731      732      733
    1383     13      731      732      711
    1384     12      733      732      711
    1385     10      732      733      734
    1386      8      733      734      735
    1387      8      733      734      709
    1388      7      735      734      709
    1389      7      734      735      736
    1390      7      734      735      740
    1391      7      736      735      740
    1392      7      735      736      737
    1393      9      735      736      756
    1394      9      737      736      756
    1395      7      736      737      738
    1396      9      736      737      757
    1397      9      738      737      757
    1398      7      737      738      739
    1399      9      737      738      758
    1400      9      739      738      758
    1401      7      738      739      740
    1402      9      738      739      759
    1403      9      740      739      759
    1404      7      739      740      735
    1405      9      739      740      760
    1406      9      735      740      760
    1407      7      708      741      742
    1408      9      708      741      761
    1409      9      742      741      761
    1410      7      741      742      705
    1411      9      741      742      762
    1412      9      705      742      762
    1413     16      764      763      771
    1414     17      764      763      719
    1415     18      771      763      719
    1416     19      763      764      765
    1417     20      763      764      772
    1418     21      765      764      772
    1419      8      764      765      766
    1420      7      764      765      770
    1421      8      766      765      770
    1422     22      765      766      767
    1423      1      765      766      773
    1424      1      765      766      774
    1425      5      767      766      773
    1426      5      767      766      774
    1427      2      773      766      774
    1428     23      766      767      768
    1429      5      766      767      775
    1430      5      766      767      776
    1431      5      768      767      775
    1432      5      768      767      776
    1433      2      775      767      776
    1434     23      767      768      769
    1435      5      767      768      777
    1436      5      767      768      778
    1437      5      769      768      777
    1438      5      769      768      778
    1439      2      777      768      778
    1440      5      768      769      779
    1441      5      768      769      780
    1442      5      768      769      781
    1443      2      779      769      780
    1444      2      779      769      781
    1445      2      780      769      781
    1446     24      765      770      771
    1447      7      765      770      782
    1448     24      771      770      782
    1449     25      770      771      763
    1450     24      783      782      790
    1451      7      783      782      770
    1452     24      790      782      770
    1453      7      782      783      784
    1454     21      782      783      791
    1455     21      784      783      791
    1456      8      783      784      785
    1457      7      783      784      789
    1458      8      785      784      789
    1459     22      784      785      786
    1460      1      784      785      792
    1461      1      784      785      793
    1462      5      786      785      792
    1463      5      786      785      793
    1464      2      792      785      793
    1465     23      785      786      787
    1466      5      785      786      794
    1467      5      785      786      795
    1468      5      787      786      794
    1469      5      787      786      795
    1470      2      794      786      795
    1471     23      786      787      788
    1472      5      786      787      796
    1473      5      786      787      797
    1474      5      788      787      796
    1475      5      788      787      797
    1476      2      796      787      797
    1477      5      787      788      798
    1478      5      787      788      799
    1479      5      787      788      800
    1480      2      798      788      799
    1481      2      798      788      800
    1482      2      799      788      800
    1483     24      784      789      790
    1484      7      784      789      801
    1485     24      790      789      801
    1486     25      789      790      782
    1487     24      802      801      809
    1488      7      802      801      789
    1489     24      809      801      789
    1490      7      801      802      803
    1491     21      801      802      810
    1492     21      803      802      810
    1493      8      802      803      804
    1494     19      802      803      808
    1495     26      804      803      808
    1496     22      803      804      805
    1497      1      803      804      811
    1498      1      803      804      812
    1499      5      805      804      811
    1500      5      805      804      812
    1501      2      811      804      812
    1502     23      804      805      806
    1503      5      804      805      813
    1504      5      804      805      814
    1505      5      806      805      813
    1506      5      806      805      814
    1507      2      813      805      814
    1508     23      805      806      807
    1509      5      805      806      815
    1510      5      805      806      816
    1511      5      807      806      815
    1512      5      807      806      816
    1513      2      815      806      816
    1514      5      806      807      817
    1515      5      806      807      818
    1516      5      806      807      819
    1517      2      817      807      818
    1518      2      817      807      819
    1519      2      818      807      819
    1520     16      803      808      809
    1521     17      803      808      820
    1522     18      809      808      820
    1523     25      808      809      801
    1524      7      821      820      857
    1525     15      821      820      808
    1526     15      857      820      808
    1527      7      820      821      822
    1528      9      820      821      858
    1529      9      822      821      858
    1530      7      821      822      823
    1531      9      821      822      859
    1532      9      823      822      859
    1533      7      822      823      824
    1534      7      822      823      856
    1535      7      824      823      856
    1536      8      823      824      825
    1537      7      823      824      849
    1538      8      825      824      849
    1539     10      824      825      826
    1540     11      825      826      827
    1541     12      825      826      847
    1542     13      827      826      847
    1543      7      826      827      828
    1544      9      826      827      860
    1545      9      828      827      860
    1546      7      827      828      829
    1547      7      827      828      845
    1548      7      829      828      845
    1549      7      828      829      830
    1550      7      828      829      844
    1551      7      830      829      844
    1552      7      829      830      831
    1553      9      829      830      861
    1554      9      831      830      861
    1555      7      830      831      832
    1556      9      830      831      862
    1557      9      832      831      862
    1558     11      831      832      833
    1559     13      831      832      843
    1560     12      833      832      843
    1561     10      832      833      834
    1562      8      833      834      835
    1563     14      833      834      878
    1564     15      835      834      878
    1565      7      834      835      836
    1566      8      834      835      842
    1567      8      836      835      842
    1568      7      835      836      837
    1569      7      835      836      841
    1570      7      837      836      841
    1571      7      836      837      838
    1572      9      836      837      863
    1573      9      838      837      863
    1574      7      837      838      839
    1575      9      837      838      864
    1576      9      839      838      864
    1577      7      838      839      840
    1578      9      838      839      865
    1579      9      840      839      865
    1580      7      839      840      841
    1581      9      839      840      866
    1582      9      841      840      866
    1583      7      840      841      836
    1584      9      840      841      867
    1585      9      836      841      867
    1586     10      835      842      843
    1587     11      842      843      844
    1588     12      842      843      832
    1589     13      844      843      832
    1590      7      843      844      829
    1591      9      843      844      868
    1592      9      829      844      868
    1593      7      828      845      846
    1594      9      828      845      869
    1595      9      846      845      869
    1596      7      845      846      847
    1597      9      845      846      870
    1598      9      847      846      870
    1599     11      846      847      848
    1600     13      846      847      826
    1601     12      848      847      826
    1602     10      847      848      849
    1603      8      848      849      850
    1604      8      848      849      824
    1605      7      850      849      824
    1606      7      849      850      851
    1607      7      849      850      855
    1608      7      851      850      855
    1609      7      850      851      852
    1610      9      850      851      871
    1611      9      852      851      871
    1612      7      851      852      853
    1613      9      851      852      872
    1614      9      853      852      872
    1615      7      852      853      854
    1616      9      852      853      873
    1617      9      854      853      873
    1618      7      853      854      855
    1619      9      853      854      874
    1620      9      855      854      874
    1621      7      854      855      850
    1622      9      854      855      875
    1623      9      850      855      875
    1624      7      823      856      857
    1625      9      823      856      876
    1626      9      857      856      876
    1627      7      856      857      820
    1628      9      856      857      877
    1629      9      820      857      877
    1630     16      879      878      886
    1631     17      879      878      834
    1632     18      886      878      834
    1633     19      878      879      880
    1634     20      878      879      887
    1635     21      880      879      887
    1636      8      879      880      881
    1637     19      879      880      885
    1638     26      881      880      885
    1639     22      880      881      882
    1640      1      880      881      888
    1641      1      880      881      889
    1642      5      882      881      888
    1643      5      882      881      889
    1644      2      888      881      889
    1645     23      881      882      883
    1646      5      881      882      890
    1647      5      881      882      891
    1648      5      883      882      890
    1649      5      883      882      891
    1650      2      890      882      891
    1651     23      882      883      884
    1652      5      882      883      892
    1653      5      882      883      893
    1654      5      884      883      892
    1655      5      884      883      893
    1656      2      892      883      893
    1657      5      883      884      894
    1658      5      883      884      895
    1659      5      883      884      896
    1660      2      894      884      895
    1661      2      894      884      896
    1662      2      895      884      896
    1663     16      880      885      886
    1664     17      880      885      897
    1665     18      886      885      897
    1666     27      885      886      878
    1667      7      898      897      934
    1668     15      898      897      885
    1669     15      934      897      885
    1670      7      897      898      899
    1671      9      897      898      935
    1672      9      899      898      935
    1673      7      898      899      900
    1674      9      898      899      936
    1675      9      900      899      936
    1676      7      899      900      901
    1677      7      899      900      933
    1678      7      901      900      933
    1679      8      900      901      902
    1680      7      900      901      926
    1681      8      902      901      926
    1682     10      901      902      903
    1683     11      902      903      904
    1684     12      902      903      924
    1685     13      904      903      924
    1686      7      903      904      905
    1687      9      903      904      937
    1688      9      905      904      937
    1689      7      904      905      906
    1690      7      904      905      922
    1691      7      906      905      922
    1692      7      905      906      907
    1693      7      905      906      921
    1694      7      907      906      921
    1695      7      906      907      908
    1696      9      906      907      938
    1697      9      908      907      938
    1698      7      907      908      909
    1699      9      907      908      939
    1700      9      909      908      939
    1701     11      908      909      910
    1702     13      908      909      920
    1703     12      910      909      920
    1704     10      909      910      911
    1705      8      910      911      912
    1706      8      910      911      955
    1707      7      912      911      955
    1708      7      911      912      913
    1709      8      911      912      919
    1710      8      913      912      919
    1711      7      912      913      914
    1712      7      912      913      918
    1713      7      914      913      918
    1714      7      913      914      915
    1715      9      913      914      940
    1716      9      915      914      940
    1717      7      914      915      916
    1718      9      914      915      941
    1719      9      916      915      941
    1720      7      915      916      917
    1721      9      915      916      942
    1722      9      917      916      942
    1723      7      916      917      918
    1724      9      916      917      943
    1725      9      918      917      943
    1726      7      917      918      913
    1727      9      917      918      944
    1728      9      913      918      944
    1729     10      912      919      920
    1730     11      919      920      921
    1731     12      919      920      909
    1732     13      921      920      909
    1733      7      920      921      906
    1734      9      920      921      945
    1735      9      906      921      945
    1736      7      905      922      923
    1737      9      905      922      946
    1738      9      923      922      946
    1739      7      922      923      924
    1740      9      922      923      947
    1741      9      924      923      947
    1742     11      923      924      925
    1743     13      923      924      903
    1744     12      925      924      903
    1745     10      924      925      926
    1746      8      925      926      927
    1747      8      925      926      901
    1748      7      927      926      901
    1749      7      926      927      928
    1750      7      926      927      932
    1751      7      928      927      932
    1752      7      927      928      929
    1753      9      927      928      948
    1754      9      929      928      948
    1755      7      928      929      930
    1756      9      928      929      949
    1757      9      930      929      949
    1758      7      929      930      931
    1759      9      929      930      950
    1760      9      931      930      950
    1761      7      930      931      932
    1762      9      930      931      951
    1763      9      932      931      951
    1764      7      931      932      927
    1765      9      931      932      952
    1766      9      927      932      952
    1767      7      900      933      934
    1768      9      900      933      953
    1769      9      934      933      953
    1770      7      933      934      897
    1771      9      933      934      954
    1772      9      897      934      954
    1773      7      956      955      992
    1774      7      956      955      911
    1775      7      992      955      911
    1776      7      955      956      957
    1777      9      955      956      993
    1778      9      957      956      993
    1779      7      956      957      958
    1780      9      956      957      994
    1781      9      958      957      994
    1782      7      957      958      959
    1783      7      957      958      991
    1784      7      959      958      991
    1785      8      958      959      960
    1786      7      958      959      984
    1787      8      960      959      984
    1788     10      959      960      961
    1789     11      960      961      962
    1790     12      960      961      982
    1791     13      962      961      982
    1792      7      961      962      963
    1793      9      961      962      995
    1794      9      963      962      995
    1795      7      962      963      964
    1796      7      962      963      980
    1797      7      964      963      980
    1798      7      963      964      965
    1799      7      963      964      979
    1800      7      965      964      979
    1801      7      964      965      966
    1802      9      964      965      996
    1803      9      966      965      996
    1804      7      965      966      967
    1805      9      965      966      997
    1806      9      967      966      997
    1807     11      966      967      968
    1808     13      966      967      978
    1809     12      968      967      978
    1810     10      967      968      969
    1811      8      968      969      970
    1812     14      968      969     1013
    1813     15      970      969     1013
    1814      7      969      970      971
    1815      8      969      970      977
    1816      8      971      970      977
    1817      7      970      971      972
    1818      7      970      971      976
    1819      7      972      971      976
    1820      7      971      972      973
    1821      9      971      972      998
    1822      9      973      972      998
    1823      7      972      973      974
    1824      9      972      973      999
    1825      9      974      973      999
    1826      7      973      974      975
    1827      9      973      974     1000
    1828      9      975      974     1000
    1829      7      974      975      976
    1830      9      974      975     1001
    1831      9      976      975     1001
    1832      7      975      976      971
    1833      9      975      976     1002
    1834      9      971      976     1002
    1835     10      970      977      978
    1836     11      977      978      979
    1837     12      977      978      967
    1838     13      979      978      967
    1839      7      978      979      964
    1840      9      978      979     1003
    1841      9      964      979     1003
    1842      7      963      980      981
    1843      9      963      980     1004
    1844      9      981      980     1004
    1845      7      980      981      982
    1846      9      980      981     1005
    1847      9      982      981     1005
    1848     11      981      982      983
    1849     13      981      982      961
    1850     12      983      982      961
    1851     10      982      983      984
    1852      8      983      984      985
    1853      8      983      984      959
    1854      7      985      984      959
    1855      7      984      985      986
    1856      7      984      985      990
    1857      7      986      985      990
    1858      7      985      986      987
    1859      9      985      986     1006
    1860      9      987      986     1006
    1861      7      986      987      988
    1862      9      986      987     1007
    1863      9      988      987     1007
    1864      7      987      988      989
    1865      9      987      988     1008
    1866      9      989      988     1008
    1867      7      988      989      990
    1868      9      988      989     1009
    1869      9      990      989     1009
    1870      7      989      990      985
    1871      9      989      990     1010
    1872      9      985      990     1010
    1873      7      958      991      992
    1874      9      958      991     1011
    1875      9      992      991     1011
    1876      7      991      992      955
    1877      9      991      992     1012
    1878      9      955      992     1012
    1879     16     1014     1013     1021
    1880     17     1014     1013      969
    1881     18     1021     1013      969
    1882     19     1013     1014     1015
    1883     20     1013     1014     1022
    1884     21     1015     1014     1022
    1885      8     1014     1015     1016
    1886     19     1014     1015     1020
    1887     26     1016     1015     1020
    1888     22     1015     1016     1017
    1889      1     1015     1016     1023
    1890      1     1015     1016     1024
    1891      5     1017     1016     1023
    1892      5     1017     1016     1024
    1893      2     1023     1016     1024
    1894     23     1016     1017     1018
    1895      5     1016     1017     1025
    1896      5     1016     1017     1026
    1897      5     1018     1017     1025
    1898      5     1018     1017     1026
    1899      2     1025     1017     1026
    1900     23     1017     1018     1019
    1901      5     1017     1018     1027
    1902      5     1017     1018     1028
    1903      5     1019     1018     1027
    1904      5     1019     1018     1028
    1905      2     1027     1018     1028
    1906      5     1018     1019     1029
    1907      5     1018     1019     1030
    1908      5     1018     1019     1031
    1909      2     1029     1019     1030
    1910      2     1029     1019     1031
    1911      2     1030     1019     1031
    1912     16     1015     1020     1021
    1913     17     1015     1020     1032
    1914     18     1021     1020     1032
    1915     27     1020     1021     1013
    1916      7     1033     1032     1069
    1917     15     1033     1032     1020
    1918     15     1069     1032     1020
    1919      7     1032     1033     1034
    1920      9     1032     1033     1070
    1921      9     1034     1033     1070
    1922      7     1033     1034     1035
    1923      9     1033     1034     1071
    1924      9     1035     1034     1071
    1925      7     1034     1035     1036
    1926      7     1034     1035     1068
    1927      7     1036     1035     1068
    1928      8     1035     1036     1037
    1929      7     1035     1036     1061
    1930      8     1037     1036     1061
    1931     10     1036     1037     1038
    1932     11     1037     1038     1039
    1933     12     1037     1038     1059
    1934     13     1039     1038     1059
    1935      7     1038     1039     1040
    1936      9     1038     1039     1072
    1937      9     1040     1039     1072
    1938      7     1039     1040     1041
    1939      7     1039     1040     1057
    1940      7     1041     1040     1057
    1941      7     1040     1041     1042
    1942      7     1040     1041     1056
    1943      7     1042     1041     1056
    1944      7     1041     1042     1043
    1945      9     1041     1042     1073
    1946      9     1043     1042     1073
    1947      7     1042     1043     1044
    1948      9     1042     1043     1074
    1949      9     1044     1043     1074
    1950     11     1043     1044     1045
    1951     13     1043     1044     1055
    1952     12     1045     1044     1055
    1953     28     1044     1045     1046
    1954     29     1045     1046     1047
    1955     30     1045     1046     1093
    1956      8     1047     1046     1093
    1957      7     1046     1047     1048
    1958     29     1046     1047     1054
    1959      8     1048     1047     1054
    1960      7     1047     1048     1049
    1961      7     1047     1048     1053
    1962      7     1049     1048     1053
    1963      7     1048     1049     1050
    1964      9     1048     1049     1075
    1965      9     1050     1049     1075
    1966      7     1049     1050     1051
    1967      9     1049     1050     1076
    1968      9     1051     1050     1076
    1969      7     1050     1051     1052
    1970      9     1050     1051     1077
    1971      9     1052     1051     1077
    1972      7     1051     1052     1053
    1973      9     1051     1052     1078
    1974      9     1053     1052     1078
    1975      7     1052     1053     1048
    1976      9     1052     1053     1079
    1977      9     1048     1053     1079
    1978     10     1047     1054     1055
    1979     11     1054     1055     1056
    1980     12     1054     1055     1044
    1981     13     1056     1055     1044
    1982      7     1055     1056     1041
    1983      9     1055     1056     1080
    1984      9     1041     1056     1080
    1985      7     1040     1057     1058
    1986      9     1040     1057     1081
    1987      9     1058     1057     1081
    1988      7     1057     1058     1059
    1989      9     1057     1058     1082
    1990      9     1059     1058     1082
    1991     11     1058     1059     1060
    1992     13     1058     1059     1038
    1993     12     1060     1059     1038
    1994     10     1059     1060     1061
    1995      8     1060     1061     1062
    1996      8     1060     1061     1036
    1997      7     1062     1061     1036
    1998      7     1061     1062     1063
    1999      7     1061     1062     1067
    2000      7     1063     1062     1067
    2001      7     1062     1063     1064
    2002      9     1062     1063     1083
    2003      9     1064     1063     1083
    2004      7     1063     1064     1065
    2005      9     1063     1064     1084
    2006      9     1065     1064     1084
    2007      7     1064     1065     1066
    2008      9     1064     1065     1085
    2009      9     1066     1065     1085
    2010      7     1065     1066     1067
    2011      9     1065     1066     1086
    2012      9     1067     1066     1086
    2013      7     1066     1067     1062
    2014      9     1066     1067     1087
    2015      9     1062     1067     1087
    2016      7     1035     1068     1069
    2017      9     1035     1068     1088
    2018      9     1069     1068     1088
    2019      7     1068     1069     1032
    2020      9     1068     1069     1089
    2021      9     1032     1069     1089
    2022      1     1091     1090     1094
    2023      1     1091     1090     1095
    2024      1     1091     1090     1096
    2025      2     1094     1090     1095
    2026      2     1094     1090     1096
    2027      2     1095     1090     1096
    2028      3     1090     1091     1092
    2029      4     1091     1092     1093
    2030      1     1091     1092     1097
    2031      1     1091     1092     1098
    2032      5     1093     1092     1097
    2033      5     1093     1092     1098
    2034      2     1097     1092     1098
    2035      5     1092     1093     1099
    2036      5     1092     1093     1100
    2037      6     1092     1093     1046
    2038      2     1099     1093     1100
    2039      1     1099     1093     1046
    2040      1     1100     1093     1046

Dihedrals

       1      1        5        1        2        3
       2      1        6        1        2        3
       3      1        7        1        2        3
       4      2        1        2        3        4
       5      1        1        2        3        8
       6      1        1        2        3        9
       7      3        2        3        4       10
       8      3        2        3        4       11
       9      4        2        3        4       12
      10      3        8        3        4       10
      11      3        8        3        4       11
      12      5        8        3        4       12
      13      3        9        3        4       10
      14      3        9        3        4       11
      15      5        9        3        4       12
      16      6       49       12       13       14
      17      6       49       12       13       50
      18      6        4       12       13       14
      19      6        4       12       13       50
      20      6       12       13       14       15
      21      6       12       13       14       51
      22      6       50       13       14       15
      23      6       50       13       14       51
      24      6       13       14       15       16
      25      6       13       14       15       48
      26      6       51       14       15       16
      27      6       51       14       15       48
      28      7       14       15       16       17
      29      8       14       15       16       41
      30      7       48       15       16       17
      31      8       48       15       16       41
      32      6       15       16       17       18
      33      6       41       16       17       18
      34      6       16       17       18       19
      35      6       16       17       18       39
      36      9       17       18       19       20
      37      9       17       18       19       52
      38      9       39       18       19       20
      39      6       39       18       19       52
      40      6       18       19       20       21
      41      6       18       19       20       37
      42      6       52       19       20       21
      43      6       52       19       20       37
      44      8       19       20       21       22
      45      8       19       20       21       36
      46      8       37       20       21       22
      47      8       37       20       21       36
      48      6       20       21       22       23
      49      6       20       21       22       53
      50      6       36       21       22       23
      51      6       36       21       22       53
      52      6       21       22       23       24
      53      6       21       22       23       54
      54      6       53       22       23       24
      55      6       53       22       23       54
      56      9       22       23       24       25
      57      6       22       23       24       35
      58      9       54       23       24       25
      59      6       54       23       24       35
      60      6       23       24       25       26
      61      6       35       24       25       26
      62      6       24       25       26       27
      63      6       24       25       26       70
      64      7       25       26       27       28
      65     10       25       26       27       34
      66      8       70       26       27       28
      67      7       70       26       27       34
      68      8       26       27       28       29
      69      8       26       27       28       33
      70      7       34       27       28       29
      71      7       34       27       28       33
      72      6       27       28       29       30
      73      6       27       28       29       55
      74      6       33       28       29       30
      75      6       33       28       29       55
      76      6       28       29       30       31
      77      6       28       29       30       56
      78      6       55       29       30       31
      79      6       55       29       30       56
      80      6       29       30       31       32
      81      6       29       30       31       57
      82      6       56       30       31       32
      83      6       56       30       31       57
      84      6       30       31       32       33
      85      6       30       31       32       58
      86      6       57       31       32       33
      87      6       57       31       32       58
      88      6       31       32       33       28
      89      6       31       32       33       59
      90      6       58       32       33       28
      91      6       58       32       33       59
      92      6       26       27       34       35
      93      6       28       27       34       35
      94      6       27       34       35       36
      95      6       27       34       35       24
      96      9       34       35       36       21
      97      9       34       35       36       60
      98      9       24       35       36       21
      99      6       24       35       36       60
     100      6       19       20       37       38
     101      6       19       20       37       61
     102      6       21       20       37       38
     103      6       21       20       37       61
     104      6       20       37       38       39
     105      6       20       37       38       62
     106      6       61       37       38       39
     107      6       61       37       38       62
     108      9       37       38       39       40
     109      6       37       38       39       18
     110      9       62       38       39       40
     111      6       62       38       39       18
     112      6       38       39       40       41
     113      6       18       39       40       41
     114      6       39       40       41       42
     115      6       39       40       41       16
     116      7       40       41       42       43
     117      7       40       41       42       47
     118      8       16       41       42       43
     119      8       16       41       42       47
     120      6       41       42       43       44
     121      6       41       42       43       63
     122      6       47       42       43       44
     123      6       47       42       43       63
     124      6       42       43       44       45
     125      6       42       43       44       64
     126      6       63       43       44       45
     127      6       63       43       44       64
     128      6       43       44       45       46
     129      6       43       44       45       65
     130      6       64       44       45       46
     131      6       64       44       45       65
     132      6       44       45       46       47
     133      6       44       45       46       66
     134      6       65       45       46       47
     135      6       65       45       46       66
     136      6       45       46       47       42
     137      6       45       46       47       67
     138      6       66       46       47       42
     139      6       66       46       47       67
     140      6       14       15       48       49
     141      6       14       15       48       68
     142      6       16       15       48       49
     143      6       16       15       48       68
     144      6       15       48       49       12
     145      6       15       48       49       69
     146      6       68       48       49       12
     147      6       68       48       49       69
     148      6       48       49       12       13
     149      6       48       49       12        4
     150      6       69       49       12       13
     151      6       69       49       12        4
     152      7       40       41       16       15
     153     10       40       41       16       17
     154      8       42       41       16       15
     155      7       42       41       16       17
     156      6       46       47       42       41
     157      6       46       47       42       43
     158      6       67       47       42       41
     159      6       67       47       42       43
     160      6       38       39       18       17
     161      6       38       39       18       19
     162      6       40       39       18       17
     163      6       40       39       18       19
     164      6       35       36       21       20
     165      6       35       36       21       22
     166      6       60       36       21       20
     167      6       60       36       21       22
     168      6       34       35       24       23
     169      6       34       35       24       25
     170      6       36       35       24       23
     171      6       36       35       24       25
     172      6       32       33       28       27
     173      6       32       33       28       29
     174      6       59       33       28       27
     175      6       59       33       28       29
     176     11        3        4       12       13
     177     11        3        4       12       49
     178     12       10        4       12       13
     179     12       10        4       12       49
     180     12       11        4       12       13
     181     12       11        4       12       49
     182      6       78       70       71       72
     183     13       78       70       71       79
     184      6       26       70       71       72
     185      6       26       70       71       79
     186      6       70       71       72       73
     187      6       70       71       72       77
     188      6       79       71       72       73
     189      6       79       71       72       77
     190     12       71       72       73       74
     191     12       71       72       73       80
     192     12       71       72       73       81
     193     12       77       72       73       74
     194     12       77       72       73       80
     195     12       77       72       73       81
     196     14       72       73       74       75
     197      5       72       73       74       82
     198      5       72       73       74       83
     199      3       80       73       74       75
     200      3       80       73       74       82
     201      3       80       73       74       83
     202      3       81       73       74       75
     203      3       81       73       74       82
     204      3       81       73       74       83
     205     14       73       74       75       76
     206      3       73       74       75       84
     207      3       73       74       75       85
     208      3       82       74       75       76
     209      3       82       74       75       84
     210      3       82       74       75       85
     211      3       83       74       75       76
     212      3       83       74       75       84
     213      3       83       74       75       85
     214      3       74       75       76       86
     215      3       74       75       76       87
     216      3       74       75       76       88
     217      3       84       75       76       86
     218      3       84       75       76       87
     219      3       84       75       76       88
     220      3       85       75       76       86
     221      3       85       75       76       87
     222      3       85       75       76       88
     223      6       71       72       77       78
     224      6       71       72       77       89
     225     15       73       72       77       78
     226      6       73       72       77       89
     227      6       72       77       78       70
     228      6       89       77       78       70
     229      6       77       78       70       71
     230      6       77       78       70       26
     231     16       25       26       70       71
     232     17       25       26       70       78
     233     18       27       26       70       71
     234     19       27       26       70       78
     235      6       97       89       90       91
     236      6       97       89       90       98
     237      6       77       89       90       91
     238      6       77       89       90       98
     239      6       89       90       91       92
     240      6       89       90       91       96
     241      6       98       90       91       92
     242      6       98       90       91       96
     243     12       90       91       92       93
     244     12       90       91       92       99
     245     12       90       91       92      100
     246     12       96       91       92       93
     247     12       96       91       92       99
     248     12       96       91       92      100
     249     14       91       92       93       94
     250      5       91       92       93      101
     251      5       91       92       93      102
     252      3       99       92       93       94
     253      3       99       92       93      101
     254      3       99       92       93      102
     255      3      100       92       93       94
     256      3      100       92       93      101
     257      3      100       92       93      102
     258     14       92       93       94       95
     259      3       92       93       94      103
     260      3       92       93       94      104
     261      3      101       93       94       95
     262      3      101       93       94      103
     263      3      101       93       94      104
     264      3      102       93       94       95
     265      3      102       93       94      103
     266      3      102       93       94      104
     267      3       93       94       95      105
     268      3       93       94       95      106
     269      3       93       94       95      107
     270      3      103       94       95      105
     271      3      103       94       95      106
     272      3      103       94       95      107
     273      3      104       94       95      105
     274      3      104       94       95      106
     275      3      104       94       95      107
     276      6       90       91       96       97
     277      6       90       91       96      108
     278      6       92       91       96       97
     279      6       92       91       96      108
     280      6       91       96       97       89
     281      6      108       96       97       89
     282      6       96       97       89       90
     283      6       96       97       89       77
     284      6       72       77       89       90
     285      6       72       77       89       97
     286      6       78       77       89       90
     287      6       78       77       89       97
     288      6      145      108      109      110
     289      6      145      108      109      146
     290      6       96      108      109      110
     291      6       96      108      109      146
     292      6      108      109      110      111
     293      6      108      109      110      147
     294      6      146      109      110      111
     295      6      146      109      110      147
     296      6      109      110      111      112
     297      6      109      110      111      144
     298      6      147      110      111      112
     299      6      147      110      111      144
     300      7      110      111      112      113
     301      8      110      111      112      137
     302      7      144      111      112      113
     303      8      144      111      112      137
     304      6      111      112      113      114
     305      6      137      112      113      114
     306      6      112      113      114      115
     307      6      112      113      114      135
     308      9      113      114      115      116
     309      9      113      114      115      148
     310      9      135      114      115      116
     311      6      135      114      115      148
     312      6      114      115      116      117
     313      6      114      115      116      133
     314      6      148      115      116      117
     315      6      148      115      116      133
     316      8      115      116      117      118
     317      8      115      116      117      132
     318      8      133      116      117      118
     319      8      133      116      117      132
     320      6      116      117      118      119
     321      6      116      117      118      149
     322      6      132      117      118      119
     323      6      132      117      118      149
     324      6      117      118      119      120
     325      6      117      118      119      150
     326      6      149      118      119      120
     327      6      149      118      119      150
     328      9      118      119      120      121
     329      6      118      119      120      131
     330      9      150      119      120      121
     331      6      150      119      120      131
     332      6      119      120      121      122
     333      6      131      120      121      122
     334      6      120      121      122      123
     335      6      120      121      122      166
     336      7      121      122      123      124
     337     10      121      122      123      130
     338      8      166      122      123      124
     339      7      166      122      123      130
     340      8      122      123      124      125
     341      8      122      123      124      129
     342      7      130      123      124      125
     343      7      130      123      124      129
     344      6      123      124      125      126
     345      6      123      124      125      151
     346      6      129      124      125      126
     347      6      129      124      125      151
     348      6      124      125      126      127
     349      6      124      125      126      152
     350      6      151      125      126      127
     351      6      151      125      126      152
     352      6      125      126      127      128
     353      6      125      126      127      153
     354      6      152      126      127      128
     355      6      152      126      127      153
     356      6      126      127      128      129
     357      6      126      127      128      154
     358      6      153      127      128      129
     359      6      153      127      128      154
     360      6      127      128      129      124
     361      6      127      128      129      155
     362      6      154      128      129      124
     363      6      154      128      129      155
     364      6      122      123      130      131
     365      6      124      123      130      131
     366      6      123      130      131      132
     367      6      123      130      131      120
     368      9      130      131      132      117
     369      9      130      131      132      156
     370      9      120      131      132      117
     371      6      120      131      132      156
     372      6      115      116      133      134
     373      6      115      116      133      157
     374      6      117      116      133      134
     375      6      117      116      133      157
     376      6      116      133      134      135
     377      6      116      133      134      158
     378      6      157      133      134      135
     379      6      157      133      134      158
     380      9      133      134      135      136
     381      6      133      134      135      114
     382      9      158      134      135      136
     383      6      158      134      135      114
     384      6      134      135      136      137
     385      6      114      135      136      137
     386      6      135      136      137      138
     387      6      135      136      137      112
     388      7      136      137      138      139
     389      7      136      137      138      143
     390      8      112      137      138      139
     391      8      112      137      138      143
     392      6      137      138      139      140
     393      6      137      138      139      159
     394      6      143      138      139      140
     395      6      143      138      139      159
     396      6      138      139      140      141
     397      6      138      139      140      160
     398      6      159      139      140      141
     399      6      159      139      140      160
     400      6      139      140      141      142
     401      6      139      140      141      161
     402      6      160      140      141      142
     403      6      160      140      141      161
     404      6      140      141      142      143
     405      6      140      141      142      162
     406      6      161      141      142      143
     407      6      161      141      142      162
     408      6      141      142      143      138
     409      6      141      142      143      163
     410      6      162      142      143      138
     411      6      162      142      143      163
     412      6      110      111      144      145
     413      6      110      111      144      164
     414      6      112      111      144      145
     415      6      112      111      144      164
     416      6      111      144      145      108
     417      6      111      144      145      165
     418      6      164      144      145      108
     419      6      164      144      145      165
     420      6      144      145      108      109
     421      6      144      145      108       96
     422      6      165      145      108      109
     423      6      165      145      108       96
     424      7      136      137      112      111
     425     10      136      137      112      113
     426      8      138      137      112      111
     427      7      138      137      112      113
     428      6      142      143      138      137
     429      6      142      143      138      139
     430      6      163      143      138      137
     431      6      163      143      138      139
     432      6      134      135      114      113
     433      6      134      135      114      115
     434      6      136      135      114      113
     435      6      136      135      114      115
     436      6      131      132      117      116
     437      6      131      132      117      118
     438      6      156      132      117      116
     439      6      156      132      117      118
     440      6      130      131      120      119
     441      6      130      131      120      121
     442      6      132      131      120      119
     443      6      132      131      120      121
     444      6      128      129      124      123
     445      6      128      129      124      125
     446      6      155      129      124      123
     447      6      155      129      124      125
     448     18       91       96      108      109
     449     18       91       96      108      145
     450     19       97       96      108      109
     451     19       97       96      108      145
     452      6      203      166      167      168
     453      6      203      166      167      204
     454      6      122      166      167      168
     455      6      122      166      167      204
     456      6      166      167      168      169
     457      6      166      167      168      205
     458      6      204      167      168      169
     459      6      204      167      168      205
     460      6      167      168      169      170
     461      6      167      168      169      202
     462      6      205      168      169      170
     463      6      205      168      169      202
     464      7      168      169      170      171
     465      8      168      169      170      195
     466      7      202      169      170      171
     467      8      202      169      170      195
     468      6      169      170      171      172
     469      6      195      170      171      172
     470      6      170      171      172      173
     471      6      170      171      172      193
     472      9      171      172      173      174
     473      9      171      172      173      206
     474      9      193      172      173      174
     475      6      193      172      173      206
     476      6      172      173      174      175
     477      6      172      173      174      191
     478      6      206      173      174      175
     479      6      206      173      174      191
     480      8      173      174      175      176
     481      8      173      174      175      190
     482      8      191      174      175      176
     483      8      191      174      175      190
     484      6      174      175      176      177
     485      6      174      175      176      207
     486      6      190      175      176      177
     487      6      190      175      176      207
     488      6      175      176      177      178
     489      6      175      176      177      208
     490      6      207      176      177      178
     491      6      207      176      177      208
     492      9      176      177      178      179
     493      6      176      177      178      189
     494      9      208      177      178      179
     495      6      208      177      178      189
     496      6      177      178      179      180
     497      6      189      178      179      180
     498      6      178      179      180      181
     499      6      178      179      180      224
     500      7      179      180      181      182
     501     10      179      180      181      188
     502      8      224      180      181      182
     503      7      224      180      181      188
     504      8      180      181      182      183
     505      8      180      181      182      187
     506      7      188      181      182      183
     507      7      188      181      182      187
     508      6      181      182      183      184
     509      6      181      182      183      209
     510      6      187      182      183      184
     511      6      187      182      183      209
     512      6      182      183      184      185
     513      6      182      183      184      210
     514      6      209      183      184      185
     515      6      209      183      184      210
     516      6      183      184      185      186
     517      6      183      184      185      211
     518      6      210      184      185      186
     519      6      210      184      185      211
     520      6      184      185      186      187
     521      6      184      185      186      212
     522      6      211      185      186      187
     523      6      211      185      186      212
     524      6      185      186      187      182
     525      6      185      186      187      213
     526      6      212      186      187      182
     527      6      212      186      187      213
     528      6      180      181      188      189
     529      6      182      181      188      189
     530      6      181      188      189      190
     531      6      181      188      189      178
     532      9      188      189      190      175
     533      9      188      189      190      214
     534      9      178      189      190      175
     535      6      178      189      190      214
     536      6      173      174      191      192
     537      6      173      174      191      215
     538      6      175      174      191      192
     539      6      175      174      191      215
     540      6      174      191      192      193
     541      6      174      191      192      216
     542      6      215      191      192      193
     543      6      215      191      192      216
     544      9      191      192      193      194
     545      6      191      192      193      172
     546      9      216      192      193      194
     547      6      216      192      193      172
     548      6      192      193      194      195
     549      6      172      193      194      195
     550      6      193      194      195      196
     551      6      193      194      195      170
     552      7      194      195      196      197
     553      7      194      195      196      201
     554      8      170      195      196      197
     555      8      170      195      196      201
     556      6      195      196      197      198
     557      6      195      196      197      217
     558      6      201      196      197      198
     559      6      201      196      197      217
     560      6      196      197      198      199
     561      6      196      197      198      218
     562      6      217      197      198      199
     563      6      217      197      198      218
     564      6      197      198      199      200
     565      6      197      198      199      219
     566      6      218      198      199      200
     567      6      218      198      199      219
     568      6      198      199      200      201
     569      6      198      199      200      220
     570      6      219      199      200      201
     571      6      219      199      200      220
     572      6      199      200      201      196
     573      6      199      200      201      221
     574      6      220      200      201      196
     575      6      220      200      201      221
     576      6      168      169      202      203
     577      6      168      169      202      222
     578      6      170      169      202      203
     579      6      170      169      202      222
     580      6      169      202      203      166
     581      6      169      202      203      223
     582      6      222      202      203      166
     583      6      222      202      203      223
     584      6      202      203      166      167
     585      6      202      203      166      122
     586      6      223      203      166      167
     587      6      223      203      166      122
     588      7      194      195      170      169
     589     10      194      195      170      171
     590      8      196      195      170      169
     591      7      196      195      170      171
     592      6      200      201      196      195
     593      6      200      201      196      197
     594      6      221      201      196      195
     595      6      221      201      196      197
     596      6      192      193      172      171
     597      6      192      193      172      173
     598      6      194      193      172      171
     599      6      194      193      172      173
     600      6      189      190      175      174
     601      6      189      190      175      176
     602      6      214      190      175      174
     603      6      214      190      175      176
     604      6      188      189      178      177
     605      6      188      189      178      179
     606      6      190      189      178      177
     607      6      190      189      178      179
     608      6      186      187      182      181
     609      6      186      187      182      183
     610      6      213      187      182      181
     611      6      213      187      182      183
     612      7      121      122      166      167
     613      7      121      122      166      203
     614      8      123      122      166      167
     615      8      123      122      166      203
     616      6      232      224      225      226
     617     13      232      224      225      233
     618      6      180      224      225      226
     619      6      180      224      225      233
     620      6      224      225      226      227
     621      6      224      225      226      231
     622      6      233      225      226      227
     623      6      233      225      226      231
     624     12      225      226      227      228
     625     12      225      226      227      234
     626     12      225      226      227      235
     627     12      231      226      227      228
     628     12      231      226      227      234
     629     12      231      226      227      235
     630     14      226      227      228      229
     631      5      226      227      228      236
     632      5      226      227      228      237
     633      3      234      227      228      229
     634      3      234      227      228      236
     635      3      234      227      228      237
     636      3      235      227      228      229
     637      3      235      227      228      236
     638      3      235      227      228      237
     639     14      227      228      229      230
     640      3      227      228      229      238
     641      3      227      228      229      239
     642      3      236      228      229      230
     643      3      236      228      229      238
     644      3      236      228      229      239
     645      3      237      228      229      230
     646      3      237      228      229      238
     647      3      237      228      229      239
     648      3      228      229      230      240
     649      3      228      229      230      241
     650      3      228      229      230      242
     651      3      238      229      230      240
     652      3      238      229      230      241
     653      3      238      229      230      242
     654      3      239      229      230      240
     655      3      239      229      230      241
     656      3      239      229      230      242
     657      6      225      226      231      232
     658      6      225      226      231      243
     659      6      227      226      231      232
     660      6      227      226      231      243
     661      6      226      231      232      224
     662      6      243      231      232      224
     663      6      231      232      224      225
     664      6      231      232      224      180
     665     16      179      180      224      225
     666     17      179      180      224      232
     667     18      181      180      224      225
     668     19      181      180      224      232
     669      6      280      243      244      245
     670      6      280      243      244      281
     671      6      231      243      244      245
     672      6      231      243      244      281
     673      6      243      244      245      246
     674      6      243      244      245      282
     675      6      281      244      245      246
     676      6      281      244      245      282
     677      6      244      245      246      247
     678      6      244      245      246      279
     679      6      282      245      246      247
     680      6      282      245      246      279
     681      7      245      246      247      248
     682      8      245      246      247      272
     683      7      279      246      247      248
     684      8      279      246      247      272
     685      6      246      247      248      249
     686      6      272      247      248      249
     687      6      247      248      249      250
     688      6      247      248      249      270
     689      9      248      249      250      251
     690      9      248      249      250      283
     691      9      270      249      250      251
     692      6      270      249      250      283
     693      6      249      250      251      252
     694      6      249      250      251      268
     695      6      283      250      251      252
     696      6      283      250      251      268
     697      8      250      251      252      253
     698      8      250      251      252      267
     699      8      268      251      252      253
     700      8      268      251      252      267
     701      6      251      252      253      254
     702      6      251      252      253      284
     703      6      267      252      253      254
     704      6      267      252      253      284
     705      6      252      253      254      255
     706      6      252      253      254      285
     707      6      284      253      254      255
     708      6      284      253      254      285
     709      9      253      254      255      256
     710      6      253      254      255      266
     711      9      285      254      255      256
     712      6      285      254      255      266
     713      6      254      255      256      257
     714      6      266      255      256      257
     715      6      255      256      257      258
     716      6      255      256      257      301
     717      7      256      257      258      259
     718     10      256      257      258      265
     719      8      301      257      258      259
     720      7      301      257      258      265
     721      8      257      258      259      260
     722      8      257      258      259      264
     723      7      265      258      259      260
     724      7      265      258      259      264
     725      6      258      259      260      261
     726      6      258      259      260      286
     727      6      264      259      260      261
     728      6      264      259      260      286
     729      6      259      260      261      262
     730      6      259      260      261      287
     731      6      286      260      261      262
     732      6      286      260      261      287
     733      6      260      261      262      263
     734      6      260      261      262      288
     735      6      287      261      262      263
     736      6      287      261      262      288
     737      6      261      262      263      264
     738      6      261      262      263      289
     739      6      288      262      263      264
     740      6      288      262      263      289
     741      6      262      263      264      259
     742      6      262      263      264      290
     743      6      289      263      264      259
     744      6      289      263      264      290
     745      6      257      258      265      266
     746      6      259      258      265      266
     747      6      258      265      266      267
     748      6      258      265      266      255
     749      9      265      266      267      252
     750      9      265      266      267      291
     751      9      255      266      267      252
     752      6      255      266      267      291
     753      6      250      251      268      269
     754      6      250      251      268      292
     755      6      252      251      268      269
     756      6      252      251      268      292
     757      6      251      268      269      270
     758      6      251      268      269      293
     759      6      292      268      269      270
     760      6      292      268      269      293
     761      9      268      269      270      271
     762      6      268      269      270      249
     763      9      293      269      270      271
     764      6      293      269      270      249
     765      6      269      270      271      272
     766      6      249      270      271      272
     767      6      270      271      272      273
     768      6      270      271      272      247
     769      7      271      272      273      274
     770      7      271      272      273      278
     771      8      247      272      273      274
     772      8      247      272      273      278
     773      6      272      273      274      275
     774      6      272      273      274      294
     775      6      278      273      274      275
     776      6      278      273      274      294
     777      6      273      274      275      276
     778      6      273      274      275      295
     779      6      294      274      275      276
     780      6      294      274      275      295
     781      6      274      275      276      277
     782      6      274      275      276      296
     783      6      295      275      276      277
     784      6      295      275      276      296
     785      6      275      276      277      278
     786      6      275      276      277      297
     787      6      296      276      277      278
     788      6      296      276      277      297
     789      6      276      277      278      273
     790      6      276      277      278      298
     791      6      297      277      278      273
     792      6      297      277      278      298
     793      6      245      246      279      280
     794      6      245      246      279      299
     795      6      247      246      279      280
     796      6      247      246      279      299
     797      6      246      279      280      243
     798      6      246      279      280      300
     799      6      299      279      280      243
     800      6      299      279      280      300
     801      6      279      280      243      244
     802      6      279      280      243      231
     803      6      300      280      243      244
     804      6      300      280      243      231
     805      7      271      272      247      246
     806     10      271      272      247      248
     807      8      273      272      247      246
     808      7      273      272      247      248
     809      6      277      278      273      272
     810      6      277      278      273      274
     811      6      298      278      273      272
     812      6      298      278      273      274
     813      6      269      270      249      248
     814      6      269      270      249      250
     815      6      271      270      249      248
     816      6      271      270      249      250
     817      6      266      267      252      251
     818      6      266      267      252      253
     819      6      291      267      252      251
     820      6      291      267      252      253
     821      6      265      266      255      254
     822      6      265      266      255      256
     823      6      267      266      255      254
     824      6      267      266      255      256
     825      6      263      264      259      258
     826      6      263      264      259      260
     827      6      290      264      259      258
     828      6      290      264      259      260
     829     18      226      231      243      244
     830     18      226      231      243      280
     831     19      232      231      243      244
     832     19      232      231      243      280
     833      6      309      301      302      303
     834     13      309      301      302      310
     835      6      257      301      302      303
     836      6      257      301      302      310
     837      6      301      302      303      304
     838      6      301      302      303      308
     839      6      310      302      303      304
     840      6      310      302      303      308
     841     12      302      303      304      305
     842     12      302      303      304      311
     843     12      302      303      304      312
     844     12      308      303      304      305
     845     12      308      303      304      311
     846     12      308      303      304      312
     847     14      303      304      305      306
     848      5      303      304      305      313
     849      5      303      304      305      314
     850      3      311      304      305      306
     851      3      311      304      305      313
     852      3      311      304      305      314
     853      3      312      304      305      306
     854      3      312      304      305      313
     855      3      312      304      305      314
     856     14      304      305      306      307
     857      3      304      305      306      315
     858      3      304      305      306      316
     859      3      313      305      306      307
     860      3      313      305      306      315
     861      3      313      305      306      316
     862      3      314      305      306      307
     863      3      314      305      306      315
     864      3      314      305      306      316
     865      3      305      306      307      317
     866      3      305      306      307      318
     867      3      305      306      307      319
     868      3      315      306      307      317
     869      3      315      306      307      318
     870      3      315      306      307      319
     871      3      316      306      307      317
     872      3      316      306      307      318
     873      3      316      306      307      319
     874      6      302      303      308      309
     875      6      302      303      308      320
     876      6      304      303      308      309
     877      6      304      303      308      320
     878      6      303      308      309      301
     879      6      320      308      309      301
     880      6      308      309      301      302
     881      6      308      309      301      257
     882     16      256      257      301      302
     883     17      256      257      301      309
     884     18      258      257      301      302
     885     19      258      257      301      309
     886      6      357      320      321      322
     887      6      357      320      321      358
     888      6      308      320      321      322
     889      6      308      320      321      358
     890      6      320      321      322      323
     891      6      320      321      322      359
     892      6      358      321      322      323
     893      6      358      321      322      359
     894      6      321      322      323      324
     895      6      321      322      323      356
     896      6      359      322      323      324
     897      6      359      322      323      356
     898      7      322      323      324      325
     899      8      322      323      324      349
     900      7      356      323      324      325
     901      8      356      323      324      349
     902      6      323      324      325      326
     903      6      349      324      325      326
     904      6      324      325      326      327
     905      6      324      325      326      347
     906      9      325      326      327      328
     907      9      325      326      327      360
     908      9      347      326      327      328
     909      6      347      326      327      360
     910      6      326      327      328      329
     911      6      326      327      328      345
     912      6      360      327      328      329
     913      6      360      327      328      345
     914      8      327      328      329      330
     915      8      327      328      329      344
     916      8      345      328      329      330
     917      8      345      328      329      344
     918      6      328      329      330      331
     919      6      328      329      330      361
     920      6      344      329      330      331
     921      6      344      329      330      361
     922      6      329      330      331      332
     923      6      329      330      331      362
     924      6      361      330      331      332
     925      6      361      330      331      362
     926      9      330      331      332      333
     927      6      330      331      332      343
     928      9      362      331      332      333
     929      6      362      331      332      343
     930      6      331      332      333      334
     931      6      343      332      333      334
     932      6      332      333      334      335
     933      6      332      333      334      378
     934      7      333      334      335      336
     935     10      333      334      335      342
     936      8      378      334      335      336
     937      7      378      334      335      342
     938      8      334      335      336      337
     939      8      334      335      336      341
     940      7      342      335      336      337
     941      7      342      335      336      341
     942      6      335      336      337      338
     943      6      335      336      337      363
     944      6      341      336      337      338
     945      6      341      336      337      363
     946      6      336      337      338      339
     947      6      336      337      338      364
     948      6      363      337      338      339
     949      6      363      337      338      364
     950      6      337      338      339      340
     951      6      337      338      339      365
     952      6      364      338      339      340
     953      6      364      338      339      365
     954      6      338      339      340      341
     955      6      338      339      340      366
     956      6      365      339      340      341
     957      6      365      339      340      366
     958      6      339      340      341      336
     959      6      339      340      341      367
     960      6      366      340      341      336
     961      6      366      340      341      367
     962      6      334      335      342      343
     963      6      336      335      342      343
     964      6      335      342      343      344
     965      6      335      342      343      332
     966      9      342      343      344      329
     967      9      342      343      344      368
     968      9      332      343      344      329
     969      6      332      343      344      368
     970      6      327      328      345      346
     971      6      327      328      345      369
     972      6      329      328      345      346
     973      6      329      328      345      369
     974      6      328      345      346      347
     975      6      328      345      346      370
     976      6      369      345      346      347
     977      6      369      345      346      370
     978      9      345      346      347      348
     979      6      345      346      347      326
     980      9      370      346      347      348
     981      6      370      346      347      326
     982      6      346      347      348      349
     983      6      326      347      348      349
     984      6      347      348      349      350
     985      6      347      348      349      324
     986      7      348      349      350      351
     987      7      348      349      350      355
     988      8      324      349      350      351
     989      8      324      349      350      355
     990      6      349      350      351      352
     991      6      349      350      351      371
     992      6      355      350      351      352
     993      6      355      350      351      371
     994      6      350      351      352      353
     995      6      350      351      352      372
     996      6      371      351      352      353
     997      6      371      351      352      372
     998      6      351      352      353      354
     999      6      351      352      353      373
    1000      6      372      352      353      354
    1001      6      372      352      353      373
    1002      6      352      353      354      355
    1003      6      352      353      354      374
    1004      6      373      353      354      355
    1005      6      373      353      354      374
    1006      6      353      354      355      350
    1007      6      353      354      355      375
    1008      6      374      354      355      350
    1009      6      374      354      355      375
    1010      6      322      323      356      357
    1011      6      322      323      356      376
    1012      6      324      323      356      357
    1013      6      324      323      356      376
    1014      6      323      356      357      320
    1015      6      323      356      357      377
    1016      6      376      356      357      320
    1017      6      376      356      357      377
    1018      6      356      357      320      321
    1019      6      356      357      320      308
    1020      6      377      357      320      321
    1021      6      377      357      320      308
    1022      7      348      349      324      323
    1023     10      348      349      324      325
    1024      8      350      349      324      323
    1025      7      350      349      324      325
    1026      6      354      355      350      349
    1027      6      354      355      350      351
    1028      6      375      355      350      349
    1029      6      375      355      350      351
    1030      6      346      347      326      325
    1031      6      346      347      326      327
    1032      6      348      347      326      325
    1033      6      348      347      326      327
    1034      6      343      344      329      328
    1035      6      343      344      329      330
    1036      6      368      344      329      328
    1037      6      368      344      329      330
    1038      6      342      343      332      331
    1039      6      342      343      332      333
    1040      6      344      343      332      331
    1041      6      344      343      332      333
    1042      6      340      341      336      335
    1043      6      340      341      336      337
    1044      6      367      341      336      335
    1045      6      367      341      336      337
    1046     18      303      308      320      321
    1047     18      303      308      320      357
    1048     19      309      308      320      321
    1049     19      309      308      320      357
    1050      6      386      378      379      380
    1051     13      386      378      379      387
    1052      6      334      378      379      380
    1053      6      334      378      379      387
    1054      6      378      379      380      381
    1055      6      378      379      380      385
    1056      6      387      379      380      381
    1057      6      387      379      380      385
    1058     12      379      380      381      382
    1059     12      379      380      381      388
    1060     12      379      380      381      389
    1061     12      385      380      381      382
    1062     12      385      380      381      388
    1063     12      385      380      381      389
    1064     14      380      381      382      383
    1065      5      380      381      382      390
    1066      5      380      381      382      391
    1067      3      388      381      382      383
    1068      3      388      381      382      390
    1069      3      388      381      382      391
    1070      3      389      381      382      383
    1071      3      389      381      382      390
    1072      3      389      381      382      391
    1073     14      381      382      383      384
    1074      3      381      382      383      392
    1075      3      381      382      383      393
    1076      3      390      382      383      384
    1077      3      390      382      383      392
    1078      3      390      382      383      393
    1079      3      391      382      383      384
    1080      3      391      382      383      392
    1081      3      391      382      383      393
    1082      3      382      383      384      394
    1083      3      382      383      384      395
    1084      3      382      383      384      396
    1085      3      392      383      384      394
    1086      3      392      383      384      395
    1087      3      392      383      384      396
    1088      3      393      383      384      394
    1089      3      393      383      384      395
    1090      3      393      383      384      396
    1091      6      379      380      385      386
    1092      6      379      380      385      397
    1093      6      381      380      385      386
    1094      6      381      380      385      397
    1095      6      380      385      386      378
    1096      6      397      385      386      378
    1097      6      385      386      378      379
    1098      6      385      386      378      334
    1099     16      333      334      378      379
    1100     17      333      334      378      386
    1101     18      335      334      378      379
    1102     19      335      334      378      386
    1103      6      434      397      398      399
    1104      6      434      397      398      435
    1105      6      385      397      398      399
    1106      6      385      397      398      435
    1107      6      397      398      399      400
    1108      6      397      398      399      436
    1109      6      435      398      399      400
    1110      6      435      398      399      436
    1111      6      398      399      400      401
    1112      6      398      399      400      433
    1113      6      436      399      400      401
    1114      6      436      399      400      433
    1115      7      399      400      401      402
    1116      8      399      400      401      426
    1117      7      433      400      401      402
    1118      8      433      400      401      426
    1119      6      400      401      402      403
    1120      6      426      401      402      403
    1121      6      401      402      403      404
    1122      6      401      402      403      424
    1123      9      402      403      404      405
    1124      9      402      403      404      437
    1125      9      424      403      404      405
    1126      6      424      403      404      437
    1127      6      403      404      405      406
    1128      6      403      404      405      422
    1129      6      437      404      405      406
    1130      6      437      404      405      422
    1131      8      404      405      406      407
    1132      8      404      405      406      421
    1133      8      422      405      406      407
    1134      8      422      405      406      421
    1135      6      405      406      407      408
    1136      6      405      406      407      438
    1137      6      421      406      407      408
    1138      6      421      406      407      438
    1139      6      406      407      408      409
    1140      6      406      407      408      439
    1141      6      438      407      408      409
    1142      6      438      407      408      439
    1143      9      407      408      409      410
    1144      6      407      408      409      420
    1145      9      439      408      409      410
    1146      6      439      408      409      420
    1147      6      408      409      410      411
    1148      6      420      409      410      411
    1149      6      409      410      411      412
    1150      6      409      410      411      455
    1151      7      410      411      412      413
    1152     10      410      411      412      419
    1153      8      455      411      412      413
    1154      7      455      411      412      419
    1155      8      411      412      413      414
    1156      8      411      412      413      418
    1157      7      419      412      413      414
    1158      7      419      412      413      418
    1159      6      412      413      414      415
    1160      6      412      413      414      440
    1161      6      418      413      414      415
    1162      6      418      413      414      440
    1163      6      413      414      415      416
    1164      6      413      414      415      441
    1165      6      440      414      415      416
    1166      6      440      414      415      441
    1167      6      414      415      416      417
    1168      6      414      415      416      442
    1169      6      441      415      416      417
    1170      6      441      415      416      442
    1171      6      415      416      417      418
    1172      6      415      416      417      443
    1173      6      442      416      417      418
    1174      6      442      416      417      443
    1175      6      416      417      418      413
    1176      6      416      417      418      444
    1177      6      443      417      418      413
    1178      6      443      417      418      444
    1179      6      411      412      419      420
    1180      6      413      412      419      420
    1181      6      412      419      420      421
    1182      6      412      419      420      409
    1183      9      419      420      421      406
    1184      9      419      420      421      445
    1185      9      409      420      421      406
    1186      6      409      420      421      445
    1187      6      404      405      422      423
    1188      6      404      405      422      446
    1189      6      406      405      422      423
    1190      6      406      405      422      446
    1191      6      405      422      423      424
    1192      6      405      422      423      447
    1193      6      446      422      423      424
    1194      6      446      422      423      447
    1195      9      422      423      424      425
    1196      6      422      423      424      403
    1197      9      447      423      424      425
    1198      6      447      423      424      403
    1199      6      423      424      425      426
    1200      6      403      424      425      426
    1201      6      424      425      426      427
    1202      6      424      425      426      401
    1203      7      425      426      427      428
    1204      7      425      426      427      432
    1205      8      401      426      427      428
    1206      8      401      426      427      432
    1207      6      426      427      428      429
    1208      6      426      427      428      448
    1209      6      432      427      428      429
    1210      6      432      427      428      448
    1211      6      427      428      429      430
    1212      6      427      428      429      449
    1213      6      448      428      429      430
    1214      6      448      428      429      449
    1215      6      428      429      430      431
    1216      6      428      429      430      450
    1217      6      449      429      430      431
    1218      6      449      429      430      450
    1219      6      429      430      431      432
    1220      6      429      430      431      451
    1221      6      450      430      431      432
    1222      6      450      430      431      451
    1223      6      430      431      432      427
    1224      6      430      431      432      452
    1225      6      451      431      432      427
    1226      6      451      431      432      452
    1227      6      399      400      433      434
    1228      6      399      400      433      453
    1229      6      401      400      433      434
    1230      6      401      400      433      453
    1231      6      400      433      434      397
    1232      6      400      433      434      454
    1233      6      453      433      434      397
    1234      6      453      433      434      454
    1235      6      433      434      397      398
    1236      6      433      434      397      385
    1237      6      454      434      397      398
    1238      6      454      434      397      385
    1239      7      425      426      401      400
    1240     10      425      426      401      402
    1241      8      427      426      401      400
    1242      7      427      426      401      402
    1243      6      431      432      427      426
    1244      6      431      432      427      428
    1245      6      452      432      427      426
    1246      6      452      432      427      428
    1247      6      423      424      403      402
    1248      6      423      424      403      404
    1249      6      425      424      403      402
    1250      6      425      424      403      404
    1251      6      420      421      406      405
    1252      6      420      421      406      407
    1253      6      445      421      406      405
    1254      6      445      421      406      407
    1255      6      419      420      409      408
    1256      6      419      420      409      410
    1257      6      421      420      409      408
    1258      6      421      420      409      410
    1259      6      417      418      413      412
    1260      6      417      418      413      414
    1261      6      444      418      413      412
    1262      6      444      418      413      414
    1263     18      380      385      397      398
    1264     18      380      385      397      434
    1265     19      386      385      397      398
    1266     19      386      385      397      434
    1267      6      463      455      456      457
    1268     13      463      455      456      464
    1269      6      411      455      456      457
    1270      6      411      455      456      464
    1271      6      455      456      457      458
    1272      6      455      456      457      462
    1273      6      464      456      457      458
    1274      6      464      456      457      462
    1275     12      456      457      458      459
    1276     12      456      457      458      465
    1277     12      456      457      458      466
    1278     12      462      457      458      459
    1279     12      462      457      458      465
    1280     12      462      457      458      466
    1281     14      457      458      459      460
    1282      5      457      458      459      467
    1283      5      457      458      459      468
    1284      3      465      458      459      460
    1285      3      465      458      459      467
    1286      3      465      458      459      468
    1287      3      466      458      459      460
    1288      3      466      458      459      467
    1289      3      466      458      459      468
    1290     14      458      459      460      461
    1291      3      458      459      460      469
    1292      3      458      459      460      470
    1293      3      467      459      460      461
    1294      3      467      459      460      469
    1295      3      467      459      460      470
    1296      3      468      459      460      461
    1297      3      468      459      460      469
    1298      3      468      459      460      470
    1299      3      459      460      461      471
    1300      3      459      460      461      472
    1301      3      459      460      461      473
    1302      3      469      460      461      471
    1303      3      469      460      461      472
    1304      3      469      460      461      473
    1305      3      470      460      461      471
    1306      3      470      460      461      472
    1307      3      470      460      461      473
    1308      6      456      457      462      463
    1309      6      456      457      462      474
    1310     15      458      457      462      463
    1311      6      458      457      462      474
    1312      6      457      462      463      455
    1313      6      474      462      463      455
    1314      6      462      463      455      456
    1315      6      462      463      455      411
    1316     16      410      411      455      456
    1317     17      410      411      455      463
    1318     18      412      411      455      456
    1319     19      412      411      455      463
    1320      6      482      474      475      476
    1321      6      482      474      475      483
    1322      6      462      474      475      476
    1323      6      462      474      475      483
    1324      6      474      475      476      477
    1325      6      474      475      476      481
    1326      6      483      475      476      477
    1327      6      483      475      476      481
    1328     12      475      476      477      478
    1329     12      475      476      477      484
    1330     12      475      476      477      485
    1331     12      481      476      477      478
    1332     12      481      476      477      484
    1333     12      481      476      477      485
    1334     14      476      477      478      479
    1335      5      476      477      478      486
    1336      5      476      477      478      487
    1337      3      484      477      478      479
    1338      3      484      477      478      486
    1339      3      484      477      478      487
    1340      3      485      477      478      479
    1341      3      485      477      478      486
    1342      3      485      477      478      487
    1343     14      477      478      479      480
    1344      3      477      478      479      488
    1345      3      477      478      479      489
    1346      3      486      478      479      480
    1347      3      486      478      479      488
    1348      3      486      478      479      489
    1349      3      487      478      479      480
    1350      3      487      478      479      488
    1351      3      487      478      479      489
    1352      3      478      479      480      490
    1353      3      478      479      480      491
    1354      3      478      479      480      492
    1355      3      488      479      480      490
    1356      3      488      479      480      491
    1357      3      488      479      480      492
    1358      3      489      479      480      490
    1359      3      489      479      480      491
    1360      3      489      479      480      492
    1361      6      475      476      481      482
    1362      6      475      476      481      493
    1363     15      477      476      481      482
    1364      6      477      476      481      493
    1365      6      476      481      482      474
    1366      6      493      481      482      474
    1367      6      481      482      474      475
    1368      6      481      482      474      462
    1369      6      457      462      474      475
    1370      6      457      462      474      482
    1371      6      463      462      474      475
    1372      6      463      462      474      482
    1373      6      501      493      494      495
    1374      6      501      493      494      502
    1375      6      481      493      494      495
    1376      6      481      493      494      502
    1377      6      493      494      495      496
    1378      6      493      494      495      500
    1379      6      502      494      495      496
    1380      6      502      494      495      500
    1381     12      494      495      496      497
    1382     12      494      495      496      503
    1383     12      494      495      496      504
    1384     12      500      495      496      497
    1385     12      500      495      496      503
    1386     12      500      495      496      504
    1387     14      495      496      497      498
    1388      5      495      496      497      505
    1389      5      495      496      497      506
    1390      3      503      496      497      498
    1391      3      503      496      497      505
    1392      3      503      496      497      506
    1393      3      504      496      497      498
    1394      3      504      496      497      505
    1395      3      504      496      497      506
    1396     14      496      497      498      499
    1397      3      496      497      498      507
    1398      3      496      497      498      508
    1399      3      505      497      498      499
    1400      3      505      497      498      507
    1401      3      505      497      498      508
    1402      3      506      497      498      499
    1403      3      506      497      498      507
    1404      3      506      497      498      508
    1405      3      497      498      499      509
    1406      3      497      498      499      510
    1407      3      497      498      499      511
    1408      3      507      498      499      509
    1409      3      507      498      499      510
    1410      3      507      498      499      511
    1411      3      508      498      499      509
    1412      3      508      498      499      510
    1413      3      508      498      499      511
    1414      6      494      495      500      501
    1415      6      494      495      500      512
    1416      6      496      495      500      501
    1417      6      496      495      500      512
    1418      6      495      500      501      493
    1419      6      512      500      501      493
    1420      6      500      501      493      494
    1421      6      500      501      493      481
    1422      6      476      481      493      494
    1423      6      476      481      493      501
    1424      6      482      481      493      494
    1425      6      482      481      493      501
    1426      6      549      512      513      514
    1427      6      549      512      513      550
    1428      6      500      512      513      514
    1429      6      500      512      513      550
    1430      6      512      513      514      515
    1431      6      512      513      514      551
    1432      6      550      513      514      515
    1433      6      550      513      514      551
    1434      6      513      514      515      516
    1435      6      513      514      515      548
    1436      6      551      514      515      516
    1437      6      551      514      515      548
    1438      7      514      515      516      517
    1439      8      514      515      516      541
    1440      7      548      515      516      517
    1441      8      548      515      516      541
    1442      6      515      516      517      518
    1443      6      541      516      517      518
    1444      6      516      517      518      519
    1445      6      516      517      518      539
    1446      9      517      518      519      520
    1447      9      517      518      519      552
    1448      9      539      518      519      520
    1449      6      539      518      519      552
    1450      6      518      519      520      521
    1451      6      518      519      520      537
    1452      6      552      519      520      521
    1453      6      552      519      520      537
    1454      8      519      520      521      522
    1455      8      519      520      521      536
    1456      8      537      520      521      522
    1457      8      537      520      521      536
    1458      6      520      521      522      523
    1459      6      520      521      522      553
    1460      6      536      521      522      523
    1461      6      536      521      522      553
    1462      6      521      522      523      524
    1463      6      521      522      523      554
    1464      6      553      522      523      524
    1465      6      553      522      523      554
    1466      9      522      523      524      525
    1467      6      522      523      524      535
    1468      9      554      523      524      525
    1469      6      554      523      524      535
    1470      6      523      524      525      526
    1471      6      535      524      525      526
    1472      6      524      525      526      527
    1473      6      524      525      526      570
    1474      7      525      526      527      528
    1475     10      525      526      527      534
    1476      8      570      526      527      528
    1477      7      570      526      527      534
    1478      8      526      527      528      529
    1479      8      526      527      528      533
    1480      7      534      527      528      529
    1481      7      534      527      528      533
    1482      6      527      528      529      530
    1483      6      527      528      529      555
    1484      6      533      528      529      530
    1485      6      533      528      529      555
    1486      6      528      529      530      531
    1487      6      528      529      530      556
    1488      6      555      529      530      531
    1489      6      555      529      530      556
    1490      6      529      530      531      532
    1491      6      529      530      531      557
    1492      6      556      530      531      532
    1493      6      556      530      531      557
    1494      6      530      531      532      533
    1495      6      530      531      532      558
    1496      6      557      531      532      533
    1497      6      557      531      532      558
    1498      6      531      532      533      528
    1499      6      531      532      533      559
    1500      6      558      532      533      528
    1501      6      558      532      533      559
    1502      6      526      527      534      535
    1503      6      528      527      534      535
    1504      6      527      534      535      536
    1505      6      527      534      535      524
    1506      9      534      535      536      521
    1507      9      534      535      536      560
    1508      9      524      535      536      521
    1509      6      524      535      536      560
    1510      6      519      520      537      538
    1511      6      519      520      537      561
    1512      6      521      520      537      538
    1513      6      521      520      537      561
    1514      6      520      537      538      539
    1515      6      520      537      538      562
    1516      6      561      537      538      539
    1517      6      561      537      538      562
    1518      9      537      538      539      540
    1519      6      537      538      539      518
    1520      9      562      538      539      540
    1521      6      562      538      539      518
    1522      6      538      539      540      541
    1523      6      518      539      540      541
    1524      6      539      540      541      542
    1525      6      539      540      541      516
    1526      7      540      541      542      543
    1527      7      540      541      542      547
    1528      8      516      541      542      543
    1529      8      516      541      542      547
    1530      6      541      542      543      544
    1531      6      541      542      543      563
    1532      6      547      542      543      544
    1533      6      547      542      543      563
    1534      6      542      543      544      545
    1535      6      542      543      544      564
    1536      6      563      543      544      545
    1537      6      563      543      544      564
    1538      6      543      544      545      546
    1539      6      543      544      545      565
    1540      6      564      544      545      546
    1541      6      564      544      545      565
    1542      6      544      545      546      547
    1543      6      544      545      546      566
    1544      6      565      545      546      547
    1545      6      565      545      546      566
    1546      6      545      546      547      542
    1547      6      545      546      547      567
    1548      6      566      546      547      542
    1549      6      566      546      547      567
    1550      6      514      515      548      549
    1551      6      514      515      548      568
    1552      6      516      515      548      549
    1553      6      516      515      548      568
    1554      6      515      548      549      512
    1555      6      515      548      549      569
    1556      6      568      548      549      512
    1557      6      568      548      549      569
    1558      6      548      549      512      513
    1559      6      548      549      512      500
    1560      6      569      549      512      513
    1561      6      569      549      512      500
    1562      7      540      541      516      515
    1563     10      540      541      516      517
    1564      8      542      541      516      515
    1565      7      542      541      516      517
    1566      6      546      547      542      541
    1567      6      546      547      542      543
    1568      6      567      547      542      541
    1569      6      567      547      542      543
    1570      6      538      539      518      517
    1571      6      538      539      518      519
    1572      6      540      539      518      517
    1573      6      540      539      518      519
    1574      6      535      536      521      520
    1575      6      535      536      521      522
    1576      6      560      536      521      520
    1577      6      560      536      521      522
    1578      6      534      535      524      523
    1579      6      534      535      524      525
    1580      6      536      535      524      523
    1581      6      536      535      524      525
    1582      6      532      533      528      527
    1583      6      532      533      528      529
    1584      6      559      533      528      527
    1585      6      559      533      528      529
    1586     18      495      500      512      513
    1587     18      495      500      512      549
    1588     19      501      500      512      513
    1589     19      501      500      512      549
    1590      6      607      570      571      572
    1591      6      607      570      571      608
    1592      6      526      570      571      572
    1593      6      526      570      571      608
    1594      6      570      571      572      573
    1595      6      570      571      572      609
    1596      6      608      571      572      573
    1597      6      608      571      572      609
    1598      6      571      572      573      574
    1599      6      571      572      573      606
    1600      6      609      572      573      574
    1601      6      609      572      573      606
    1602      7      572      573      574      575
    1603      8      572      573      574      599
    1604      7      606      573      574      575
    1605      8      606      573      574      599
    1606      6      573      574      575      576
    1607      6      599      574      575      576
    1608      6      574      575      576      577
    1609      6      574      575      576      597
    1610      9      575      576      577      578
    1611      9      575      576      577      610
    1612      9      597      576      577      578
    1613      6      597      576      577      610
    1614      6      576      577      578      579
    1615      6      576      577      578      595
    1616      6      610      577      578      579
    1617      6      610      577      578      595
    1618      8      577      578      579      580
    1619      8      577      578      579      594
    1620      8      595      578      579      580
    1621      8      595      578      579      594
    1622      6      578      579      580      581
    1623      6      578      579      580      611
    1624      6      594      579      580      581
    1625      6      594      579      580      611
    1626      6      579      580      581      582
    1627      6      579      580      581      612
    1628      6      611      580      581      582
    1629      6      611      580      581      612
    1630      9      580      581      582      583
    1631      6      580      581      582      593
    1632      9      612      581      582      583
    1633      6      612      581      582      593
    1634      6      581      582      583      584
    1635      6      593      582      583      584
    1636      6      582      583      584      585
    1637      6      582      583      584      628
    1638      7      583      584      585      586
    1639     10      583      584      585      592
    1640      8      628      584      585      586
    1641      7      628      584      585      592
    1642      8      584      585      586      587
    1643      8      584      585      586      591
    1644      7      592      585      586      587
    1645      7      592      585      586      591
    1646      6      585      586      587      588
    1647      6      585      586      587      613
    1648      6      591      586      587      588
    1649      6      591      586      587      613
    1650      6      586      587      588      589
    1651      6      586      587      588      614
    1652      6      613      587      588      589
    1653      6      613      587      588      614
    1654      6      587      588      589      590
    1655      6      587      588      589      615
    1656      6      614      588      589      590
    1657      6      614      588      589      615
    1658      6      588      589      590      591
    1659      6      588      589      590      616
    1660      6      615      589      590      591
    1661      6      615      589      590      616
    1662      6      589      590      591      586
    1663      6      589      590      591      617
    1664      6      616      590      591      586
    1665      6      616      590      591      617
    1666      6      584      585      592      593
    1667      6      586      585      592      593
    1668      6      585      592      593      594
    1669      6      585      592      593      582
    1670      9      592      593      594      579
    1671      9      592      593      594      618
    1672      9      582      593      594      579
    1673      6      582      593      594      618
    1674      6      577      578      595      596
    1675      6      577      578      595      619
    1676      6      579      578      595      596
    1677      6      579      578      595      619
    1678      6      578      595      596      597
    1679      6      578      595      596      620
    1680      6      619      595      596      597
    1681      6      619      595      596      620
    1682      9      595      596      597      598
    1683      6      595      596      597      576
    1684      9      620      596      597      598
    1685      6      620      596      597      576
    1686      6      596      597      598      599
    1687      6      576      597      598      599
    1688      6      597      598      599      600
    1689      6      597      598      599      574
    1690      7      598      599      600      601
    1691      7      598      599      600      605
    1692      8      574      599      600      601
    1693      8      574      599      600      605
    1694      6      599      600      601      602
    1695      6      599      600      601      621
    1696      6      605      600      601      602
    1697      6      605      600      601      621
    1698      6      600      601      602      603
    1699      6      600      601      602      622
    1700      6      621      601      602      603
    1701      6      621      601      602      622
    1702      6      601      602      603      604
    1703      6      601      602      603      623
    1704      6      622      602      603      604
    1705      6      622      602      603      623
    1706      6      602      603      604      605
    1707      6      602      603      604      624
    1708      6      623      603      604      605
    1709      6      623      603      604      624
    1710      6      603      604      605      600
    1711      6      603      604      605      625
    1712      6      624      604      605      600
    1713      6      624      604      605      625
    1714      6      572      573      606      607
    1715      6      572      573      606      626
    1716      6      574      573      606      607
    1717      6      574      573      606      626
    1718      6      573      606      607      570
    1719      6      573      606      607      627
    1720      6      626      606      607      570
    1721      6      626      606      607      627
    1722      6      606      607      570      571
    1723      6      606      607      570      526
    1724      6      627      607      570      571
    1725      6      627      607      570      526
    1726      7      598      599      574      573
    1727     10      598      599      574      575
    1728      8      600      599      574      573
    1729      7      600      599      574      575
    1730      6      604      605      600      599
    1731      6      604      605      600      601
    1732      6      625      605      600      599
    1733      6      625      605      600      601
    1734      6      596      597      576      575
    1735      6      596      597      576      577
    1736      6      598      597      576      575
    1737      6      598      597      576      577
    1738      6      593      594      579      578
    1739      6      593      594      579      580
    1740      6      618      594      579      578
    1741      6      618      594      579      580
    1742      6      592      593      582      581
    1743      6      592      593      582      583
    1744      6      594      593      582      581
    1745      6      594      593      582      583
    1746      6      590      591      586      585
    1747      6      590      591      586      587
    1748      6      617      591      586      585
    1749      6      617      591      586      587
    1750      7      525      526      570      571
    1751      7      525      526      570      607
    1752      8      527      526      570      571
    1753      8      527      526      570      607
    1754      6      636      628      629      630
    1755     13      636      628      629      637
    1756      6      584      628      629      630
    1757      6      584      628      629      637
    1758      6      628      629      630      631
    1759      6      628      629      630      635
    1760      6      637      629      630      631
    1761      6      637      629      630      635
    1762     12      629      630      631      632
    1763     12      629      630      631      638
    1764     12      629      630      631      639
    1765     12      635      630      631      632
    1766     12      635      630      631      638
    1767     12      635      630      631      639
    1768     14      630      631      632      633
    1769      5      630      631      632      640
    1770      5      630      631      632      641
    1771      3      638      631      632      633
    1772      3      638      631      632      640
    1773      3      638      631      632      641
    1774      3      639      631      632      633
    1775      3      639      631      632      640
    1776      3      639      631      632      641
    1777     14      631      632      633      634
    1778      3      631      632      633      642
    1779      3      631      632      633      643
    1780      3      640      632      633      634
    1781      3      640      632      633      642
    1782      3      640      632      633      643
    1783      3      641      632      633      634
    1784      3      641      632      633      642
    1785      3      641      632      633      643
    1786      3      632      633      634      644
    1787      3      632      633      634      645
    1788      3      632      633      634      646
    1789      3      642      633      634      644
    1790      3      642      633      634      645
    1791      3      642      633      634      646
    1792      3      643      633      634      644
    1793      3      643      633      634      645
    1794      3      643      633      634      646
    1795      6      629      630      635      636
    1796      6      629      630      635      647
    1797      6      631      630      635      636
    1798      6      631      630      635      647
    1799      6      630      635      636      628
    1800      6      647      635      636      628
    1801      6      635      636      628      629
    1802      6      635      636      628      584
    1803     16      583      584      628      629
    1804     17      583      584      628      636
    1805     18      585      584      628      629
    1806     19      585      584      628      636
    1807      6      684      647      648      649
    1808      6      684      647      648      685
    1809      6      635      647      648      649
    1810      6      635      647      648      685
    1811      6      647      648      649      650
    1812      6      647      648      649      686
    1813      6      685      648      649      650
    1814      6      685      648      649      686
    1815      6      648      649      650      651
    1816      6      648      649      650      683
    1817      6      686      649      650      651
    1818      6      686      649      650      683
    1819      7      649      650      651      652
    1820      8      649      650      651      676
    1821      7      683      650      651      652
    1822      8      683      650      651      676
    1823      6      650      651      652      653
    1824      6      676      651      652      653
    1825      6      651      652      653      654
    1826      6      651      652      653      674
    1827      9      652      653      654      655
    1828      9      652      653      654      687
    1829      9      674      653      654      655
    1830      6      674      653      654      687
    1831      6      653      654      655      656
    1832      6      653      654      655      672
    1833      6      687      654      655      656
    1834      6      687      654      655      672
    1835      8      654      655      656      657
    1836      8      654      655      656      671
    1837      8      672      655      656      657
    1838      8      672      655      656      671
    1839      6      655      656      657      658
    1840      6      655      656      657      688
    1841      6      671      656      657      658
    1842      6      671      656      657      688
    1843      6      656      657      658      659
    1844      6      656      657      658      689
    1845      6      688      657      658      659
    1846      6      688      657      658      689
    1847      9      657      658      659      660
    1848      6      657      658      659      670
    1849      9      689      658      659      660
    1850      6      689      658      659      670
    1851      6      658      659      660      661
    1852      6      670      659      660      661
    1853      6      659      660      661      662
    1854      6      659      660      661      705
    1855      7      660      661      662      663
    1856     10      660      661      662      669
    1857      8      705      661      662      663
    1858      7      705      661      662      669
    1859      8      661      662      663      664
    1860      8      661      662      663      668
    1861      7      669      662      663      664
    1862      7      669      662      663      668
    1863      6      662      663      664      665
    1864      6      662      663      664      690
    1865      6      668      663      664      665
    1866      6      668      663      664      690
    1867      6      663      664      665      666
    1868      6      663      664      665      691
    1869      6      690      664      665      666
    1870      6      690      664      665      691
    1871      6      664      665      666      667
    1872      6      664      665      666      692
    1873      6      691      665      666      667
    1874      6      691      665      666      692
    1875      6      665      666      667      668
    1876      6      665      666      667      693
    1877      6      692      666      667      668
    1878      6      692      666      667      693
    1879      6      666      667      668      663
    1880      6      666      667      668      694
    1881      6      693      667      668      663
    1882      6      693      667      668      694
    1883      6      661      662      669      670
    1884      6      663      662      669      670
    1885      6      662      669      670      671
    1886      6      662      669      670      659
    1887      9      669      670      671      656
    1888      9      669      670      671      695
    1889      9      659      670      671      656
    1890      6      659      670      671      695
    1891      6      654      655      672      673
    1892      6      654      655      672      696
    1893      6      656      655      672      673
    1894      6      656      655      672      696
    1895      6      655      672      673      674
    1896      6      655      672      673      697
    1897      6      696      672      673      674
    1898      6      696      672      673      697
    1899      9      672      673      674      675
    1900      6      672      673      674      653
    1901      9      697      673      674      675
    1902      6      697      673      674      653
    1903      6      673      674      675      676
    1904      6      653      674      675      676
    1905      6      674      675      676      677
    1906      6      674      675      676      651
    1907      7      675      676      677      678
    1908      7      675      676      677      682
    1909      8      651      676      677      678
    1910      8      651      676      677      682
    1911      6      676      677      678      679
    1912      6      676      677      678      698
    1913      6      682      677      678      679
    1914      6      682      677      678      698
    1915      6      677      678      679      680
    1916      6      677      678      679      699
    1917      6      698      678      679      680
    1918      6      698      678      679      699
    1919      6      678      679      680      681
    1920      6      678      679      680      700
    1921      6      699      679      680      681
    1922      6      699      679      680      700
    1923      6      679      680      681      682
    1924      6      679      680      681      701
    1925      6      700      680      681      682
    1926      6      700      680      681      701
    1927      6      680      681      682      677
    1928      6      680      681      682      702
    1929      6      701      681      682      677
    1930      6      701      681      682      702
    1931      6      649      650      683      684
    1932      6      649      650      683      703
    1933      6      651      650      683      684
    1934      6      651      650      683      703
    1935      6      650      683      684      647
    1936      6      650      683      684      704
    1937      6      703      683      684      647
    1938      6      703      683      684      704
    1939      6      683      684      647      648
    1940      6      683      684      647      635
    1941      6      704      684      647      648
    1942      6      704      684      647      635
    1943      7      675      676      651      650
    1944     10      675      676      651      652
    1945      8      677      676      651      650
    1946      7      677      676      651      652
    1947      6      681      682      677      676
    1948      6      681      682      677      678
    1949      6      702      682      677      676
    1950      6      702      682      677      678
    1951      6      673      674      653      652
    1952      6      673      674      653      654
    1953      6      675      674      653      652
    1954      6      675      674      653      654
    1955      6      670      671      656      655
    1956      6      670      671      656      657
    1957      6      695      671      656      655
    1958      6      695      671      656      657
    1959      6      669      670      659      658
    1960      6      669      670      659      660
    1961      6      671      670      659      658
    1962      6      671      670      659      660
    1963      6      667      668      663      662
    1964      6      667      668      663      664
    1965      6      694      668      663      662
    1966      6      694      668      663      664
    1967     18      630      635      647      648
    1968     18      630      635      647      684
    1969     19      636      635      647      648
    1970     19      636      635      647      684
    1971      6      742      705      706      707
    1972      6      742      705      706      743
    1973      6      661      705      706      707
    1974      6      661      705      706      743
    1975      6      705      706      707      708
    1976      6      705      706      707      744
    1977      6      743      706      707      708
    1978      6      743      706      707      744
    1979      6      706      707      708      709
    1980      6      706      707      708      741
    1981      6      744      707      708      709
    1982      6      744      707      708      741
    1983      7      707      708      709      710
    1984      8      707      708      709      734
    1985      7      741      708      709      710
    1986      8      741      708      709      734
    1987      6      708      709      710      711
    1988      6      734      709      710      711
    1989      6      709      710      711      712
    1990      6      709      710      711      732
    1991      9      710      711      712      713
    1992      9      710      711      712      745
    1993      9      732      711      712      713
    1994      6      732      711      712      745
    1995      6      711      712      713      714
    1996      6      711      712      713      730
    1997      6      745      712      713      714
    1998      6      745      712      713      730
    1999      8      712      713      714      715
    2000      8      712      713      714      729
    2001      8      730      713      714      715
    2002      8      730      713      714      729
    2003      6      713      714      715      716
    2004      6      713      714      715      746
    2005      6      729      714      715      716
    2006      6      729      714      715      746
    2007      6      714      715      716      717
    2008      6      714      715      716      747
    2009      6      746      715      716      717
    2010      6      746      715      716      747
    2011      9      715      716      717      718
    2012      6      715      716      717      728
    2013      9      747      716      717      718
    2014      6      747      716      717      728
    2015      6      716      717      718      719
    2016      6      728      717      718      719
    2017      6      717      718      719      720
    2018      6      717      718      719      763
    2019      7      718      719      720      721
    2020     10      718      719      720      727
    2021      8      763      719      720      721
    2022      7      763      719      720      727
    2023      8      719      720      721      722
    2024      8      719      720      721      726
    2025      7      727      720      721      722
    2026      7      727      720      721      726
    2027      6      720      721      722      723
    2028      6      720      721      722      748
    2029      6      726      721      722      723
    2030      6      726      721      722      748
    2031      6      721      722      723      724
    2032      6      721      722      723      749
    2033      6      748      722      723      724
    2034      6      748      722      723      749
    2035      6      722      723      724      725
    2036      6      722      723      724      750
    2037      6      749      723      724      725
    2038      6      749      723      724      750
    2039      6      723      724      725      726
    2040      6      723      724      725      751
    2041      6      750      724      725      726
    2042      6      750      724      725      751
    2043      6      724      725      726      721
    2044      6      724      725      726      752
    2045      6      751      725      726      721
    2046      6      751      725      726      752
    2047      6      719      720      727      728
    2048      6      721      720      727      728
    2049      6      720      727      728      729
    2050      6      720      727      728      717
    2051      9      727      728      729      714
    2052      9      727      728      729      753
    2053      9      717      728      729      714
    2054      6      717      728      729      753
    2055      6      712      713      730      731
    2056      6      712      713      730      754
    2057      6      714      713      730      731
    2058      6      714      713      730      754
    2059      6      713      730      731      732
    2060      6      713      730      731      755
    2061      6      754      730      731      732
    2062      6      754      730      731      755
    2063      9      730      731      732      733
    2064      6      730      731      732      711
    2065      9      755      731      732      733
    2066      6      755      731      732      711
    2067      6      731      732      733      734
    2068      6      711      732      733      734
    2069      6      732      733      734      735
    2070      6      732      733      734      709
    2071      7      733      734      735      736
    2072      7      733      734      735      740
    2073      8      709      734      735      736
    2074      8      709      734      735      740
    2075      6      734      735      736      737
    2076      6      734      735      736      756
    2077      6      740      735      736      737
    2078      6      740      735      736      756
    2079      6      735      736      737      738
    2080      6      735      736      737      757
    2081      6      756      736      737      738
    2082      6      756      736      737      757
    2083      6      736      737      738      739
    2084      6      736      737      738      758
    2085      6      757      737      738      739
    2086      6      757      737      738      758
    2087      6      737      738      739      740
    2088      6      737      738      739      759
    2089      6      758      738      739      740
    2090      6      758      738      739      759
    2091      6      738      739      740      735
    2092      6      738      739      740      760
    2093      6      759      739      740      735
    2094      6      759      739      740      760
    2095      6      707      708      741      742
    2096      6      707      708      741      761
    2097      6      709      708      741      742
    2098      6      709      708      741      761
    2099      6      708      741      742      705
    2100      6      708      741      742      762
    2101      6      761      741      742      705
    2102      6      761      741      742      762
    2103      6      741      742      705      706
    2104      6      741      742      705      661
    2105      6      762      742      705      706
    2106      6      762      742      705      661
    2107      7      733      734      709      708
    2108     10      733      734      709      710
    2109      8      735      734      709      708
    2110      7      735      734      709      710
    2111      6      739      740      735      734
    2112      6      739      740      735      736
    2113      6      760      740      735      734
    2114      6      760      740      735      736
    2115      6      731      732      711      710
    2116      6      731      732      711      712
    2117      6      733      732      711      710
    2118      6      733      732      711      712
    2119      6      728      729      714      713
    2120      6      728      729      714      715
    2121      6      753      729      714      713
    2122      6      753      729      714      715
    2123      6      727      728      717      716
    2124      6      727      728      717      718
    2125      6      729      728      717      716
    2126      6      729      728      717      718
    2127      6      725      726      721      720
    2128      6      725      726      721      722
    2129      6      752      726      721      720
    2130      6      752      726      721      722
    2131      7      660      661      705      706
    2132      7      660      661      705      742
    2133      8      662      661      705      706
    2134      8      662      661      705      742
    2135      6      771      763      764      765
    2136     13      771      763      764      772
    2137      6      719      763      764      765
    2138      6      719      763      764      772
    2139      6      763      764      765      766
    2140      6      763      764      765      770
    2141      6      772      764      765      766
    2142      6      772      764      765      770
    2143     12      764      765      766      767
    2144     12      764      765      766      773
    2145     12      764      765      766      774
    2146     12      770      765      766      767
    2147     12      770      765      766      773
    2148     12      770      765      766      774
    2149     14      765      766      767      768
    2150      5      765      766      767      775
    2151      5      765      766      767      776
    2152      3      773      766      767      768
    2153      3      773      766      767      775
    2154      3      773      766      767      776
    2155      3      774      766      767      768
    2156      3      774      766      767      775
    2157      3      774      766      767      776
    2158     14      766      767      768      769
    2159      3      766      767      768      777
    2160      3      766      767      768      778
    2161      3      775      767      768      769
    2162      3      775      767      768      777
    2163      3      775      767      768      778
    2164      3      776      767      768      769
    2165      3      776      767      768      777
    2166      3      776      767      768      778
    2167      3      767      768      769      779
    2168      3      767      768      769      780
    2169      3      767      768      769      781
    2170      3      777      768      769      779
    2171      3      777      768      769      780
    2172      3      777      768      769      781
    2173      3      778      768      769      779
    2174      3      778      768      769      780
    2175      3      778      768      769      781
    2176      6      764      765      770      771
    2177      6      764      765      770      782
    2178     15      766      765      770      771
    2179      6      766      765      770      782
    2180      6      765      770      771      763
    2181      6      782      770      771      763
    2182      6      770      771      763      764
    2183      6      770      771      763      719
    2184     16      718      719      763      764
    2185     17      718      719      763      771
    2186     18      720      719      763      764
    2187     19      720      719      763      771
    2188      6      790      782      783      784
    2189      6      790      782      783      791
    2190      6      770      782      783      784
    2191      6      770      782      783      791
    2192      6      782      783      784      785
    2193      6      782      783      784      789
    2194      6      791      783      784      785
    2195      6      791      783      784      789
    2196     12      783      784      785      786
    2197     12      783      784      785      792
    2198     12      783      784      785      793
    2199     12      789      784      785      786
    2200     12      789      784      785      792
    2201     12      789      784      785      793
    2202     14      784      785      786      787
    2203      5      784      785      786      794
    2204      5      784      785      786      795
    2205      3      792      785      786      787
    2206      3      792      785      786      794
    2207      3      792      785      786      795
    2208      3      793      785      786      787
    2209      3      793      785      786      794
    2210      3      793      785      786      795
    2211     14      785      786      787      788
    2212      3      785      786      787      796
    2213      3      785      786      787      797
    2214      3      794      786      787      788
    2215      3      794      786      787      796
    2216      3      794      786      787      797
    2217      3      795      786      787      788
    2218      3      795      786      787      796
    2219      3      795      786      787      797
    2220      3      786      787      788      798
    2221      3      786      787      788      799
    2222      3      786      787      788      800
    2223      3      796      787      788      798
    2224      3      796      787      788      799
    2225      3      796      787      788      800
    2226      3      797      787      788      798
    2227      3      797      787      788      799
    2228      3      797      787      788      800
    2229      6      783      784      789      790
    2230      6      783      784      789      801
    2231     15      785      784      789      790
    2232      6      785      784      789      801
    2233      6      784      789      790      782
    2234      6      801      789      790      782
    2235      6      789      790      782      783
    2236      6      789      790      782      770
    2237      6      765      770      782      783
    2238      6      765      770      782      790
    2239      6      771      770      782      783
    2240      6      771      770      782      790
    2241      6      809      801      802      803
    2242      6      809      801      802      810
    2243      6      789      801      802      803
    2244      6      789      801      802      810
    2245      6      801      802      803      804
    2246      6      801      802      803      808
    2247      6      810      802      803      804
    2248      6      810      802      803      808
    2249     12      802      803      804      805
    2250     12      802      803      804      811
    2251     12      802      803      804      812
    2252     12      808      803      804      805
    2253     12      808      803      804      811
    2254     12      808      803      804      812
    2255     14      803      804      805      806
    2256      5      803      804      805      813
    2257      5      803      804      805      814
    2258      3      811      804      805      806
    2259      3      811      804      805      813
    2260      3      811      804      805      814
    2261      3      812      804      805      806
    2262      3      812      804      805      813
    2263      3      812      804      805      814
    2264     14      804      805      806      807
    2265      3      804      805      806      815
    2266      3      804      805      806      816
    2267      3      813      805      806      807
    2268      3      813      805      806      815
    2269      3      813      805      806      816
    2270      3      814      805      806      807
    2271      3      814      805      806      815
    2272      3      814      805      806      816
    2273      3      805      806      807      817
    2274      3      805      806      807      818
    2275      3      805      806      807      819
    2276      3      815      806      807      817
    2277      3      815      806      807      818
    2278      3      815      806      807      819
    2279      3      816      806      807      817
    2280      3      816      806      807      818
    2281      3      816      806      807      819
    2282      6      802      803      808      809
    2283      6      802      803      808      820
    2284      6      804      803      808      809
    2285      6      804      803      808      820
    2286      6      803      808      809      801
    2287      6      820      808      809      801
    2288      6      808      809      801      802
    2289      6      808      809      801      789
    2290      6      784      789      801      802
    2291      6      784      789      801      809
    2292      6      790      789      801      802
    2293      6      790      789      801      809
    2294      6      857      820      821      822
    2295      6      857      820      821      858
    2296      6      808      820      821      822
    2297      6      808      820      821      858
    2298      6      820      821      822      823
    2299      6      820      821      822      859
    2300      6      858      821      822      823
    2301      6      858      821      822      859
    2302      6      821      822      823      824
    2303      6      821      822      823      856
    2304      6      859      822      823      824
    2305      6      859      822      823      856
    2306      7      822      823      824      825
    2307      8      822      823      824      849
    2308      7      856      823      824      825
    2309      8      856      823      824      849
    2310      6      823      824      825      826
    2311      6      849      824      825      826
    2312      6      824      825      826      827
    2313      6      824      825      826      847
    2314      9      825      826      827      828
    2315      9      825      826      827      860
    2316      9      847      826      827      828
    2317      6      847      826      827      860
    2318      6      826      827      828      829
    2319      6      826      827      828      845
    2320      6      860      827      828      829
    2321      6      860      827      828      845
    2322      8      827      828      829      830
    2323      8      827      828      829      844
    2324      8      845      828      829      830
    2325      8      845      828      829      844
    2326      6      828      829      830      831
    2327      6      828      829      830      861
    2328      6      844      829      830      831
    2329      6      844      829      830      861
    2330      6      829      830      831      832
    2331      6      829      830      831      862
    2332      6      861      830      831      832
    2333      6      861      830      831      862
    2334      9      830      831      832      833
    2335      6      830      831      832      843
    2336      9      862      831      832      833
    2337      6      862      831      832      843
    2338      6      831      832      833      834
    2339      6      843      832      833      834
    2340      6      832      833      834      835
    2341      6      832      833      834      878
    2342      7      833      834      835      836
    2343     10      833      834      835      842
    2344      8      878      834      835      836
    2345      7      878      834      835      842
    2346      8      834      835      836      837
    2347      8      834      835      836      841
    2348      7      842      835      836      837
    2349      7      842      835      836      841
    2350      6      835      836      837      838
    2351      6      835      836      837      863
    2352      6      841      836      837      838
    2353      6      841      836      837      863
    2354      6      836      837      838      839
    2355      6      836      837      838      864
    2356      6      863      837      838      839
    2357      6      863      837      838      864
    2358      6      837      838      839      840
    2359      6      837      838      839      865
    2360      6      864      838      839      840
    2361      6      864      838      839      865
    2362      6      838      839      840      841
    2363      6      838      839      840      866
    2364      6      865      839      840      841
    2365      6      865      839      840      866
    2366      6      839      840      841      836
    2367      6      839      840      841      867
    2368      6      866      840      841      836
    2369      6      866      840      841      867
    2370      6      834      835      842      843
    2371      6      836      835      842      843
    2372      6      835      842      843      844
    2373      6      835      842      843      832
    2374      9      842      843      844      829
    2375      9      842      843      844      868
    2376      9      832      843      844      829
    2377      6      832      843      844      868
    2378      6      827      828      845      846
    2379      6      827      828      845      869
    2380      6      829      828      845      846
    2381      6      829      828      845      869
    2382      6      828      845      846      847
    2383      6      828      845      846      870
    2384      6      869      845      846      847
    2385      6      869      845      846      870
    2386      9      845      846      847      848
    2387      6      845      846      847      826
    2388      9      870      846      847      848
    2389      6      870      846      847      826
    2390      6      846      847      848      849
    2391      6      826      847      848      849
    2392      6      847      848      849      850
    2393      6      847      848      849      824
    2394      7      848      849      850      851
    2395      7      848      849      850      855
    2396      8      824      849      850      851
    2397      8      824      849      850      855
    2398      6      849      850      851      852
    2399      6      849      850      851      871
    2400      6      855      850      851      852
    2401      6      855      850      851      871
    2402      6      850      851      852      853
    2403      6      850      851      852      872
    2404      6      871      851      852      853
    2405      6      871      851      852      872
    2406      6      851      852      853      854
    2407      6      851      852      853      873
    2408      6      872      852      853      854
    2409      6      872      852      853      873
    2410      6      852      853      854      855
    2411      6      852      853      854      874
    2412      6      873      853      854      855
    2413      6      873      853      854      874
    2414      6      853      854      855      850
    2415      6      853      854      855      875
    2416      6      874      854      855      850
    2417      6      874      854      855      875
    2418      6      822      823      856      857
    2419      6      822      823      856      876
    2420      6      824      823      856      857
    2421      6      824      823      856      876
    2422      6      823      856      857      820
    2423      6      823      856      857      877
    2424      6      876      856      857      820
    2425      6      876      856      857      877
    2426      6      856      857      820      821
    2427      6      856      857      820      808
    2428      6      877      857      820      821
    2429      6      877      857      820      808
    2430      7      848      849      824      823
    2431     10      848      849      824      825
    2432      8      850      849      824      823
    2433      7      850      849      824      825
    2434      6      854      855      850      849
    2435      6      854      855      850      851
    2436      6      875      855      850      849
    2437      6      875      855      850      851
    2438      6      846      847      826      825
    2439      6      846      847      826      827
    2440      6      848      847      826      825
    2441      6      848      847      826      827
    2442      6      843      844      829      828
    2443      6      843      844      829      830
    2444      6      868      844      829      828
    2445      6      868      844      829      830
    2446      6      842      843      832      831
    2447      6      842      843      832      833
    2448      6      844      843      832      831
    2449      6      844      843      832      833
    2450      6      840      841      836      835
    2451      6      840      841      836      837
    2452      6      867      841      836      835
    2453      6      867      841      836      837
    2454     18      803      808      820      821
    2455     18      803      808      820      857
    2456     19      809      808      820      821
    2457     19      809      808      820      857
    2458      6      886      878      879      880
    2459     13      886      878      879      887
    2460      6      834      878      879      880
    2461      6      834      878      879      887
    2462      6      878      879      880      881
    2463      6      878      879      880      885
    2464      6      887      879      880      881
    2465      6      887      879      880      885
    2466     12      879      880      881      882
    2467     12      879      880      881      888
    2468     12      879      880      881      889
    2469     12      885      880      881      882
    2470     12      885      880      881      888
    2471     12      885      880      881      889
    2472     14      880      881      882      883
    2473      5      880      881      882      890
    2474      5      880      881      882      891
    2475      3      888      881      882      883
    2476      3      888      881      882      890
    2477      3      888      881      882      891
    2478      3      889      881      882      883
    2479      3      889      881      882      890
    2480      3      889      881      882      891
    2481     14      881      882      883      884
    2482      3      881      882      883      892
    2483      3      881      882      883      893
    2484      3      890      882      883      884
    2485      3      890      882      883      892
    2486      3      890      882      883      893
    2487      3      891      882      883      884
    2488      3      891      882      883      892
    2489      3      891      882      883      893
    2490      3      882      883      884      894
    2491      3      882      883      884      895
    2492      3      882      883      884      896
    2493      3      892      883      884      894
    2494      3      892      883      884      895
    2495      3      892      883      884      896
    2496      3      893      883      884      894
    2497      3      893      883      884      895
    2498      3      893      883      884      896
    2499      6      879      880      885      886
    2500      6      879      880      885      897
    2501      6      881      880      885      886
    2502      6      881      880      885      897
    2503      6      880      885      886      878
    2504      6      897      885      886      878
    2505      6      885      886      878      879
    2506      6      885      886      878      834
    2507     16      833      834      878      879
    2508     17      833      834      878      886
    2509     18      835      834      878      879
    2510     19      835      834      878      886
    2511      6      934      897      898      899
    2512      6      934      897      898      935
    2513      6      885      897      898      899
    2514      6      885      897      898      935
    2515      6      897      898      899      900
    2516      6      897      898      899      936
    2517      6      935      898      899      900
    2518      6      935      898      899      936
    2519      6      898      899      900      901
    2520      6      898      899      900      933
    2521      6      936      899      900      901
    2522      6      936      899      900      933
    2523      7      899      900      901      902
    2524      8      899      900      901      926
    2525      7      933      900      901      902
    2526      8      933      900      901      926
    2527      6      900      901      902      903
    2528      6      926      901      902      903
    2529      6      901      902      903      904
    2530      6      901      902      903      924
    2531      9      902      903      904      905
    2532      9      902      903      904      937
    2533      9      924      903      904      905
    2534      6      924      903      904      937
    2535      6      903      904      905      906
    2536      6      903      904      905      922
    2537      6      937      904      905      906
    2538      6      937      904      905      922
    2539      8      904      905      906      907
    2540      8      904      905      906      921
    2541      8      922      905      906      907
    2542      8      922      905      906      921
    2543      6      905      906      907      908
    2544      6      905      906      907      938
    2545      6      921      906      907      908
    2546      6      921      906      907      938
    2547      6      906      907      908      909
    2548      6      906      907      908      939
    2549      6      938      907      908      909
    2550      6      938      907      908      939
    2551      9      907      908      909      910
    2552      6      907      908      909      920
    2553      9      939      908      909      910
    2554      6      939      908      909      920
    2555      6      908      909      910      911
    2556      6      920      909      910      911
    2557      6      909      910      911      912
    2558      6      909      910      911      955
    2559      7      910      911      912      913
    2560     10      910      911      912      919
    2561      8      955      911      912      913
    2562      7      955      911      912      919
    2563      8      911      912      913      914
    2564      8      911      912      913      918
    2565      7      919      912      913      914
    2566      7      919      912      913      918
    2567      6      912      913      914      915
    2568      6      912      913      914      940
    2569      6      918      913      914      915
    2570      6      918      913      914      940
    2571      6      913      914      915      916
    2572      6      913      914      915      941
    2573      6      940      914      915      916
    2574      6      940      914      915      941
    2575      6      914      915      916      917
    2576      6      914      915      916      942
    2577      6      941      915      916      917
    2578      6      941      915      916      942
    2579      6      915      916      917      918
    2580      6      915      916      917      943
    2581      6      942      916      917      918
    2582      6      942      916      917      943
    2583      6      916      917      918      913
    2584      6      916      917      918      944
    2585      6      943      917      918      913
    2586      6      943      917      918      944
    2587      6      911      912      919      920
    2588      6      913      912      919      920
    2589      6      912      919      920      921
    2590      6      912      919      920      909
    2591      9      919      920      921      906
    2592      9      919      920      921      945
    2593      9      909      920      921      906
    2594      6      909      920      921      945
    2595      6      904      905      922      923
    2596      6      904      905      922      946
    2597      6      906      905      922      923
    2598      6      906      905      922      946
    2599      6      905      922      923      924
    2600      6      905      922      923      947
    2601      6      946      922      923      924
    2602      6      946      922      923      947
    2603      9      922      923      924      925
    2604      6      922      923      924      903
    2605      9      947      923      924      925
    2606      6      947      923      924      903
    2607      6      923      924      925      926
    2608      6      903      924      925      926
    2609      6      924      925      926      927
    2610      6      924      925      926      901
    2611      7      925      926      927      928
    2612      7      925      926      927      932
    2613      8      901      926      927      928
    2614      8      901      926      927      932
    2615      6      926      927      928      929
    2616      6      926      927      928      948
    2617      6      932      927      928      929
    2618      6      932      927      928      948
    2619      6      927      928      929      930
    2620      6      927      928      929      949
    2621      6      948      928      929      930
    2622      6      948      928      929      949
    2623      6      928      929      930      931
    2624      6      928      929      930      950
    2625      6      949      929      930      931
    2626      6      949      929      930      950
    2627      6      929      930      931      932
    2628      6      929      930      931      951
    2629      6      950      930      931      932
    2630      6      950      930      931      951
    2631      6      930      931      932      927
    2632      6      930      931      932      952
    2633      6      951      931      932      927
    2634      6      951      931      932      952
    2635      6      899      900      933      934
    2636      6      899      900      933      953
    2637      6      901      900      933      934
    2638      6      901      900      933      953
    2639      6      900      933      934      897
    2640      6      900      933      934      954
    2641      6      953      933      934      897
    2642      6      953      933      934      954
    2643      6      933      934      897      898
    2644      6      933      934      897      885
    2645      6      954      934      897      898
    2646      6      954      934      897      885
    2647      7      925      926      901      900
    2648     10      925      926      901      902
    2649      8      927      926      901      900
    2650      7      927      926      901      902
    2651      6      931      932      927      926
    2652      6      931      932      927      928
    2653      6      952      932      927      926
    2654      6      952      932      927      928
    2655      6      923      924      903      902
    2656      6      923      924      903      904
    2657      6      925      924      903      902
    2658      6      925      924      903      904
    2659      6      920      921      906      905
    2660      6      920      921      906      907
    2661      6      945      921      906      905
    2662      6      945      921      906      907
    2663      6      919      920      909      908
    2664      6      919      920      909      910
    2665      6      921      920      909      908
    2666      6      921      920      909      910
    2667      6      917      918      913      912
    2668      6      917      918      913      914
    2669      6      944      918      913      912
    2670      6      944      918      913      914
    2671     18      880      885      897      898
    2672     18      880      885      897      934
    2673     19      886      885      897      898
    2674     19      886      885      897      934
    2675      6      992      955      956      957
    2676      6      992      955      956      993
    2677      6      911      955      956      957
    2678      6      911      955      956      993
    2679      6      955      956      957      958
    2680      6      955      956      957      994
    2681      6      993      956      957      958
    2682      6      993      956      957      994
    2683      6      956      957      958      959
    2684      6      956      957      958      991
    2685      6      994      957      958      959
    2686      6      994      957      958      991
    2687      7      957      958      959      960
    2688      8      957      958      959      984
    2689      7      991      958      959      960
    2690      8      991      958      959      984
    2691      6      958      959      960      961
    2692      6      984      959      960      961
    2693      6      959      960      961      962
    2694      6      959      960      961      982
    2695      9      960      961      962      963
    2696      9      960      961      962      995
    2697      9      982      961      962      963
    2698      6      982      961      962      995
    2699      6      961      962      963      964
    2700      6      961      962      963      980
    2701      6      995      962      963      964
    2702      6      995      962      963      980
    2703      8      962      963      964      965
    2704      8      962      963      964      979
    2705      8      980      963      964      965
    2706      8      980      963      964      979
    2707      6      963      964      965      966
    2708      6      963      964      965      996
    2709      6      979      964      965      966
    2710      6      979      964      965      996
    2711      6      964      965      966      967
    2712      6      964      965      966      997
    2713      6      996      965      966      967
    2714      6      996      965      966      997
    2715      9      965      966      967      968
    2716      6      965      966      967      978
    2717      9      997      966      967      968
    2718      6      997      966      967      978
    2719      6      966      967      968      969
    2720      6      978      967      968      969
    2721      6      967      968      969      970
    2722      6      967      968      969     1013
    2723      7      968      969      970      971
    2724     10      968      969      970      977
    2725      8     1013      969      970      971
    2726      7     1013      969      970      977
    2727      8      969      970      971      972
    2728      8      969      970      971      976
    2729      7      977      970      971      972
    2730      7      977      970      971      976
    2731      6      970      971      972      973
    2732      6      970      971      972      998
    2733      6      976      971      972      973
    2734      6      976      971      972      998
    2735      6      971      972      973      974
    2736      6      971      972      973      999
    2737      6      998      972      973      974
    2738      6      998      972      973      999
    2739      6      972      973      974      975
    2740      6      972      973      974     1000
    2741      6      999      973      974      975
    2742      6      999      973      974     1000
    2743      6      973      974      975      976
    2744      6      973      974      975     1001
    2745      6     1000      974      975      976
    2746      6     1000      974      975     1001
    2747      6      974      975      976      971
    2748      6      974      975      976     1002
    2749      6     1001      975      976      971
    2750      6     1001      975      976     1002
    2751      6      969      970      977      978
    2752      6      971      970      977      978
    2753      6      970      977      978      979
    2754      6      970      977      978      967
    2755      9      977      978      979      964
    2756      9      977      978      979     1003
    2757      9      967      978      979      964
    2758      6      967      978      979     1003
    2759      6      962      963      980      981
    2760      6      962      963      980     1004
    2761      6      964      963      980      981
    2762      6      964      963      980     1004
    2763      6      963      980      981      982
    2764      6      963      980      981     1005
    2765      6     1004      980      981      982
    2766      6     1004      980      981     1005
    2767      9      980      981      982      983
    2768      6      980      981      982      961
    2769      9     1005      981      982      983
    2770      6     1005      981      982      961
    2771      6      981      982      983      984
    2772      6      961      982      983      984
    2773      6      982      983      984      985
    2774      6      982      983      984      959
    2775      7      983      984      985      986
    2776      7      983      984      985      990
    2777      8      959      984      985      986
    2778      8      959      984      985      990
    2779      6      984      985      986      987
    2780      6      984      985      986     1006
    2781      6      990      985      986      987
    2782      6      990      985      986     1006
    2783      6      985      986      987      988
    2784      6      985      986      987     1007
    2785      6     1006      986      987      988
    2786      6     1006      986      987     1007
    2787      6      986      987      988      989
    2788      6      986      987      988     1008
    2789      6     1007      987      988      989
    2790      6     1007      987      988     1008
    2791      6      987      988      989      990
    2792      6      987      988      989     1009
    2793      6     1008      988      989      990
    2794      6     1008      988      989     1009
    2795      6      988      989      990      985
    2796      6      988      989      990     1010
    2797      6     1009      989      990      985
    2798      6     1009      989      990     1010
    2799      6      957      958      991      992
    2800      6      957      958      991     1011
    2801      6      959      958      991      992
    2802      6      959      958      991     1011
    2803      6      958      991      992      955
    2804      6      958      991      992     1012
    2805      6     1011      991      992      955
    2806      6     1011      991      992     1012
    2807      6      991      992      955      956
    2808      6      991      992      955      911
    2809      6     1012      992      955      956
    2810      6     1012      992      955      911
    2811      7      983      984      959      958
    2812     10      983      984      959      960
    2813      8      985      984      959      958
    2814      7      985      984      959      960
    2815      6      989      990      985      984
    2816      6      989      990      985      986
    2817      6     1010      990      985      984
    2818      6     1010      990      985      986
    2819      6      981      982      961      960
    2820      6      981      982      961      962
    2821      6      983      982      961      960
    2822      6      983      982      961      962
    2823      6      978      979      964      963
    2824      6      978      979      964      965
    2825      6     1003      979      964      963
    2826      6     1003      979      964      965
    2827      6      977      978      967      966
    2828      6      977      978      967      968
    2829      6      979      978      967      966
    2830      6      979      978      967      968
    2831      6      975      976      971      970
    2832      6      975      976      971      972
    2833      6     1002      976      971      970
    2834      6     1002      976      971      972
    2835      7      910      911      955      956
    2836      7      910      911      955      992
    2837      8      912      911      955      956
    2838      8      912      911      955      992
    2839      6     1021     1013     1014     1015
    2840     13     1021     1013     1014     1022
    2841      6      969     1013     1014     1015
    2842      6      969     1013     1014     1022
    2843      6     1013     1014     1015     1016
    2844      6     1013     1014     1015     1020
    2845      6     1022     1014     1015     1016
    2846      6     1022     1014     1015     1020
    2847     12     1014     1015     1016     1017
    2848     12     1014     1015     1016     1023
    2849     12     1014     1015     1016     1024
    2850     12     1020     1015     1016     1017
    2851     12     1020     1015     1016     1023
    2852     12     1020     1015     1016     1024
    2853     14     1015     1016     1017     1018
    2854      5     1015     1016     1017     1025
    2855      5     1015     1016     1017     1026
    2856      3     1023     1016     1017     1018
    2857      3     1023     1016     1017     1025
    2858      3     1023     1016     1017     1026
    2859      3     1024     1016     1017     1018
    2860      3     1024     1016     1017     1025
    2861      3     1024     1016     1017     1026
    2862     14     1016     1017     1018     1019
    2863      3     1016     1017     1018     1027
    2864      3     1016     1017     1018     1028
    2865      3     1025     1017     1018     1019
    2866      3     1025     1017     1018     1027
    2867      3     1025     1017     1018     1028
    2868      3     1026     1017     1018     1019
    2869      3     1026     1017     1018     1027
    2870      3     1026     1017     1018     1028
    2871      3     1017     1018     1019     1029
    2872      3     1017     1018     1019     1030
    2873      3     1017     1018     1019     1031
    2874      3     1027     1018     1019     1029
    2875      3     1027     1018     1019     1030
    2876      3     1027     1018     1019     1031
    2877      3     1028     1018     1019     1029
    2878      3     1028     1018     1019     1030
    2879      3     1028     1018     1019     1031
    2880      6     1014     1015     1020     1021
    2881      6     1014     1015     1020     1032
    2882      6     1016     1015     1020     1021
    2883      6     1016     1015     1020     1032
    2884      6     1015     1020     1021     1013
    2885      6     1032     1020     1021     1013
    2886      6     1020     1021     1013     1014
    2887      6     1020     1021     1013      969
    2888     16      968      969     1013     1014
    2889     17      968      969     1013     1021
    2890     18      970      969     1013     1014
    2891     19      970      969     1013     1021
    2892      6     1069     1032     1033     1034
    2893      6     1069     1032     1033     1070
    2894      6     1020     1032     1033     1034
    2895      6     1020     1032     1033     1070
    2896      6     1032     1033     1034     1035
    2897      6     1032     1033     1034     1071
    2898      6     1070     1033     1034     1035
    2899      6     1070     1033     1034     1071
    2900      6     1033     1034     1035     1036
    2901      6     1033     1034     1035     1068
    2902      6     1071     1034     1035     1036
    2903      6     1071     1034     1035     1068
    2904      7     1034     1035     1036     1037
    2905      8     1034     1035     1036     1061
    2906      7     1068     1035     1036     1037
    2907      8     1068     1035     1036     1061
    2908      6     1035     1036     1037     1038
    2909      6     1061     1036     1037     1038
    2910      6     1036     1037     1038     1039
    2911      6     1036     1037     1038     1059
    2912      9     1037     1038     1039     1040
    2913      9     1037     1038     1039     1072
    2914      9     1059     1038     1039     1040
    2915      6     1059     1038     1039     1072
    2916      6     1038     1039     1040     1041
    2917      6     1038     1039     1040     1057
    2918      6     1072     1039     1040     1041
    2919      6     1072     1039     1040     1057
    2920      8     1039     1040     1041     1042
    2921      8     1039     1040     1041     1056
    2922      8     1057     1040     1041     1042
    2923      8     1057     1040     1041     1056
    2924      6     1040     1041     1042     1043
    2925      6     1040     1041     1042     1073
    2926      6     1056     1041     1042     1043
    2927      6     1056     1041     1042     1073
    2928      6     1041     1042     1043     1044
    2929      6     1041     1042     1043     1074
    2930      6     1073     1042     1043     1044
    2931      6     1073     1042     1043     1074
    2932      9     1042     1043     1044     1045
    2933      6     1042     1043     1044     1055
    2934      9     1074     1043     1044     1045
    2935      6     1074     1043     1044     1055
    2936      6     1043     1044     1045     1046
    2937      6     1055     1044     1045     1046
    2938      6     1044     1045     1046     1047
    2939      6     1044     1045     1046     1093
    2940      6     1045     1046     1047     1048
    2941     10     1045     1046     1047     1054
    2942      6     1093     1046     1047     1048
    2943      6     1093     1046     1047     1054
    2944      8     1046     1047     1048     1049
    2945      8     1046     1047     1048     1053
    2946      7     1054     1047     1048     1049
    2947      7     1054     1047     1048     1053
    2948      6     1047     1048     1049     1050
    2949      6     1047     1048     1049     1075
    2950      6     1053     1048     1049     1050
    2951      6     1053     1048     1049     1075
    2952      6     1048     1049     1050     1051
    2953      6     1048     1049     1050     1076
    2954      6     1075     1049     1050     1051
    2955      6     1075     1049     1050     1076
    2956      6     1049     1050     1051     1052
    2957      6     1049     1050     1051     1077
    2958      6     1076     1050     1051     1052
    2959      6     1076     1050     1051     1077
    2960      6     1050     1051     1052     1053
    2961      6     1050     1051     1052     1078
    2962      6     1077     1051     1052     1053
    2963      6     1077     1051     1052     1078
    2964      6     1051     1052     1053     1048
    2965      6     1051     1052     1053     1079
    2966      6     1078     1052     1053     1048
    2967      6     1078     1052     1053     1079
    2968      6     1046     1047     1054     1055
    2969      6     1048     1047     1054     1055
    2970      6     1047     1054     1055     1056
    2971      6     1047     1054     1055     1044
    2972      9     1054     1055     1056     1041
    2973      9     1054     1055     1056     1080
    2974      9     1044     1055     1056     1041
    2975      6     1044     1055     1056     1080
    2976      6     1039     1040     1057     1058
    2977      6     1039     1040     1057     1081
    2978      6     1041     1040     1057     1058
    2979      6     1041     1040     1057     1081
    2980      6     1040     1057     1058     1059
    2981      6     1040     1057     1058     1082
    2982      6     1081     1057     1058     1059
    2983      6     1081     1057     1058     1082
    2984      9     1057     1058     1059     1060
    2985      6     1057     1058     1059     1038
    2986      9     1082     1058     1059     1060
    2987      6     1082     1058     1059     1038
    2988      6     1058     1059     1060     1061
    2989      6     1038     1059     1060     1061
    2990      6     1059     1060     1061     1062
    2991      6     1059     1060     1061     1036
    2992      7     1060     1061     1062     1063
    2993      7     1060     1061     1062     1067
    2994      8     1036     1061     1062     1063
    2995      8     1036     1061     1062     1067
    2996      6     1061     1062     1063     1064
    2997      6     1061     1062     1063     1083
    2998      6     1067     1062     1063     1064
    2999      6     1067     1062     1063     1083
    3000      6     1062     1063     1064     1065
    3001      6     1062     1063     1064     1084
    3002      6     1083     1063     1064     1065
    3003      6     1083     1063     1064     1084
    3004      6     1063     1064     1065     1066
    3005      6     1063     1064     1065     1085
    3006      6     1084     1064     1065     1066
    3007      6     1084     1064     1065     1085
    3008      6     1064     1065     1066     1067
    3009      6     1064     1065     1066     1086
    3010      6     1085     1065     1066     1067
    3011      6     1085     1065     1066     1086
    3012      6     1065     1066     1067     1062
    3013      6     1065     1066     1067     1087
    3014      6     1086     1066     1067     1062
    3015      6     1086     1066     1067     1087
    3016      6     1034     1035     1068     1069
    3017      6     1034     1035     1068     1088
    3018      6     1036     1035     1068     1069
    3019      6     1036     1035     1068     1088
    3020      6     1035     1068     1069     1032
    3021      6     1035     1068     1069     1089
    3022      6     1088     1068     1069     1032
    3023      6     1088     1068     1069     1089
    3024      6     1068     1069     1032     1033
    3025      6     1068     1069     1032     1020
    3026      6     1089     1069     1032     1033
    3027      6     1089     1069     1032     1020
    3028      7     1060     1061     1036     1035
    3029     10     1060     1061     1036     1037
    3030      8     1062     1061     1036     1035
    3031      7     1062     1061     1036     1037
    3032      6     1066     1067     1062     1061
    3033      6     1066     1067     1062     1063
    3034      6     1087     1067     1062     1061
    3035      6     1087     1067     1062     1063
    3036      6     1058     1059     1038     1037
    3037      6     1058     1059     1038     1039
    3038      6     1060     1059     1038     1037
    3039      6     1060     1059     1038     1039
    3040      6     1055     1056     1041     1040
    3041      6     1055     1056     1041     1042
    3042      6     1080     1056     1041     1040
    3043      6     1080     1056     1041     1042
    3044      6     1054     1055     1044     1043
    3045      6     1054     1055     1044     1045
    3046      6     1056     1055     1044     1043
    3047      6     1056     1055     1044     1045
    3048      6     1052     1053     1048     1047
    3049      6     1052     1053     1048     1049
    3050      6     1079     1053     1048     1047
    3051      6     1079     1053     1048     1049
    3052     18     1015     1020     1032     1033
    3053     18     1015     1020     1032     1069
    3054     19     1021     1020     1032     1033
    3055     19     1021     1020     1032     1069
    3056      1     1094     1090     1091     1092
    3057      1     1095     1090     1091     1092
    3058      1     1096     1090     1091     1092
    3059      2     1090     1091     1092     1093
    3060      1     1090     1091     1092     1097
    3061      1     1090     1091     1092     1098
    3062      3     1091     1092     1093     1099
    3063      3     1091     1092     1093     1100
    3064      4     1091     1092     1093     1046
    3065      3     1097     1092     1093     1099
    3066      3     1097     1092     1093     1100
    3067      5     1097     1092     1093     1046
    3068      3     1098     1092     1093     1099
    3069      3     1098     1092     1093     1100
    3070      5     1098     1092     1093     1046
    3071     20     1045     1046     1093     1092
    3072     21     1045     1046     1093     1099
    3073     21     1045     1046     1093     1100
    3074     22     1047     1046     1093     1092
    3075     12     1047     1046     1093     1099
    3076     12     1047     1046     1093     1100

Impropers

       1      1       12       13       49        4
       2      1       13       12       14       50
       3      1       14       15       13       51
       4      1       15       16       14       48
       5      1       16       15       41       17
       6      1       18       19       39       17
       7      1       19       20       18       52
       8      1       20       21       19       37
       9      1       21       20       22       36
      10      1       22       21       23       53
      11      1       23       22       24       54
      12      1       24       23       35       25
      13      1       26       27       70       25
      14      1       27       26       28       34
      15      1       28       27       29       33
      16      1       29       28       30       55
      17      1       30       29       31       56
      18      1       31       30       32       57
      19      1       32       31       33       58
      20      1       33       28       32       59
      21      1       35       36       24       34
      22      1       36       21       35       60
      23      1       37       20       38       61
      24      1       38       37       39       62
      25      1       39       38       18       40
      26      1       41       16       42       40
      27      1       42       41       43       47
      28      1       43       42       44       63
      29      1       44       43       45       64
      30      1       45       44       46       65
      31      1       46       45       47       66
      32      1       47       42       46       67
      33      1       48       15       49       68
      34      1       49       12       48       69
      35      1       70       26       71       78
      36      1       71       70       72       79
      37      1       72       71       77       73
      38      1       77       72       89       78
      39      1       89       77       90       97
      40      1       90       89       91       98
      41      1       91       96       90       92
      42      1       96      108       91       97
      43      1      108      109      145       96
      44      1      109      108      110      146
      45      1      110      111      109      147
      46      1      111      112      110      144
      47      1      112      111      137      113
      48      1      114      115      135      113
      49      1      115      116      114      148
      50      1      116      117      115      133
      51      1      117      116      118      132
      52      1      118      117      119      149
      53      1      119      118      120      150
      54      1      120      119      131      121
      55      1      122      123      166      121
      56      1      123      122      124      130
      57      1      124      123      125      129
      58      1      125      124      126      151
      59      1      126      125      127      152
      60      1      127      126      128      153
      61      1      128      127      129      154
      62      1      129      124      128      155
      63      1      131      132      120      130
      64      1      132      117      131      156
      65      1      133      116      134      157
      66      1      134      133      135      158
      67      1      135      134      114      136
      68      1      137      112      138      136
      69      1      138      137      139      143
      70      1      139      138      140      159
      71      1      140      139      141      160
      72      1      141      140      142      161
      73      1      142      141      143      162
      74      1      143      138      142      163
      75      1      144      111      145      164
      76      1      145      108      144      165
      77      1      166      122      167      203
      78      1      167      166      168      204
      79      1      168      169      167      205
      80      1      169      170      168      202
      81      1      170      169      195      171
      82      1      172      173      193      171
      83      1      173      174      172      206
      84      1      174      175      173      191
      85      1      175      174      176      190
      86      1      176      175      177      207
      87      1      177      176      178      208
      88      1      178      177      189      179
      89      1      180      181      224      179
      90      1      181      180      182      188
      91      1      182      181      183      187
      92      1      183      182      184      209
      93      1      184      183      185      210
      94      1      185      184      186      211
      95      1      186      185      187      212
      96      1      187      182      186      213
      97      1      189      190      178      188
      98      1      190      175      189      214
      99      1      191      174      192      215
     100      1      192      191      193      216
     101      1      193      192      172      194
     102      1      195      170      196      194
     103      1      196      195      197      201
     104      1      197      196      198      217
     105      1      198      197      199      218
     106      1      199      198      200      219
     107      1      200      199      201      220
     108      1      201      196      200      221
     109      1      202      169      203      222
     110      1      203      166      202      223
     111      1      224      180      225      232
     112      1      225      224      226      233
     113      1      226      231      225      227
     114      1      231      243      226      232
     115      1      243      244      280      231
     116      1      244      243      245      281
     117      1      245      246      244      282
     118      1      246      247      245      279
     119      1      247      246      272      248
     120      1      249      250      270      248
     121      1      250      251      249      283
     122      1      251      252      250      268
     123      1      252      251      253      267
     124      1      253      252      254      284
     125      1      254      253      255      285
     126      1      255      254      266      256
     127      1      257      258      301      256
     128      1      258      257      259      265
     129      1      259      258      260      264
     130      1      260      259      261      286
     131      1      261      260      262      287
     132      1      262      261      263      288
     133      1      263      262      264      289
     134      1      264      259      263      290
     135      1      266      267      255      265
     136      1      267      252      266      291
     137      1      268      251      269      292
     138      1      269      268      270      293
     139      1      270      269      249      271
     140      1      272      247      273      271
     141      1      273      272      274      278
     142      1      274      273      275      294
     143      1      275      274      276      295
     144      1      276      275      277      296
     145      1      277      276      278      297
     146      1      278      273      277      298
     147      1      279      246      280      299
     148      1      280      243      279      300
     149      1      301      257      302      309
     150      1      302      301      303      310
     151      1      303      308      302      304
     152      1      308      320      303      309
     153      1      320      321      357      308
     154      1      321      320      322      358
     155      1      322      323      321      359
     156      1      323      324      322      356
     157      1      324      323      349      325
     158      1      326      327      347      325
     159      1      327      328      326      360
     160      1      328      329      327      345
     161      1      329      328      330      344
     162      1      330      329      331      361
     163      1      331      330      332      362
     164      1      332      331      343      333
     165      1      334      335      378      333
     166      1      335      334      336      342
     167      1      336      335      337      341
     168      1      337      336      338      363
     169      1      338      337      339      364
     170      1      339      338      340      365
     171      1      340      339      341      366
     172      1      341      336      340      367
     173      1      343      344      332      342
     174      1      344      329      343      368
     175      1      345      328      346      369
     176      1      346      345      347      370
     177      1      347      346      326      348
     178      1      349      324      350      348
     179      1      350      349      351      355
     180      1      351      350      352      371
     181      1      352      351      353      372
     182      1      353      352      354      373
     183      1      354      353      355      374
     184      1      355      350      354      375
     185      1      356      323      357      376
     186      1      357      320      356      377
     187      1      378      334      379      386
     188      1      379      378      380      387
     189      1      380      385      379      381
     190      1      385      397      380      386
     191      1      397      398      434      385
     192      1      398      397      399      435
     193      1      399      400      398      436
     194      1      400      401      399      433
     195      1      401      400      426      402
     196      1      403      404      424      402
     197      1      404      405      403      437
     198      1      405      406      404      422
     199      1      406      405      407      421
     200      1      407      406      408      438
     201      1      408      407      409      439
     202      1      409      408      420      410
     203      1      411      412      455      410
     204      1      412      411      413      419
     205      1      413      412      414      418
     206      1      414      413      415      440
     207      1      415      414      416      441
     208      1      416      415      417      442
     209      1      417      416      418      443
     210      1      418      413      417      444
     211      1      420      421      409      419
     212      1      421      406      420      445
     213      1      422      405      423      446
     214      1      423      422      424      447
     215      1      424      423      403      425
     216      1      426      401      427      425
     217      1      427      426      428      432
     218      1      428      427      429      448
     219      1      429      428      430      449
     220      1      430      429      431      450
     221      1      431      430      432      451
     222      1      432      427      431      452
     223      1      433      400      434      453
     224      1      434      397      433      454
     225      1      455      411      456      463
     226      1      456      455      457      464
     227      1      457      456      462      458
     228      1      462      457      474      463
     229      1      474      462      475      482
     230      1      475      474      476      483
     231      1      476      475      481      477
     232      1      481      476      493      482
     233      1      493      481      494      501
     234      1      494      493      495      502
     235      1      495      500      494      496
     236      1      500      512      495      501
     237      1      512      513      549      500
     238      1      513      512      514      550
     239      1      514      515      513      551
     240      1      515      516      514      548
     241      1      516      515      541      517
     242      1      518      519      539      517
     243      1      519      520      518      552
     244      1      520      521      519      537
     245      1      521      520      522      536
     246      1      522      521      523      553
     247      1      523      522      524      554
     248      1      524      523      535      525
     249      1      526      527      570      525
     250      1      527      526      528      534
     251      1      528      527      529      533
     252      1      529      528      530      555
     253      1      530      529      531      556
     254      1      531      530      532      557
     255      1      532      531      533      558
     256      1      533      528      532      559
     257      1      535      536      524      534
     258      1      536      521      535      560
     259      1      537      520      538      561
     260      1      538      537      539      562
     261      1      539      538      518      540
     262      1      541      516      542      540
     263      1      542      541      543      547
     264      1      543      542      544      563
     265      1      544      543      545      564
     266      1      545      544      546      565
     267      1      546      545      547      566
     268      1      547      542      546      567
     269      1      548      515      549      568
     270      1      549      512      548      569
     271      1      570      526      571      607
     272      1      571      570      572      608
     273      1      572      573      571      609
     274      1      573      574      572      606
     275      1      574      573      599      575
     276      1      576      577      597      575
     277      1      577      578      576      610
     278      1      578      579      577      595
     279      1      579      578      580      594
     280      1      580      579      581      611
     281      1      581      580      582      612
     282      1      582      581      593      583
     283      1      584      585      628      583
     284      1      585      584      586      592
     285      1      586      585      587      591
     286      1      587      586      588      613
     287      1      588      587      589      614
     288      1      589      588      590      615
     289      1      590      589      591      616
     290      1      591      586      590      617
     291      1      593      594      582      592
     292      1      594      579      593      618
     293      1      595      578      596      619
     294      1      596      595      597      620
     295      1      597      596      576      598
     296      1      599      574      600      598
     297      1      600      599      601      605
     298      1      601      600      602      621
     299      1      602      601      603      622
     300      1      603      602      604      623
     301      1      604      603      605      624
     302      1      605      600      604      625
     303      1      606      573      607      626
     304      1      607      570      606      627
     305      1      628      584      629      636
     306      1      629      628      630      637
     307      1      630      635      629      631
     308      1      635      647      630      636
     309      1      647      648      684      635
     310      1      648      647      649      685
     311      1      649      650      648      686
     312      1      650      651      649      683
     313      1      651      650      676      652
     314      1      653      654      674      652
     315      1      654      655      653      687
     316      1      655      656      654      672
     317      1      656      655      657      671
     318      1      657      656      658      688
     319      1      658      657      659      689
     320      1      659      658      670      660
     321      1      661      662      705      660
     322      1      662      661      663      669
     323      1      663      662      664      668
     324      1      664      663      665      690
     325      1      665      664      666      691
     326      1      666      665      667      692
     327      1      667      666      668      693
     328      1      668      663      667      694
     329      1      670      671      659      669
     330      1      671      656      670      695
     331      1      672      655      673      696
     332      1      673      672      674      697
     333      1      674      673      653      675
     334      1      676      651      677      675
     335      1      677      676      678      682
     336      1      678      677      679      698
     337      1      679      678      680      699
     338      1      680      679      681      700
     339      1      681      680      682      701
     340      1      682      677      681      702
     341      1      683      650      684      703
     342      1      684      647      683      704
     343      1      705      661      706      742
     344      1      706      705      707      743
     345      1      707      708      706      744
     346      1      708      709      707      741
     347      1      709      708      734      710
     348      1      711      712      732      710
     349      1      712      713      711      745
     350      1      713      714      712      730
     351      1      714      713      715      729
     352      1      715      714      716      746
     353      1      716      715      717      747
     354      1      717      716      728      718
     355      1      719      720      763      718
     356      1      720      719      721      727
     357      1      721      720      722      726
     358      1      722      721      723      748
     359      1      723      722      724      749
     360      1      724      723      725      750
     361      1      725      724      726      751
     362      1      726      721      725      752
     363      1      728      729      717      727
     364      1      729      714      728      753
     365      1      730      713      731      754
     366      1      731      730      732      755
     367      1      732      731      711      733
     368      1      734      709      735      733
     369      1      735      734      736      740
     370      1      736      735      737      756
     371      1      737      736      738      757
     372      1      738      737      739      758
     373      1      739      738      740      759
     374      1      740      735      739      760
     375      1      741      708      742      761
     376      1      742      705      741      762
     377      1      763      719      764      771
     378      1      764      763      765      772
     379      1      765      764      770      766
     380      1      770      765      782      771
     381      1      782      770      783      790
     382      1      783      782      784      791
     383      1      784      783      789      785
     384      1      789      784      801      790
     385      1      801      789      802      809
     386      1      802      801      803      810
     387      1      803      808      802      804
     388      1      808      820      803      809
     389      1      820      821      857      808
     390      1      821      820      822      858
     391      1      822      823      821      859
     392      1      823      824      822      856
     393      1      824      823      849      825
     394      1      826      827      847      825
     395      1      827      828      826      860
     396      1      828      829      827      845
     397      1      829      828      830      844
     398      1      830      829      831      861
     399      1      831      830      832      862
     400      1      832      831      843      833
     401      1      834      835      878      833
     402      1      835      834      836      842
     403      1      836      835      837      841
     404      1      837      836      838      863
     405      1      838      837      839      864
     406      1      839      838      840      865
     407      1      840      839      841      866
     408      1      841      836      840      867
     409      1      843      844      832      842
     410      1      844      829      843      868
     411      1      845      828      846      869
     412      1      846      845      847      870
     413      1      847      846      826      848
     414      1      849      824      850      848
     415      1      850      849      851      855
     416      1      851      850      852      871
     417      1      852      851      853      872
     418      1      853      852      854      873
     419      1      854      853      855      874
     420      1      855      850      854      875
     421      1      856      823      857      876
     422      1      857      820      856      877
     423      1      878      834      879      886
     424      1      879      878      880      887
     425      1      880      885      879      881
     426      1      885      897      880      886
     427      1      897      898      934      885
     428      1      898      897      899      935
     429      1      899      900      898      936
     430      1      900      901      899      933
     431      1      901      900      926      902
     432      1      903      904      924      902
     433      1      904      905      903      937
     434      1      905      906      904      922
     435      1      906      905      907      921
     436      1      907      906      908      938
     437      1      908      907      909      939
     438      1      909      908      920      910
     439      1      911      912      955      910
     440      1      912      911      913      919
     441      1      913      912      914      918
     442      1      914      913      915      940
     443      1      915      914      916      941
     444      1      916      915      917      942
     445      1      917      916      918      943
     446      1      918      913      917      944
     447      1      920      921      909      919
     448      1      921      906      920      945
     449      1      922      905      923      946
     450      1      923      922      924      947
     451      1      924      923      903      925
     452      1      926      901      927      925
     453      1      927      926      928      932
     454      1      928      927      929      948
     455      1      929      928      930      949
     456      1      930      929      931      950
     457      1      931      930      932      951
     458      1      932      927      931      952
     459      1      933      900      934      953
     460      1      934      897      933      954
     461      1      955      911      956      992
     462      1      956      955      957      993
     463      1      957      958      956      994
     464      1      958      959      957      991
     465      1      959      958      984      960
     466      1      961      962      982      960
     467      1      962      963      961      995
     468      1      963      964      962      980
     469      1      964      963      965      979
     470      1      965      964      966      996
     471      1      966      965      967      997
     472      1      967      966      978      968
     473      1      969      970     1013      968
     474      1      970      969      971      977
     475      1      971      970      972      976
     476      1      972      971      973      998
     477      1      973      972      974      999
     478      1      974      973      975     1000
     479      1      975      974      976     1001
     480      1      976      971      975     1002
     481      1      978      979      967      977
     482      1      979      964      978     1003
     483      1      980      963      981     1004
     484      1      981      980      982     1005
     485      1      982      981      961      983
     486      1      984      959      985      983
     487      1      985      984      986      990
     488      1      986      985      987     1006
     489      1      987      986      988     1007
     490      1      988      987      989     1008
     491      1      989      988      990     1009
     492      1      990      985      989     1010
     493      1      991      958      992     1011
     494      1      992      955      991     1012
     495      1     1013      969     1014     1021
     496      1     1014     1013     1015     1022
     497      1     1015     1020     1014     1016
     498      1     1020     1032     1015     1021
     499      1     1032     1033     1069     1020
     500      1     1033     1032     1034     1070
     501      1     1034     1035     1033     1071
     502      1     1035     1036     1034     1068
     503      1     1036     1035     1061     1037
     504      1     1038     1039     1059     1037
     505      1     1039     1040     1038     1072
     506      1     1040     1041     1039     1057
     507      1     1041     1040     1042     1056
     508      1     1042     1041     1043     1073
     509      1     1043     1042     1044     1074
     510      1     1044     1043     1055     1045
     511      1     1046     1047     1093     1045
     512      1     1047     1048     1046     1054
     513      1     1048     1047     1049     1053
     514      1     1049     1048     1050     1075
     515      1     1050     1049     1051     1076
     516      1     1051     1050     1052     1077
     517      1     1052     1051     1053     1078
     518      1     1053     1048     1052     1079
     519      1     1055     1056     1044     1054
     520      1     1056     1041     1055     1080
     521      1     1057     1040     1058     1081
     522      1     1058     1057     1059     1082
     523      1     1059     1058     1038     1060
     524      1     1061     1036     1062     1060
     525      1     1062     1061     1063     1067
     526      1     1063     1062     1064     1083
     527      1     1064     1063     1065     1084
     528      1     1065     1064     1066     1085
     529      1     1066     1065     1067     1086
     530      1     1067     1062     1066     1087
     531      1     1068     1035     1069     1088
     532      1     1069     1032     1068     1089

